*SPEF "ieee 1481-1999"
*DESIGN "spm"
*DATE "05:19:09 Thursday July 23, 2026"
*VENDOR "The OpenROAD Project"
*PROGRAM "OpenROAD"
*VERSION "26Q3-155-g1bade74e72"
// SI-BOUNDED SPEF (HOLD corner) — Miller-Coupling-Factor delay bound
// Cc*MCF folded to victim ground, MCF=0 in-window / 1 decoupled
// window overlap gated by OpenSTA arrival windows (guard=0.0ns; unknown window => assume overlap)
// CONSERVATIVE BOUND, not PrimeTime-SI iterative waveform delay; no glitch/noise analysis; NOT silicon-proven
*DESIGN_FLOW "NAME_SCOPE LOCAL" "PIN_CAP NONE"
*DIVIDER /
*DELIMITER :
*BUS_DELIMITER []
*T_UNIT 1 NS
*C_UNIT 1 PF
*R_UNIT 1 OHM
*L_UNIT 1 HENRY

*NAME_MAP
*39 _000_
*40 _001_
*41 _002_
*42 _003_
*43 _004_
*44 _005_
*45 _006_
*46 _007_
*47 _008_
*48 _009_
*49 _010_
*50 _011_
*51 _012_
*52 _013_
*53 _014_
*54 _015_
*55 _016_
*56 _017_
*57 _018_
*58 _019_
*59 _020_
*60 _021_
*61 _022_
*62 _023_
*63 _024_
*64 _025_
*65 _026_
*66 _027_
*67 _028_
*68 _029_
*69 _030_
*70 _031_
*71 _032_
*72 _033_
*73 _034_
*74 _035_
*75 _036_
*76 _037_
*77 _038_
*78 _039_
*79 _040_
*80 _041_
*81 _042_
*82 _043_
*83 _044_
*84 _045_
*85 _046_
*86 _047_
*87 _048_
*88 _049_
*89 _050_
*90 _051_
*91 _052_
*92 _053_
*93 _054_
*94 _055_
*95 _056_
*96 _057_
*97 _058_
*98 _059_
*99 _060_
*100 _061_
*101 _062_
*102 _063_
*103 _064_
*104 _065_
*105 _066_
*106 _067_
*107 _068_
*108 _069_
*109 _070_
*110 _071_
*111 _072_
*112 _073_
*113 _074_
*114 _075_
*115 _076_
*116 _077_
*117 _078_
*118 _079_
*119 _080_
*120 _081_
*121 _082_
*122 _083_
*123 _084_
*124 _085_
*125 _086_
*126 _087_
*127 _088_
*128 _089_
*129 _090_
*130 _091_
*131 _092_
*132 _093_
*133 _094_
*134 _095_
*135 _096_
*136 _097_
*137 _098_
*138 _099_
*139 _100_
*140 _101_
*141 _102_
*142 _103_
*143 _104_
*144 _105_
*145 _106_
*146 _107_
*147 _108_
*148 _109_
*149 _110_
*150 _111_
*151 _112_
*152 _113_
*153 _114_
*154 _115_
*155 _116_
*156 _117_
*157 _118_
*158 _119_
*159 _120_
*160 _121_
*161 _122_
*162 _123_
*163 _124_
*164 _125_
*165 _126_
*166 _127_
*167 _128_
*168 _129_
*169 _130_
*170 _131_
*171 _132_
*172 _133_
*173 _134_
*174 _135_
*175 _136_
*176 _137_
*177 _138_
*178 _139_
*179 _140_
*180 _141_
*181 _142_
*182 _143_
*183 _144_
*184 _145_
*185 _146_
*186 _147_
*187 _148_
*188 _149_
*189 _150_
*190 _151_
*191 _152_
*192 _153_
*193 _154_
*194 _155_
*195 _156_
*196 _157_
*197 _158_
*198 _159_
*199 _160_
*200 _161_
*201 _162_
*202 _163_
*203 _164_
*204 _165_
*205 _166_
*206 _167_
*207 _168_
*208 _169_
*209 _170_
*210 _171_
*211 _172_
*212 _173_
*213 _174_
*214 _175_
*215 _176_
*216 _177_
*217 _178_
*218 _179_
*219 _180_
*220 _181_
*221 _182_
*222 _183_
*223 _184_
*224 _185_
*225 _186_
*226 _187_
*227 _188_
*228 _189_
*229 _190_
*230 _191_
*231 _192_
*232 _193_
*233 _194_
*234 _195_
*235 _196_
*236 _197_
*237 _198_
*238 _199_
*239 _200_
*240 _201_
*241 _202_
*242 _203_
*243 _204_
*244 _205_
*245 _206_
*246 _207_
*247 _208_
*248 _209_
*249 _210_
*250 _211_
*251 _212_
*252 _213_
*253 _214_
*254 _215_
*255 _216_
*256 _217_
*257 _218_
*258 _219_
*259 _220_
*260 _221_
*261 _222_
*262 _223_
*263 _224_
*264 _225_
*265 _226_
*266 _227_
*267 _228_
*268 _229_
*269 _230_
*270 _231_
*271 _232_
*272 _233_
*273 _234_
*274 _235_
*275 _236_
*276 _237_
*277 _238_
*278 _239_
*279 _240_
*280 _241_
*281 _242_
*282 _243_
*283 _244_
*284 _245_
*285 _246_
*286 _247_
*287 _248_
*288 _249_
*289 _250_
*290 _251_
*291 _252_
*292 _253_
*293 _254_
*294 _255_
*295 _256_
*296 _257_
*297 _258_
*298 _259_
*299 _260_
*300 _261_
*301 _262_
*302 _263_
*303 _264_
*304 _265_
*305 _266_
*306 _267_
*307 _268_
*308 _269_
*309 _270_
*310 _271_
*311 _272_
*312 _273_
*313 _274_
*314 _275_
*315 _276_
*316 _277_
*317 _278_
*318 _279_
*319 _280_
*320 _281_
*321 _282_
*322 _283_
*323 _284_
*324 _285_
*325 _286_
*326 c[0]
*327 c[10]
*328 c[11]
*329 c[12]
*330 c[13]
*331 c[14]
*332 c[15]
*333 c[16]
*334 c[17]
*335 c[18]
*336 c[19]
*337 c[1]
*338 c[20]
*339 c[21]
*340 c[22]
*341 c[23]
*342 c[24]
*343 c[25]
*344 c[26]
*345 c[27]
*346 c[28]
*347 c[29]
*348 c[2]
*349 c[30]
*350 c[31]
*351 c[3]
*352 c[4]
*353 c[5]
*354 c[6]
*355 c[7]
*356 c[8]
*357 c[9]
*1 clk
*358 clknet_0_clk
*359 clknet_4_0_0_clk
*360 clknet_4_10_0_clk
*361 clknet_4_11_0_clk
*362 clknet_4_12_0_clk
*363 clknet_4_13_0_clk
*364 clknet_4_14_0_clk
*365 clknet_4_15_0_clk
*366 clknet_4_1_0_clk
*367 clknet_4_2_0_clk
*368 clknet_4_3_0_clk
*369 clknet_4_4_0_clk
*370 clknet_4_5_0_clk
*371 clknet_4_6_0_clk
*372 clknet_4_7_0_clk
*373 clknet_4_8_0_clk
*374 clknet_4_9_0_clk
*375 net29
*376 net30
*377 net31
*378 net32
*379 net33
*380 net34
*381 net35
*382 net36
*383 net37
*384 net38
*385 net39
*386 net40
*387 net41
*388 net42
*389 net43
*390 net44
*391 net45
*392 net46
*393 net47
*394 net48
*395 net49
*396 net50
*397 net51
*398 net52
*399 net53
*400 net54
*401 net55
*402 net56
*403 net57
*404 net58
*405 net59
*406 net60
*407 net61
*408 net62
*409 net63
*410 net64
*411 net65
*412 net66
*413 net67
*414 net68
*415 net69
*416 net70
*417 net71
*418 net72
*419 net73
*420 net74
*421 net75
*422 net76
*423 net77
*424 net78
*425 net79
*426 net80
*427 net81
*428 net82
*429 net83
*430 net84
*431 net85
*432 net86
*433 net87
*434 net88
*435 net89
*2 p_reg
*3 rst
*436 s[0]
*437 s[10]
*438 s[11]
*439 s[12]
*440 s[13]
*441 s[14]
*442 s[15]
*443 s[16]
*444 s[17]
*445 s[18]
*446 s[19]
*447 s[1]
*448 s[20]
*449 s[21]
*450 s[22]
*451 s[23]
*452 s[24]
*453 s[25]
*454 s[26]
*455 s[27]
*456 s[28]
*457 s[29]
*458 s[2]
*459 s[30]
*460 s[3]
*461 s[4]
*462 s[5]
*463 s[6]
*464 s[7]
*465 s[8]
*466 s[9]
*467 spare_tielo
*4 x[0]
*5 x[10]
*6 x[11]
*7 x[12]
*8 x[13]
*9 x[14]
*10 x[15]
*11 x[16]
*12 x[17]
*13 x[18]
*14 x[19]
*15 x[1]
*16 x[20]
*17 x[21]
*18 x[22]
*19 x[23]
*20 x[24]
*21 x[25]
*22 x[26]
*23 x[27]
*24 x[28]
*25 x[29]
*26 x[2]
*27 x[30]
*28 x[31]
*29 x[3]
*30 x[4]
*31 x[5]
*32 x[6]
*33 x[7]
*34 x[8]
*35 x[9]
*36 y
*468 y_rep[0]
*469 FILLER_0_0
*470 FILLER_0_105
*471 FILLER_0_118
*472 FILLER_0_122
*473 FILLER_0_17
*474 FILLER_0_173
*475 FILLER_0_218
*476 FILLER_0_226
*477 FILLER_0_242
*478 FILLER_0_25
*479 FILLER_0_250
*480 FILLER_0_258
*481 FILLER_0_266
*482 FILLER_0_272
*483 FILLER_0_280
*484 FILLER_0_288
*485 FILLER_0_303
*486 FILLER_0_311
*487 FILLER_0_319
*488 FILLER_0_323
*489 FILLER_0_33
*490 FILLER_0_4
*491 FILLER_0_41
*492 FILLER_0_49
*493 FILLER_0_57
*494 FILLER_0_65
*495 FILLER_0_73
*496 FILLER_0_81
*497 FILLER_0_89
*498 FILLER_0_9
*499 FILLER_0_97
*500 FILLER_10_0
*501 FILLER_10_104
*502 FILLER_10_112
*503 FILLER_10_120
*504 FILLER_10_128
*505 FILLER_10_136
*506 FILLER_10_140
*507 FILLER_10_147
*508 FILLER_10_149
*509 FILLER_10_156
*510 FILLER_10_158
*511 FILLER_10_16
*512 FILLER_10_194
*513 FILLER_10_202
*514 FILLER_10_210
*515 FILLER_10_218
*516 FILLER_10_226
*517 FILLER_10_234
*518 FILLER_10_24
*519 FILLER_10_242
*520 FILLER_10_250
*521 FILLER_10_252
*522 FILLER_10_258
*523 FILLER_10_266
*524 FILLER_10_274
*525 FILLER_10_278
*526 FILLER_10_284
*527 FILLER_10_292
*528 FILLER_10_300
*529 FILLER_10_308
*530 FILLER_10_316
*531 FILLER_10_32
*532 FILLER_10_40
*533 FILLER_10_48
*534 FILLER_10_56
*535 FILLER_10_64
*536 FILLER_10_72
*537 FILLER_10_8
*538 FILLER_10_80
*539 FILLER_10_88
*540 FILLER_10_96
*541 FILLER_11_0
*542 FILLER_11_107
*543 FILLER_11_115
*544 FILLER_11_123
*545 FILLER_11_127
*546 FILLER_11_159
*547 FILLER_11_16
*548 FILLER_11_167
*549 FILLER_11_169
*550 FILLER_11_174
*551 FILLER_11_182
*552 FILLER_11_190
*553 FILLER_11_198
*554 FILLER_11_206
*555 FILLER_11_214
*556 FILLER_11_216
*557 FILLER_11_222
*558 FILLER_11_228
*559 FILLER_11_236
*560 FILLER_11_244
*561 FILLER_11_248
*562 FILLER_11_261
*563 FILLER_11_269
*564 FILLER_11_303
*565 FILLER_11_311
*566 FILLER_11_319
*567 FILLER_11_323
*568 FILLER_11_49
*569 FILLER_11_53
*570 FILLER_11_59
*571 FILLER_11_65
*572 FILLER_11_72
*573 FILLER_11_8
*574 FILLER_11_80
*575 FILLER_11_84
*576 FILLER_11_91
*577 FILLER_11_99
*578 FILLER_12_0
*579 FILLER_12_103
*580 FILLER_12_113
*581 FILLER_12_121
*582 FILLER_12_129
*583 FILLER_12_137
*584 FILLER_12_145
*585 FILLER_12_153
*586 FILLER_12_161
*587 FILLER_12_169
*588 FILLER_12_177
*589 FILLER_12_185
*590 FILLER_12_189
*591 FILLER_12_200
*592 FILLER_12_219
*593 FILLER_12_221
*594 FILLER_12_249
*595 FILLER_12_264
*596 FILLER_12_268
*597 FILLER_12_296
*598 FILLER_12_304
*599 FILLER_12_312
*600 FILLER_12_320
*601 FILLER_12_33
*602 FILLER_12_41
*603 FILLER_12_8
*604 FILLER_13_0
*605 FILLER_13_119
*606 FILLER_13_127
*607 FILLER_13_135
*608 FILLER_13_146
*609 FILLER_13_154
*610 FILLER_13_162
*611 FILLER_13_170
*612 FILLER_13_175
*613 FILLER_13_215
*614 FILLER_13_217
*615 FILLER_13_222
*616 FILLER_13_230
*617 FILLER_13_238
*618 FILLER_13_25
*619 FILLER_13_260
*620 FILLER_13_268
*621 FILLER_13_272
*622 FILLER_13_277
*623 FILLER_13_285
*624 FILLER_13_293
*625 FILLER_13_301
*626 FILLER_13_309
*627 FILLER_13_317
*628 FILLER_13_33
*629 FILLER_13_41
*630 FILLER_13_49
*631 FILLER_13_57
*632 FILLER_13_65
*633 FILLER_13_71
*634 FILLER_13_79
*635 FILLER_13_8
*636 FILLER_13_87
*637 FILLER_13_91
*638 FILLER_14_0
*639 FILLER_14_131
*640 FILLER_14_143
*641 FILLER_14_151
*642 FILLER_14_159
*643 FILLER_14_183
*644 FILLER_14_191
*645 FILLER_14_199
*646 FILLER_14_207
*647 FILLER_14_215
*648 FILLER_14_223
*649 FILLER_14_231
*650 FILLER_14_236
*651 FILLER_14_244
*652 FILLER_14_252
*653 FILLER_14_260
*654 FILLER_14_268
*655 FILLER_14_276
*656 FILLER_14_284
*657 FILLER_14_29
*658 FILLER_14_292
*659 FILLER_14_300
*660 FILLER_14_308
*661 FILLER_14_316
*662 FILLER_14_37
*663 FILLER_14_45
*664 FILLER_14_53
*665 FILLER_14_89
*666 FILLER_14_97
*667 FILLER_15_0
*668 FILLER_15_103
*669 FILLER_15_111
*670 FILLER_15_119
*671 FILLER_15_123
*672 FILLER_15_164
*673 FILLER_15_191
*674 FILLER_15_199
*675 FILLER_15_207
*676 FILLER_15_215
*677 FILLER_15_223
*678 FILLER_15_231
*679 FILLER_15_239
*680 FILLER_15_247
*681 FILLER_15_255
*682 FILLER_15_266
*683 FILLER_15_274
*684 FILLER_15_282
*685 FILLER_15_290
*686 FILLER_15_298
*687 FILLER_15_306
*688 FILLER_15_314
*689 FILLER_15_322
*690 FILLER_15_36
*691 FILLER_15_38
*692 FILLER_15_43
*693 FILLER_15_51
*694 FILLER_15_59
*695 FILLER_15_67
*696 FILLER_15_75
*697 FILLER_15_8
*698 FILLER_15_83
*699 FILLER_15_91
*700 FILLER_16_0
*701 FILLER_16_109
*702 FILLER_16_117
*703 FILLER_16_125
*704 FILLER_16_133
*705 FILLER_16_141
*706 FILLER_16_149
*707 FILLER_16_157
*708 FILLER_16_16
*709 FILLER_16_165
*710 FILLER_16_169
*711 FILLER_16_176
*712 FILLER_16_205
*713 FILLER_16_213
*714 FILLER_16_219
*715 FILLER_16_227
*716 FILLER_16_231
*717 FILLER_16_236
*718 FILLER_16_24
*719 FILLER_16_244
*720 FILLER_16_270
*721 FILLER_16_278
*722 FILLER_16_286
*723 FILLER_16_294
*724 FILLER_16_302
*725 FILLER_16_310
*726 FILLER_16_318
*727 FILLER_16_32
*728 FILLER_16_322
*729 FILLER_16_40
*730 FILLER_16_48
*731 FILLER_16_56
*732 FILLER_16_58
*733 FILLER_16_67
*734 FILLER_16_76
*735 FILLER_16_8
*736 FILLER_16_84
*737 FILLER_16_92
*738 FILLER_16_94
*739 FILLER_17_0
*740 FILLER_17_106
*741 FILLER_17_114
*742 FILLER_17_122
*743 FILLER_17_130
*744 FILLER_17_138
*745 FILLER_17_146
*746 FILLER_17_154
*747 FILLER_17_16
*748 FILLER_17_162
*749 FILLER_17_170
*750 FILLER_17_174
*751 FILLER_17_180
*752 FILLER_17_188
*753 FILLER_17_196
*754 FILLER_17_25
*755 FILLER_17_257
*756 FILLER_17_259
*757 FILLER_17_268
*758 FILLER_17_297
*759 FILLER_17_305
*760 FILLER_17_313
*761 FILLER_17_321
*762 FILLER_17_323
*763 FILLER_17_33
*764 FILLER_17_39
*765 FILLER_17_54
*766 FILLER_17_56
*767 FILLER_17_8
*768 FILLER_17_98
*769 FILLER_18_0
*770 FILLER_18_112
*771 FILLER_18_12
*772 FILLER_18_120
*773 FILLER_18_130
*774 FILLER_18_138
*775 FILLER_18_142
*776 FILLER_18_149
*777 FILLER_18_151
*778 FILLER_18_183
*779 FILLER_18_191
*780 FILLER_18_199
*781 FILLER_18_207
*782 FILLER_18_218
*783 FILLER_18_222
*784 FILLER_18_231
*785 FILLER_18_239
*786 FILLER_18_247
*787 FILLER_18_259
*788 FILLER_18_267
*789 FILLER_18_275
*790 FILLER_18_283
*791 FILLER_18_291
*792 FILLER_18_299
*793 FILLER_18_307
*794 FILLER_18_315
*795 FILLER_18_323
*796 FILLER_18_56
*797 FILLER_18_64
*798 FILLER_18_76
*799 FILLER_18_8
*800 FILLER_18_84
*801 FILLER_19_0
*802 FILLER_19_106
*803 FILLER_19_108
*804 FILLER_19_160
*805 FILLER_19_168
*806 FILLER_19_176
*807 FILLER_19_184
*808 FILLER_19_192
*809 FILLER_19_200
*810 FILLER_19_208
*811 FILLER_19_216
*812 FILLER_19_224
*813 FILLER_19_232
*814 FILLER_19_240
*815 FILLER_19_263
*816 FILLER_19_271
*817 FILLER_19_279
*818 FILLER_19_287
*819 FILLER_19_295
*820 FILLER_19_303
*821 FILLER_19_311
*822 FILLER_19_319
*823 FILLER_19_323
*824 FILLER_19_34
*825 FILLER_19_46
*826 FILLER_19_54
*827 FILLER_19_62
*828 FILLER_19_70
*829 FILLER_19_78
*830 FILLER_19_86
*831 FILLER_19_98
*832 FILLER_1_0
*833 FILLER_1_103
*834 FILLER_1_124
*835 FILLER_1_129
*836 FILLER_1_178
*837 FILLER_1_188
*838 FILLER_1_194
*839 FILLER_1_204
*840 FILLER_1_214
*841 FILLER_1_246
*842 FILLER_1_252
*843 FILLER_1_256
*844 FILLER_1_277
*845 FILLER_1_285
*846 FILLER_1_289
*847 FILLER_1_318
*848 FILLER_1_322
*849 FILLER_1_36
*850 FILLER_1_38
*851 FILLER_1_43
*852 FILLER_1_51
*853 FILLER_1_55
*854 FILLER_1_68
*855 FILLER_1_76
*856 FILLER_1_84
*857 FILLER_1_92
*858 FILLER_20_0
*859 FILLER_20_104
*860 FILLER_20_112
*861 FILLER_20_120
*862 FILLER_20_128
*863 FILLER_20_130
*864 FILLER_20_135
*865 FILLER_20_143
*866 FILLER_20_151
*867 FILLER_20_159
*868 FILLER_20_16
*869 FILLER_20_167
*870 FILLER_20_177
*871 FILLER_20_185
*872 FILLER_20_189
*873 FILLER_20_199
*874 FILLER_20_203
*875 FILLER_20_236
*876 FILLER_20_24
*877 FILLER_20_244
*878 FILLER_20_252
*879 FILLER_20_254
*880 FILLER_20_265
*881 FILLER_20_269
*882 FILLER_20_275
*883 FILLER_20_283
*884 FILLER_20_291
*885 FILLER_20_299
*886 FILLER_20_307
*887 FILLER_20_315
*888 FILLER_20_32
*889 FILLER_20_323
*890 FILLER_20_40
*891 FILLER_20_48
*892 FILLER_20_56
*893 FILLER_20_64
*894 FILLER_20_72
*895 FILLER_20_8
*896 FILLER_20_80
*897 FILLER_20_88
*898 FILLER_20_96
*899 FILLER_21_0
*900 FILLER_21_102
*901 FILLER_21_110
*902 FILLER_21_118
*903 FILLER_21_131
*904 FILLER_21_139
*905 FILLER_21_147
*906 FILLER_21_155
*907 FILLER_21_16
*908 FILLER_21_161
*909 FILLER_21_203
*910 FILLER_21_211
*911 FILLER_21_219
*912 FILLER_21_227
*913 FILLER_21_235
*914 FILLER_21_237
*915 FILLER_21_24
*916 FILLER_21_296
*917 FILLER_21_304
*918 FILLER_21_312
*919 FILLER_21_32
*920 FILLER_21_320
*921 FILLER_21_50
*922 FILLER_21_52
*923 FILLER_21_58
*924 FILLER_21_60
*925 FILLER_21_67
*926 FILLER_21_71
*927 FILLER_21_78
*928 FILLER_21_8
*929 FILLER_21_86
*930 FILLER_21_94
*931 FILLER_22_0
*932 FILLER_22_107
*933 FILLER_22_114
*934 FILLER_22_134
*935 FILLER_22_147
*936 FILLER_22_155
*937 FILLER_22_16
*938 FILLER_22_163
*939 FILLER_22_171
*940 FILLER_22_179
*941 FILLER_22_194
*942 FILLER_22_200
*943 FILLER_22_204
*944 FILLER_22_206
*945 FILLER_22_211
*946 FILLER_22_219
*947 FILLER_22_227
*948 FILLER_22_235
*949 FILLER_22_24
*950 FILLER_22_243
*951 FILLER_22_272
*952 FILLER_22_280
*953 FILLER_22_288
*954 FILLER_22_296
*955 FILLER_22_304
*956 FILLER_22_312
*957 FILLER_22_32
*958 FILLER_22_320
*959 FILLER_22_79
*960 FILLER_22_8
*961 FILLER_23_0
*962 FILLER_23_125
*963 FILLER_23_134
*964 FILLER_23_138
*965 FILLER_23_151
*966 FILLER_23_159
*967 FILLER_23_16
*968 FILLER_23_167
*969 FILLER_23_175
*970 FILLER_23_183
*971 FILLER_23_234
*972 FILLER_23_24
*973 FILLER_23_242
*974 FILLER_23_250
*975 FILLER_23_258
*976 FILLER_23_265
*977 FILLER_23_273
*978 FILLER_23_281
*979 FILLER_23_289
*980 FILLER_23_297
*981 FILLER_23_305
*982 FILLER_23_313
*983 FILLER_23_32
*984 FILLER_23_321
*985 FILLER_23_323
*986 FILLER_23_40
*987 FILLER_23_48
*988 FILLER_23_52
*989 FILLER_23_69
*990 FILLER_23_71
*991 FILLER_23_77
*992 FILLER_23_8
*993 FILLER_23_85
*994 FILLER_23_93
*995 FILLER_24_0
*996 FILLER_24_107
*997 FILLER_24_115
*998 FILLER_24_119
*999 FILLER_24_123
*1000 FILLER_24_131
*1001 FILLER_24_139
*1002 FILLER_24_147
*1003 FILLER_24_151
*1004 FILLER_24_16
*1005 FILLER_24_183
*1006 FILLER_24_191
*1007 FILLER_24_199
*1008 FILLER_24_207
*1009 FILLER_24_215
*1010 FILLER_24_223
*1011 FILLER_24_227
*1012 FILLER_24_232
*1013 FILLER_24_24
*1014 FILLER_24_240
*1015 FILLER_24_244
*1016 FILLER_24_263
*1017 FILLER_24_271
*1018 FILLER_24_279
*1019 FILLER_24_287
*1020 FILLER_24_295
*1021 FILLER_24_303
*1022 FILLER_24_311
*1023 FILLER_24_319
*1024 FILLER_24_323
*1025 FILLER_24_59
*1026 FILLER_24_67
*1027 FILLER_24_75
*1028 FILLER_24_8
*1029 FILLER_24_83
*1030 FILLER_24_91
*1031 FILLER_24_99
*1032 FILLER_25_0
*1033 FILLER_25_104
*1034 FILLER_25_112
*1035 FILLER_25_120
*1036 FILLER_25_128
*1037 FILLER_25_136
*1038 FILLER_25_144
*1039 FILLER_25_152
*1040 FILLER_25_16
*1041 FILLER_25_160
*1042 FILLER_25_168
*1043 FILLER_25_176
*1044 FILLER_25_184
*1045 FILLER_25_192
*1046 FILLER_25_200
*1047 FILLER_25_208
*1048 FILLER_25_216
*1049 FILLER_25_224
*1050 FILLER_25_232
*1051 FILLER_25_24
*1052 FILLER_25_240
*1053 FILLER_25_248
*1054 FILLER_25_252
*1055 FILLER_25_285
*1056 FILLER_25_293
*1057 FILLER_25_301
*1058 FILLER_25_309
*1059 FILLER_25_317
*1060 FILLER_25_32
*1061 FILLER_25_40
*1062 FILLER_25_48
*1063 FILLER_25_56
*1064 FILLER_25_64
*1065 FILLER_25_72
*1066 FILLER_25_8
*1067 FILLER_25_80
*1068 FILLER_25_88
*1069 FILLER_25_96
*1070 FILLER_26_0
*1071 FILLER_26_117
*1072 FILLER_26_125
*1073 FILLER_26_133
*1074 FILLER_26_147
*1075 FILLER_26_155
*1076 FILLER_26_16
*1077 FILLER_26_163
*1078 FILLER_26_174
*1079 FILLER_26_178
*1080 FILLER_26_191
*1081 FILLER_26_199
*1082 FILLER_26_201
*1083 FILLER_26_206
*1084 FILLER_26_214
*1085 FILLER_26_239
*1086 FILLER_26_24
*1087 FILLER_26_247
*1088 FILLER_26_251
*1089 FILLER_26_258
*1090 FILLER_26_266
*1091 FILLER_26_274
*1092 FILLER_26_282
*1093 FILLER_26_290
*1094 FILLER_26_298
*1095 FILLER_26_306
*1096 FILLER_26_314
*1097 FILLER_26_32
*1098 FILLER_26_322
*1099 FILLER_26_40
*1100 FILLER_26_48
*1101 FILLER_26_56
*1102 FILLER_26_78
*1103 FILLER_26_8
*1104 FILLER_26_86
*1105 FILLER_26_90
*1106 FILLER_26_97
*1107 FILLER_27_0
*1108 FILLER_27_125
*1109 FILLER_27_158
*1110 FILLER_27_16
*1111 FILLER_27_166
*1112 FILLER_27_174
*1113 FILLER_27_181
*1114 FILLER_27_189
*1115 FILLER_27_191
*1116 FILLER_27_211
*1117 FILLER_27_215
*1118 FILLER_27_24
*1119 FILLER_27_247
*1120 FILLER_27_266
*1121 FILLER_27_274
*1122 FILLER_27_282
*1123 FILLER_27_290
*1124 FILLER_27_298
*1125 FILLER_27_306
*1126 FILLER_27_314
*1127 FILLER_27_32
*1128 FILLER_27_322
*1129 FILLER_27_40
*1130 FILLER_27_48
*1131 FILLER_27_55
*1132 FILLER_27_71
*1133 FILLER_27_79
*1134 FILLER_27_8
*1135 FILLER_27_87
*1136 FILLER_28_0
*1137 FILLER_28_113
*1138 FILLER_28_121
*1139 FILLER_28_129
*1140 FILLER_28_146
*1141 FILLER_28_16
*1142 FILLER_28_165
*1143 FILLER_28_203
*1144 FILLER_28_231
*1145 FILLER_28_239
*1146 FILLER_28_24
*1147 FILLER_28_247
*1148 FILLER_28_280
*1149 FILLER_28_288
*1150 FILLER_28_296
*1151 FILLER_28_304
*1152 FILLER_28_312
*1153 FILLER_28_32
*1154 FILLER_28_320
*1155 FILLER_28_67
*1156 FILLER_28_75
*1157 FILLER_28_8
*1158 FILLER_28_83
*1159 FILLER_28_87
*1160 FILLER_28_93
*1161 FILLER_29_0
*1162 FILLER_29_111
*1163 FILLER_29_119
*1164 FILLER_29_127
*1165 FILLER_29_135
*1166 FILLER_29_143
*1167 FILLER_29_16
*1168 FILLER_29_172
*1169 FILLER_29_180
*1170 FILLER_29_188
*1171 FILLER_29_196
*1172 FILLER_29_204
*1173 FILLER_29_206
*1174 FILLER_29_211
*1175 FILLER_29_219
*1176 FILLER_29_227
*1177 FILLER_29_235
*1178 FILLER_29_24
*1179 FILLER_29_243
*1180 FILLER_29_251
*1181 FILLER_29_259
*1182 FILLER_29_267
*1183 FILLER_29_275
*1184 FILLER_29_283
*1185 FILLER_29_291
*1186 FILLER_29_299
*1187 FILLER_29_307
*1188 FILLER_29_315
*1189 FILLER_29_32
*1190 FILLER_29_323
*1191 FILLER_29_40
*1192 FILLER_29_48
*1193 FILLER_29_56
*1194 FILLER_29_64
*1195 FILLER_29_72
*1196 FILLER_29_8
*1197 FILLER_2_0
*1198 FILLER_2_131
*1199 FILLER_2_135
*1200 FILLER_2_16
*1201 FILLER_2_174
*1202 FILLER_2_237
*1203 FILLER_2_24
*1204 FILLER_2_245
*1205 FILLER_2_255
*1206 FILLER_2_263
*1207 FILLER_2_267
*1208 FILLER_2_280
*1209 FILLER_2_288
*1210 FILLER_2_292
*1211 FILLER_2_32
*1212 FILLER_2_320
*1213 FILLER_2_53
*1214 FILLER_2_8
*1215 FILLER_2_88
*1216 FILLER_30_0
*1217 FILLER_30_104
*1218 FILLER_30_112
*1219 FILLER_30_120
*1220 FILLER_30_128
*1221 FILLER_30_136
*1222 FILLER_30_144
*1223 FILLER_30_150
*1224 FILLER_30_158
*1225 FILLER_30_16
*1226 FILLER_30_166
*1227 FILLER_30_174
*1228 FILLER_30_182
*1229 FILLER_30_190
*1230 FILLER_30_198
*1231 FILLER_30_206
*1232 FILLER_30_214
*1233 FILLER_30_222
*1234 FILLER_30_230
*1235 FILLER_30_238
*1236 FILLER_30_24
*1237 FILLER_30_246
*1238 FILLER_30_254
*1239 FILLER_30_262
*1240 FILLER_30_270
*1241 FILLER_30_278
*1242 FILLER_30_286
*1243 FILLER_30_294
*1244 FILLER_30_302
*1245 FILLER_30_310
*1246 FILLER_30_318
*1247 FILLER_30_32
*1248 FILLER_30_322
*1249 FILLER_30_40
*1250 FILLER_30_48
*1251 FILLER_30_56
*1252 FILLER_30_64
*1253 FILLER_30_72
*1254 FILLER_30_8
*1255 FILLER_30_80
*1256 FILLER_30_88
*1257 FILLER_30_96
*1258 FILLER_31_0
*1259 FILLER_31_104
*1260 FILLER_31_112
*1261 FILLER_31_120
*1262 FILLER_31_128
*1263 FILLER_31_136
*1264 FILLER_31_144
*1265 FILLER_31_152
*1266 FILLER_31_16
*1267 FILLER_31_160
*1268 FILLER_31_168
*1269 FILLER_31_176
*1270 FILLER_31_184
*1271 FILLER_31_192
*1272 FILLER_31_200
*1273 FILLER_31_208
*1274 FILLER_31_216
*1275 FILLER_31_224
*1276 FILLER_31_232
*1277 FILLER_31_24
*1278 FILLER_31_240
*1279 FILLER_31_248
*1280 FILLER_31_256
*1281 FILLER_31_264
*1282 FILLER_31_272
*1283 FILLER_31_280
*1284 FILLER_31_288
*1285 FILLER_31_296
*1286 FILLER_31_304
*1287 FILLER_31_312
*1288 FILLER_31_32
*1289 FILLER_31_320
*1290 FILLER_31_40
*1291 FILLER_31_48
*1292 FILLER_31_56
*1293 FILLER_31_64
*1294 FILLER_31_72
*1295 FILLER_31_8
*1296 FILLER_31_80
*1297 FILLER_31_88
*1298 FILLER_31_96
*1299 FILLER_32_0
*1300 FILLER_32_104
*1301 FILLER_32_112
*1302 FILLER_32_120
*1303 FILLER_32_128
*1304 FILLER_32_136
*1305 FILLER_32_144
*1306 FILLER_32_152
*1307 FILLER_32_16
*1308 FILLER_32_160
*1309 FILLER_32_168
*1310 FILLER_32_176
*1311 FILLER_32_184
*1312 FILLER_32_192
*1313 FILLER_32_200
*1314 FILLER_32_208
*1315 FILLER_32_216
*1316 FILLER_32_224
*1317 FILLER_32_232
*1318 FILLER_32_24
*1319 FILLER_32_240
*1320 FILLER_32_248
*1321 FILLER_32_256
*1322 FILLER_32_264
*1323 FILLER_32_272
*1324 FILLER_32_280
*1325 FILLER_32_288
*1326 FILLER_32_296
*1327 FILLER_32_304
*1328 FILLER_32_312
*1329 FILLER_32_32
*1330 FILLER_32_320
*1331 FILLER_32_40
*1332 FILLER_32_48
*1333 FILLER_32_56
*1334 FILLER_32_64
*1335 FILLER_32_72
*1336 FILLER_32_8
*1337 FILLER_32_80
*1338 FILLER_32_88
*1339 FILLER_32_96
*1340 FILLER_33_0
*1341 FILLER_33_104
*1342 FILLER_33_112
*1343 FILLER_33_120
*1344 FILLER_33_128
*1345 FILLER_33_136
*1346 FILLER_33_144
*1347 FILLER_33_152
*1348 FILLER_33_16
*1349 FILLER_33_160
*1350 FILLER_33_168
*1351 FILLER_33_176
*1352 FILLER_33_184
*1353 FILLER_33_192
*1354 FILLER_33_200
*1355 FILLER_33_208
*1356 FILLER_33_216
*1357 FILLER_33_224
*1358 FILLER_33_232
*1359 FILLER_33_24
*1360 FILLER_33_240
*1361 FILLER_33_248
*1362 FILLER_33_256
*1363 FILLER_33_264
*1364 FILLER_33_272
*1365 FILLER_33_280
*1366 FILLER_33_288
*1367 FILLER_33_296
*1368 FILLER_33_304
*1369 FILLER_33_312
*1370 FILLER_33_32
*1371 FILLER_33_320
*1372 FILLER_33_40
*1373 FILLER_33_48
*1374 FILLER_33_56
*1375 FILLER_33_64
*1376 FILLER_33_72
*1377 FILLER_33_8
*1378 FILLER_33_80
*1379 FILLER_33_88
*1380 FILLER_33_96
*1381 FILLER_34_0
*1382 FILLER_34_104
*1383 FILLER_34_112
*1384 FILLER_34_120
*1385 FILLER_34_128
*1386 FILLER_34_136
*1387 FILLER_34_144
*1388 FILLER_34_152
*1389 FILLER_34_16
*1390 FILLER_34_160
*1391 FILLER_34_168
*1392 FILLER_34_176
*1393 FILLER_34_184
*1394 FILLER_34_192
*1395 FILLER_34_200
*1396 FILLER_34_208
*1397 FILLER_34_216
*1398 FILLER_34_224
*1399 FILLER_34_232
*1400 FILLER_34_24
*1401 FILLER_34_240
*1402 FILLER_34_248
*1403 FILLER_34_256
*1404 FILLER_34_264
*1405 FILLER_34_272
*1406 FILLER_34_280
*1407 FILLER_34_288
*1408 FILLER_34_296
*1409 FILLER_34_304
*1410 FILLER_34_312
*1411 FILLER_34_32
*1412 FILLER_34_320
*1413 FILLER_34_40
*1414 FILLER_34_48
*1415 FILLER_34_56
*1416 FILLER_34_64
*1417 FILLER_34_72
*1418 FILLER_34_8
*1419 FILLER_34_80
*1420 FILLER_34_88
*1421 FILLER_34_96
*1422 FILLER_35_0
*1423 FILLER_35_104
*1424 FILLER_35_112
*1425 FILLER_35_120
*1426 FILLER_35_128
*1427 FILLER_35_136
*1428 FILLER_35_144
*1429 FILLER_35_152
*1430 FILLER_35_16
*1431 FILLER_35_160
*1432 FILLER_35_168
*1433 FILLER_35_176
*1434 FILLER_35_184
*1435 FILLER_35_192
*1436 FILLER_35_200
*1437 FILLER_35_208
*1438 FILLER_35_216
*1439 FILLER_35_224
*1440 FILLER_35_232
*1441 FILLER_35_24
*1442 FILLER_35_240
*1443 FILLER_35_248
*1444 FILLER_35_256
*1445 FILLER_35_264
*1446 FILLER_35_272
*1447 FILLER_35_280
*1448 FILLER_35_288
*1449 FILLER_35_296
*1450 FILLER_35_304
*1451 FILLER_35_312
*1452 FILLER_35_32
*1453 FILLER_35_320
*1454 FILLER_35_40
*1455 FILLER_35_48
*1456 FILLER_35_56
*1457 FILLER_35_64
*1458 FILLER_35_72
*1459 FILLER_35_8
*1460 FILLER_35_80
*1461 FILLER_35_88
*1462 FILLER_35_96
*1463 FILLER_36_0
*1464 FILLER_36_104
*1465 FILLER_36_112
*1466 FILLER_36_120
*1467 FILLER_36_128
*1468 FILLER_36_136
*1469 FILLER_36_144
*1470 FILLER_36_152
*1471 FILLER_36_16
*1472 FILLER_36_160
*1473 FILLER_36_168
*1474 FILLER_36_176
*1475 FILLER_36_184
*1476 FILLER_36_192
*1477 FILLER_36_200
*1478 FILLER_36_208
*1479 FILLER_36_216
*1480 FILLER_36_224
*1481 FILLER_36_232
*1482 FILLER_36_24
*1483 FILLER_36_240
*1484 FILLER_36_248
*1485 FILLER_36_256
*1486 FILLER_36_264
*1487 FILLER_36_272
*1488 FILLER_36_280
*1489 FILLER_36_288
*1490 FILLER_36_296
*1491 FILLER_36_304
*1492 FILLER_36_312
*1493 FILLER_36_32
*1494 FILLER_36_320
*1495 FILLER_36_40
*1496 FILLER_36_48
*1497 FILLER_36_56
*1498 FILLER_36_64
*1499 FILLER_36_72
*1500 FILLER_36_8
*1501 FILLER_36_80
*1502 FILLER_36_88
*1503 FILLER_36_96
*1504 FILLER_37_0
*1505 FILLER_37_104
*1506 FILLER_37_112
*1507 FILLER_37_120
*1508 FILLER_37_128
*1509 FILLER_37_136
*1510 FILLER_37_144
*1511 FILLER_37_152
*1512 FILLER_37_16
*1513 FILLER_37_160
*1514 FILLER_37_168
*1515 FILLER_37_176
*1516 FILLER_37_184
*1517 FILLER_37_192
*1518 FILLER_37_200
*1519 FILLER_37_208
*1520 FILLER_37_216
*1521 FILLER_37_224
*1522 FILLER_37_232
*1523 FILLER_37_24
*1524 FILLER_37_240
*1525 FILLER_37_248
*1526 FILLER_37_256
*1527 FILLER_37_264
*1528 FILLER_37_272
*1529 FILLER_37_280
*1530 FILLER_37_288
*1531 FILLER_37_296
*1532 FILLER_37_304
*1533 FILLER_37_312
*1534 FILLER_37_32
*1535 FILLER_37_320
*1536 FILLER_37_40
*1537 FILLER_37_48
*1538 FILLER_37_56
*1539 FILLER_37_64
*1540 FILLER_37_72
*1541 FILLER_37_8
*1542 FILLER_37_80
*1543 FILLER_37_88
*1544 FILLER_37_96
*1545 FILLER_38_0
*1546 FILLER_38_104
*1547 FILLER_38_112
*1548 FILLER_38_120
*1549 FILLER_38_128
*1550 FILLER_38_136
*1551 FILLER_38_144
*1552 FILLER_38_152
*1553 FILLER_38_16
*1554 FILLER_38_160
*1555 FILLER_38_168
*1556 FILLER_38_176
*1557 FILLER_38_184
*1558 FILLER_38_192
*1559 FILLER_38_200
*1560 FILLER_38_208
*1561 FILLER_38_216
*1562 FILLER_38_224
*1563 FILLER_38_232
*1564 FILLER_38_24
*1565 FILLER_38_240
*1566 FILLER_38_248
*1567 FILLER_38_256
*1568 FILLER_38_264
*1569 FILLER_38_272
*1570 FILLER_38_280
*1571 FILLER_38_288
*1572 FILLER_38_296
*1573 FILLER_38_304
*1574 FILLER_38_312
*1575 FILLER_38_32
*1576 FILLER_38_320
*1577 FILLER_38_40
*1578 FILLER_38_48
*1579 FILLER_38_56
*1580 FILLER_38_64
*1581 FILLER_38_72
*1582 FILLER_38_8
*1583 FILLER_38_80
*1584 FILLER_38_88
*1585 FILLER_38_96
*1586 FILLER_39_0
*1587 FILLER_39_104
*1588 FILLER_39_112
*1589 FILLER_39_120
*1590 FILLER_39_128
*1591 FILLER_39_136
*1592 FILLER_39_144
*1593 FILLER_39_152
*1594 FILLER_39_16
*1595 FILLER_39_160
*1596 FILLER_39_168
*1597 FILLER_39_176
*1598 FILLER_39_184
*1599 FILLER_39_192
*1600 FILLER_39_200
*1601 FILLER_39_208
*1602 FILLER_39_216
*1603 FILLER_39_224
*1604 FILLER_39_232
*1605 FILLER_39_24
*1606 FILLER_39_240
*1607 FILLER_39_248
*1608 FILLER_39_256
*1609 FILLER_39_264
*1610 FILLER_39_272
*1611 FILLER_39_280
*1612 FILLER_39_288
*1613 FILLER_39_296
*1614 FILLER_39_304
*1615 FILLER_39_312
*1616 FILLER_39_32
*1617 FILLER_39_320
*1618 FILLER_39_40
*1619 FILLER_39_48
*1620 FILLER_39_56
*1621 FILLER_39_64
*1622 FILLER_39_72
*1623 FILLER_39_8
*1624 FILLER_39_80
*1625 FILLER_39_88
*1626 FILLER_39_96
*1627 FILLER_3_0
*1628 FILLER_3_106
*1629 FILLER_3_114
*1630 FILLER_3_118
*1631 FILLER_3_128
*1632 FILLER_3_136
*1633 FILLER_3_144
*1634 FILLER_3_152
*1635 FILLER_3_160
*1636 FILLER_3_168
*1637 FILLER_3_176
*1638 FILLER_3_180
*1639 FILLER_3_186
*1640 FILLER_3_194
*1641 FILLER_3_202
*1642 FILLER_3_210
*1643 FILLER_3_214
*1644 FILLER_3_229
*1645 FILLER_3_237
*1646 FILLER_3_248
*1647 FILLER_3_256
*1648 FILLER_3_264
*1649 FILLER_3_276
*1650 FILLER_3_284
*1651 FILLER_3_292
*1652 FILLER_3_300
*1653 FILLER_3_308
*1654 FILLER_3_316
*1655 FILLER_3_37
*1656 FILLER_3_45
*1657 FILLER_3_49
*1658 FILLER_3_66
*1659 FILLER_3_74
*1660 FILLER_3_8
*1661 FILLER_3_82
*1662 FILLER_3_90
*1663 FILLER_3_98
*1664 FILLER_4_0
*1665 FILLER_4_104
*1666 FILLER_4_112
*1667 FILLER_4_151
*1668 FILLER_4_159
*1669 FILLER_4_167
*1670 FILLER_4_175
*1671 FILLER_4_179
*1672 FILLER_4_188
*1673 FILLER_4_196
*1674 FILLER_4_204
*1675 FILLER_4_212
*1676 FILLER_4_220
*1677 FILLER_4_228
*1678 FILLER_4_236
*1679 FILLER_4_244
*1680 FILLER_4_252
*1681 FILLER_4_260
*1682 FILLER_4_290
*1683 FILLER_4_298
*1684 FILLER_4_306
*1685 FILLER_4_314
*1686 FILLER_4_322
*1687 FILLER_4_39
*1688 FILLER_4_47
*1689 FILLER_4_59
*1690 FILLER_4_67
*1691 FILLER_4_75
*1692 FILLER_4_86
*1693 FILLER_4_94
*1694 FILLER_5_0
*1695 FILLER_5_109
*1696 FILLER_5_117
*1697 FILLER_5_125
*1698 FILLER_5_133
*1699 FILLER_5_141
*1700 FILLER_5_149
*1701 FILLER_5_157
*1702 FILLER_5_165
*1703 FILLER_5_192
*1704 FILLER_5_200
*1705 FILLER_5_208
*1706 FILLER_5_21
*1707 FILLER_5_216
*1708 FILLER_5_224
*1709 FILLER_5_228
*1710 FILLER_5_233
*1711 FILLER_5_235
*1712 FILLER_5_240
*1713 FILLER_5_248
*1714 FILLER_5_256
*1715 FILLER_5_264
*1716 FILLER_5_272
*1717 FILLER_5_280
*1718 FILLER_5_288
*1719 FILLER_5_29
*1720 FILLER_5_296
*1721 FILLER_5_37
*1722 FILLER_5_45
*1723 FILLER_5_53
*1724 FILLER_5_63
*1725 FILLER_5_71
*1726 FILLER_5_75
*1727 FILLER_5_8
*1728 FILLER_6_0
*1729 FILLER_6_107
*1730 FILLER_6_115
*1731 FILLER_6_130
*1732 FILLER_6_144
*1733 FILLER_6_152
*1734 FILLER_6_154
*1735 FILLER_6_16
*1736 FILLER_6_186
*1737 FILLER_6_194
*1738 FILLER_6_202
*1739 FILLER_6_218
*1740 FILLER_6_231
*1741 FILLER_6_259
*1742 FILLER_6_267
*1743 FILLER_6_277
*1744 FILLER_6_282
*1745 FILLER_6_290
*1746 FILLER_6_298
*1747 FILLER_6_30
*1748 FILLER_6_306
*1749 FILLER_6_314
*1750 FILLER_6_322
*1751 FILLER_6_38
*1752 FILLER_6_46
*1753 FILLER_6_54
*1754 FILLER_6_62
*1755 FILLER_6_70
*1756 FILLER_6_78
*1757 FILLER_6_8
*1758 FILLER_6_86
*1759 FILLER_6_90
*1760 FILLER_7_0
*1761 FILLER_7_105
*1762 FILLER_7_14
*1763 FILLER_7_145
*1764 FILLER_7_153
*1765 FILLER_7_161
*1766 FILLER_7_169
*1767 FILLER_7_177
*1768 FILLER_7_18
*1769 FILLER_7_185
*1770 FILLER_7_193
*1771 FILLER_7_217
*1772 FILLER_7_226
*1773 FILLER_7_234
*1774 FILLER_7_24
*1775 FILLER_7_242
*1776 FILLER_7_250
*1777 FILLER_7_258
*1778 FILLER_7_307
*1779 FILLER_7_315
*1780 FILLER_7_32
*1781 FILLER_7_323
*1782 FILLER_7_40
*1783 FILLER_7_60
*1784 FILLER_7_73
*1785 FILLER_7_81
*1786 FILLER_7_89
*1787 FILLER_8_0
*1788 FILLER_8_113
*1789 FILLER_8_147
*1790 FILLER_8_155
*1791 FILLER_8_163
*1792 FILLER_8_171
*1793 FILLER_8_179
*1794 FILLER_8_190
*1795 FILLER_8_194
*1796 FILLER_8_242
*1797 FILLER_8_250
*1798 FILLER_8_258
*1799 FILLER_8_266
*1800 FILLER_8_295
*1801 FILLER_8_34
*1802 FILLER_8_38
*1803 FILLER_8_8
*1804 FILLER_9_0
*1805 FILLER_9_107
*1806 FILLER_9_115
*1807 FILLER_9_134
*1808 FILLER_9_142
*1809 FILLER_9_150
*1810 FILLER_9_155
*1811 FILLER_9_159
*1812 FILLER_9_164
*1813 FILLER_9_173
*1814 FILLER_9_175
*1815 FILLER_9_180
*1816 FILLER_9_184
*1817 FILLER_9_212
*1818 FILLER_9_220
*1819 FILLER_9_228
*1820 FILLER_9_236
*1821 FILLER_9_244
*1822 FILLER_9_252
*1823 FILLER_9_260
*1824 FILLER_9_268
*1825 FILLER_9_276
*1826 FILLER_9_284
*1827 FILLER_9_296
*1828 FILLER_9_304
*1829 FILLER_9_312
*1830 FILLER_9_320
*1831 FILLER_9_37
*1832 FILLER_9_45
*1833 FILLER_9_51
*1834 FILLER_9_59
*1835 FILLER_9_67
*1836 FILLER_9_75
*1837 FILLER_9_8
*1838 FILLER_9_83
*1839 FILLER_9_91
*1840 FILLER_9_99
*1841 _287_
*1842 _288_
*1843 _289_
*1844 _290_
*1845 _291_
*1846 _292_
*1847 _293_
*1848 _294_
*1849 _295_
*1850 _296_
*1851 _297_
*1852 _298_
*1853 _299_
*1854 _300_
*1855 _301_
*1856 _302_
*1857 _303_
*1858 _304_
*1859 _305_
*1860 _306_
*1861 _307_
*1862 _308_
*1863 _309_
*1864 _310_
*1865 _311_
*1866 _312_
*1867 _313_
*1868 _314_
*1869 _315_
*1870 _316_
*1871 _317_
*1872 _318_
*1873 _319_
*1874 _320_
*1875 _321_
*1876 _322_
*1877 _323_
*1878 _324_
*1879 _325_
*1880 _326_
*1881 _327_
*1882 _328_
*1883 _329_
*1884 _330_
*1885 _331_
*1886 _332_
*1887 _333_
*1888 _334_
*1889 _335_
*1890 _336_
*1891 _337_
*1892 _338_
*1893 _339_
*1894 _340_
*1895 _341_
*1896 _342_
*1897 _343_
*1898 _344_
*1899 _345_
*1900 _346_
*1901 _347_
*1902 _348_
*1903 _349_
*1904 _350_
*1905 _351_
*1906 _352_
*1907 _353_
*1908 _354_
*1909 _355_
*1910 _356_
*1911 _357_
*1912 _358_
*1913 _359_
*1914 _360_
*1915 _361_
*1916 _362_
*1917 _363_
*1918 _364_
*1919 _365_
*1920 _366_
*1921 _367_
*1922 _368_
*1923 _369_
*1924 _370_
*1925 _371_
*1926 _372_
*1927 _373_
*1928 _374_
*1929 _375_
*1930 _376_
*1931 _377_
*1932 _378_
*1933 _379_
*1934 _380_
*1935 _381_
*1936 _382_
*1937 _383_
*1938 _384_
*1939 _385_
*1940 _386_
*1941 _387_
*1942 _388_
*1943 _389_
*1944 _390_
*1945 _391_
*1946 _392_
*1947 _393_
*1948 _394_
*1949 _395_
*1950 _396_
*1951 _397_
*1952 _398_
*1953 _399_
*1954 _400_
*1955 _401_
*1956 _402_
*1957 _403_
*1958 _404_
*1959 _405_
*1960 _406_
*1961 _407_
*1962 _408_
*1963 _409_
*1964 _410_
*1965 _411_
*1966 _412_
*1967 _413_
*1968 _414_
*1969 _415_
*1970 _416_
*1971 _417_
*1972 _418_
*1973 _419_
*1974 _420_
*1975 _421_
*1976 _422_
*1977 _423_
*1978 _424_
*1979 _425_
*1980 _426_
*1981 _427_
*1982 _428_
*1983 _429_
*1984 _430_
*1985 _431_
*1986 _432_
*1987 _433_
*1988 _434_
*1989 _435_
*1990 _436_
*1991 _437_
*1992 _438_
*1993 _439_
*1994 _440_
*1995 _441_
*1996 _442_
*1997 _443_
*1998 _444_
*1999 _445_
*2000 _446_
*2001 _447_
*2002 _448_
*2003 _449_
*2004 _450_
*2005 _451_
*2006 _452_
*2007 _453_
*2008 _454_
*2009 _455_
*2010 _456_
*2011 _457_
*2012 _458_
*2013 _459_
*2014 _460_
*2015 _461_
*2016 _462_
*2017 _463_
*2018 _464_
*2019 _465_
*2020 _466_
*2021 _467_
*2022 _468_
*2023 _469_
*2024 _470_
*2025 _471_
*2026 _472_
*2027 _473_
*2028 _474_
*2029 _475_
*2030 _476_
*2031 _477_
*2032 _478_
*2033 _479_
*2034 _480_
*2035 _481_
*2036 _482_
*2037 _483_
*2038 _484_
*2039 _485_
*2040 _486_
*2041 _487_
*2042 _488_
*2043 _489_
*2044 _490_
*2045 _491_
*2046 _492_
*2047 _493_
*2048 _494_
*2049 _495_
*2050 _496_
*2051 _497_
*2052 _498_
*2053 _499_
*2054 _500_
*2055 _501_
*2056 _502_
*2057 _503_
*2058 _504_
*2059 _505_
*2060 _506_
*2061 _507_
*2062 _508_
*2063 _509_
*2064 _510_
*2065 _511_
*2066 _512_
*2067 _513_
*2068 _514_
*2069 _515_
*2070 _516_
*2071 _517_
*2072 _518_
*2073 _519_
*2074 _520_
*2075 _521_
*2076 _522_
*2077 _523_
*2078 _524_
*2079 _525_
*2080 _526_
*2081 _527_
*2082 _528_
*2083 _529_
*2084 _530_
*2085 _531_
*2086 _532_
*2087 _533_
*2088 _534_
*2089 _535_
*2090 _536_
*2091 _537_
*2092 _538_
*2093 _539_
*2094 _540_
*2095 _541_
*2096 _542_
*2097 _543_
*2098 _544_
*2099 _545_
*2100 _546_
*2101 _547_
*2102 _548_
*2103 _549_
*2104 _550_
*2105 _551_
*2106 _552_
*2107 _553_
*2108 _554_
*2109 _555_
*2110 _556_
*2111 _557_
*2112 _558_
*2113 _559_
*2114 _560_
*2115 _561_
*2116 _562_
*2117 _563_
*2118 _564_
*2119 _565_
*2120 _566_
*2121 _567_
*2122 _568_
*2123 _569_
*2124 _570_
*2125 _571_
*2126 _572_
*2127 _573_
*2128 _574_
*2129 _575_
*2130 _576_
*2131 _577_
*2132 _578_
*2133 _579_
*2134 _580_
*2135 _581_
*2136 _582_
*2137 _583_
*2138 _584_
*2139 _585_
*2140 _586_
*2141 _587_
*2142 _588_
*2143 _589_
*2144 _590_
*2145 _591_
*2146 _592_
*2147 _593_
*2148 _594_
*2149 _595_
*2150 _596_
*2151 _597_
*2152 _598_
*2153 _599_
*2154 _600_
*2155 _601_
*2156 _602_
*2157 _603_
*2158 _604_
*2159 _605_
*2160 _606_
*2161 _607_
*2162 _608_
*2163 _609_
*2164 _610_
*2165 _611_
*2166 _612_
*2167 _613_
*2168 _614_
*2169 _615_
*2170 _616_
*2171 _617_
*2172 _618_
*2173 _619_
*2174 _620_
*2175 _621_
*2176 _622_
*2177 _623_
*2178 _624_
*2179 _625_
*2180 _626_
*2181 _627_
*2182 _628_
*2183 _629_
*2184 _630_
*2185 _631_
*2186 _632_
*2187 _633_
*2188 _634_
*2189 _635_
*2190 _636_
*2191 _637_
*2192 _638_
*2193 clkbuf_0_clk
*2194 clkbuf_4_0_0_clk
*2195 clkbuf_4_10_0_clk
*2196 clkbuf_4_11_0_clk
*2197 clkbuf_4_12_0_clk
*2198 clkbuf_4_13_0_clk
*2199 clkbuf_4_14_0_clk
*2200 clkbuf_4_15_0_clk
*2201 clkbuf_4_1_0_clk
*2202 clkbuf_4_2_0_clk
*2203 clkbuf_4_3_0_clk
*2204 clkbuf_4_4_0_clk
*2205 clkbuf_4_5_0_clk
*2206 clkbuf_4_6_0_clk
*2207 clkbuf_4_7_0_clk
*2208 clkbuf_4_8_0_clk
*2209 clkbuf_4_9_0_clk
*2210 clkload0
*2211 clkload1
*2212 clkload10
*2213 clkload11
*2214 clkload12
*2215 clkload13
*2216 clkload14
*2217 clkload2
*2218 clkload3
*2219 clkload4
*2220 clkload5
*2221 clkload6
*2222 clkload7
*2223 clkload8
*2224 clkload9
*2225 fanout80
*2226 fanout81
*2227 fanout82
*2228 fanout83
*2229 fanout84
*2230 fanout85
*2231 fanout86
*2232 fanout87
*2233 fanout88
*2234 fanout89
*2235 input46
*2236 input47
*2237 input48
*2238 input49
*2239 input50
*2240 input51
*2241 input52
*2242 input53
*2243 input54
*2244 input55
*2245 input56
*2246 input57
*2247 input58
*2248 input59
*2249 input60
*2250 input61
*2251 input62
*2252 input63
*2253 input64
*2254 input65
*2255 input66
*2256 input67
*2257 input68
*2258 input69
*2259 input70
*2260 input71
*2261 input72
*2262 input73
*2263 input74
*2264 input75
*2265 input76
*2266 input77
*2267 input78
*2268 input79
*2269 max_cap29
*2270 place30
*2271 place31
*2272 place32
*2273 place33
*2274 place34
*2275 place35
*2276 place36
*2277 place37
*2278 place38
*2279 place39
*2280 place40
*2281 place41
*2282 place42
*2283 place43
*2284 place44
*2285 place45
*2286 spare_aoi_0
*2287 spare_dff_0
*2288 spare_inverter_0
*2289 spare_inverter_1
*2290 spare_mux2_0
*2291 spare_nand2_0
*2292 spare_nand2_1
*2293 spare_nor2_0
*2294 spare_tielo_drv

*PORTS
clk I
p O
rst I
x[0] I
x[10] I
x[11] I
x[12] I
x[13] I
x[14] I
x[15] I
x[16] I
x[17] I
x[18] I
x[19] I
x[1] I
x[20] I
x[21] I
x[22] I
x[23] I
x[24] I
x[25] I
x[26] I
x[27] I
x[28] I
x[29] I
x[2] I
x[30] I
x[31] I
x[3] I
x[4] I
x[5] I
x[6] I
x[7] I
x[8] I
x[9] I
y I

*D_NET *39 0.000748223
*CONN
*I *2120:D I *D sg13g2_dfrbpq_1
*I *1883:Y O *D sg13g2_nor3_1
*CAP
1 *2120:D 2.96094e-05
2 *1883:Y 0.000344502
3 *39:10 0.000374112
*RES
1 *1883:Y *39:10 43.5123 
2 *39:10 *2120:D 40 
*END

*D_NET *40 0.000615743
*CONN
*I *2119:D I *D sg13g2_dfrbpq_1
*I *1886:Y O *D sg13g2_nor3_1
*CAP
1 *2119:D 2.96094e-05
2 *1886:Y 0.000278262
3 *40:10 0.000307872
*RES
1 *1886:Y *40:10 42.7707 
2 *40:10 *2119:D 40 
*END

*D_NET *41 0.000821268
*CONN
*I *2118:D I *D sg13g2_dfrbpq_1
*I *1889:Y O *D sg13g2_nor3_1
*CAP
1 *2118:D 0.000195185
2 *1889:Y 0.000215449
3 *41:8 0.000410634
*RES
1 *1889:Y *41:8 42.0806 
2 *41:8 *2118:D 41.8334 
*END

*D_NET *42 0.00142257
*CONN
*I *2117:D I *D sg13g2_dfrbpq_1
*I *1892:Y O *D sg13g2_nor3_1
*CAP
1 *2117:D 0.000429595
2 *1892:Y 0.000281689
3 *42:8 0.000711285
*RES
1 *1892:Y *42:8 42.8222 
2 *42:8 *2117:D 44.429 
*END

*D_NET *43 0.00149894
*CONN
*I *2116:D I *D sg13g2_dfrbpq_1
*I *1895:Y O *D sg13g2_nor3_1
*CAP
1 *2116:D 2.96094e-05
2 *1895:Y 0.000719862
3 *43:10 0.000749472
*RES
1 *1895:Y *43:10 47.7147 
2 *43:10 *2116:D 40 
*END

*D_NET *44 0.0019474
*CONN
*I *2115:D I *D sg13g2_dfrbpq_1
*I *1898:Y O *D sg13g2_nor3_1
*CAP
1 *2115:D 1.10054e-05
2 *1898:Y 2.96094e-05
3 *44:10 0.000944089
4 *44:6 0.000962693
*RES
1 *1898:Y *44:6 40 
2 *44:6 *44:10 30.2382 
3 *44:10 *2115:D 20 
*END

*D_NET *45 0.000748223
*CONN
*I *2114:D I *D sg13g2_dfrbpq_1
*I *1901:Y O *D sg13g2_nor3_1
*CAP
1 *2114:D 2.96094e-05
2 *1901:Y 0.000344502
3 *45:10 0.000374112
*RES
1 *1901:Y *45:10 43.5123 
2 *45:10 *2114:D 40 
*END

*D_NET *46 0.000997908
*CONN
*I *2113:D I *D sg13g2_dfrbpq_1
*I *1904:Y O *D sg13g2_nor3_1
*CAP
1 *2113:D 0.000195185
2 *1904:Y 0.000303769
3 *46:8 0.000498954
*RES
1 *1904:Y *46:8 43.0694 
2 *46:8 *2113:D 41.8334 
*END

*D_NET *47 0.000711906
*CONN
*I *2112:D I *D sg13g2_dfrbpq_1
*I *1907:Y O *D sg13g2_nor3_1
*CAP
1 *2112:D 0.000355953
2 *1907:Y 0.000355953
*RES
1 *1907:Y *2112:D 43.6977 
*END

*D_NET *48 0.000483076
*CONN
*I *2111:D I *D sg13g2_dfrbpq_1
*I *1910:Y O *D sg13g2_nor3_1
*CAP
1 *2111:D 0.000241538
2 *1910:Y 0.000241538
*RES
1 *1910:Y *2111:D 42.4308 
*END

*D_NET *49 0.00112011
*CONN
*I *2110:D I *D sg13g2_dfrbpq_1
*I *1913:Y O *D sg13g2_nor3_1
*CAP
1 *2110:D 5.84456e-05
2 *1913:Y 0.000501608
3 *49:10 0.000560054
*RES
1 *1913:Y *49:10 45.2736 
2 *49:10 *2110:D 40.3193 
*END

*D_NET *50 0.00041052
*CONN
*I *2109:D I *D sg13g2_dfrbpq_1
*I *1916:Y O *D sg13g2_nor3_1
*CAP
1 *2109:D 0.00020526
2 *1916:Y 0.00020526
*RES
1 *1916:Y *2109:D 42.0291 
*END

*D_NET *51 0.00041052
*CONN
*I *2108:D I *D sg13g2_dfrbpq_1
*I *1919:Y O *D sg13g2_nor3_1
*CAP
1 *2108:D 0.00020526
2 *1919:Y 0.00020526
*RES
1 *1919:Y *2108:D 42.0291 
*END

*D_NET *52 0.000732948
*CONN
*I *2107:D I *D sg13g2_dfrbpq_1
*I *1922:Y O *D sg13g2_nor3_1
*CAP
1 *2107:D 2.96094e-05
2 *1922:Y 0.000336865
3 *52:10 0.000366474
*RES
1 *1922:Y *52:10 43.4196 
2 *52:10 *2107:D 40 
*END

*D_NET *53 0.000635628
*CONN
*I *2106:D I *D sg13g2_dfrbpq_1
*I *1925:Y O *D sg13g2_nor3_1
*CAP
1 *2106:D 0.000317814
2 *1925:Y 0.000317814
*RES
1 *1925:Y *2106:D 43.2754 
*END

*D_NET *54 0.000786322
*CONN
*I *2105:D I *D sg13g2_dfrbpq_1
*I *1928:Y O *D sg13g2_nor3_1
*CAP
1 *2105:D 0.000393161
2 *1928:Y 0.000393161
*RES
1 *1928:Y *2105:D 44.1097 
*END

*D_NET *55 0.00114057
*CONN
*I *2104:D I *D sg13g2_dfrbpq_1
*I *1931:Y O *D sg13g2_nor3_1
*CAP
1 *2104:D 0.000156117
2 *1931:Y 0.000414169
3 *55:8 0.000570286
*RES
1 *1931:Y *55:8 44.3054 
2 *55:8 *2104:D 41.4008 
*END

*D_NET *56 0.000997908
*CONN
*I *2103:D I *D sg13g2_dfrbpq_1
*I *1934:Y O *D sg13g2_nor3_1
*CAP
1 *2103:D 0.000195185
2 *1934:Y 0.000303769
3 *56:8 0.000498954
*RES
1 *1934:Y *56:8 43.0694 
2 *56:8 *2103:D 41.8334 
*END

*D_NET *57 0.000617024
*CONN
*I *2102:D I *D sg13g2_dfrbpq_1
*I *1937:Y O *D sg13g2_nor3_1
*CAP
1 *2102:D 0.000308512
2 *1937:Y 0.000308512
*RES
1 *1937:Y *2102:D 43.1724 
*END

*D_NET *58 0.000904497
*CONN
*I *2101:D I *D sg13g2_dfrbpq_1
*I *1940:Y O *D sg13g2_nor3_1
*CAP
1 *2101:D 2.96094e-05
2 *1940:Y 0.000422639
3 *58:10 0.000452249
*RES
1 *1940:Y *58:10 44.3775 
2 *58:10 *2101:D 40 
*END

*D_NET *59 0.000997908
*CONN
*I *2100:D I *D sg13g2_dfrbpq_1
*I *1943:Y O *D sg13g2_nor3_1
*CAP
1 *2100:D 0.000195185
2 *1943:Y 0.000303769
3 *59:8 0.000498954
*RES
1 *1943:Y *59:8 43.0694 
2 *59:8 *2100:D 41.8334 
*END

*D_NET *60 0.000542698
*CONN
*I *2099:D I *D sg13g2_dfrbpq_1
*I *1946:Y O *D sg13g2_nor3_1
*CAP
1 *2099:D 7.79798e-05
2 *1946:Y 0.000193369
3 *60:8 0.000271349
*RES
1 *1946:Y *60:8 41.8334 
2 *60:8 *2099:D 40.5356 
*END

*D_NET *61 0.00294811
*CONN
*I *2094:D I *D sg13g2_dfrbpq_1
*I *1949:Y O *D sg13g2_nor3_1
*CAP
1 *2094:D 1.10054e-05
2 *1949:Y 0.00146305
3 *61:12 0.00147405
*RES
1 *1949:Y *61:12 36.0783 
2 *61:12 *2094:D 20 
*END

*D_NET *62 0.000748223
*CONN
*I *2095:D I *D sg13g2_dfrbpq_1
*I *1950:Y O *D sg13g2_nor2b_1
*CAP
1 *2095:D 0.000136582
2 *1950:Y 0.000237529
3 *62:8 0.000374112
*RES
1 *1950:Y *62:8 42.3278 
2 *62:8 *2095:D 41.1845 
*END

*D_NET *63 0.00117964
*CONN
*I *2063:D I *D sg13g2_dfrbpq_1
*I *1955:Y O *D sg13g2_nor2_1
*CAP
1 *2063:D 0.000175651
2 *1955:Y 0.000414169
3 *63:8 0.00058982
*RES
1 *1955:Y *63:8 44.3054 
2 *63:8 *2063:D 41.6171 
*END

*D_NET *64 0.00187602
*CONN
*I *2127:D I *D sg13g2_dfrbpq_1
*I *1956:Y O *D sg13g2_nor2b_1
*CAP
1 *2127:D 2.96094e-05
2 *1956:Y 0.000908399
3 *64:10 0.000938009
*RES
1 *1956:Y *64:10 49.8159 
2 *64:10 *2127:D 40 
*END

*D_NET *65 0.00141748
*CONN
*I *2098:D I *D sg13g2_dfrbpq_1
*I *1959:Y O *D sg13g2_nor3_1
*CAP
1 *2098:D 2.96094e-05
2 *1959:Y 0.000679129
3 *65:8 0.000708739
*RES
1 *1959:Y *65:8 47.2718 
2 *65:8 *2098:D 40 
*END

*D_NET *66 0.0017877
*CONN
*I *2097:D I *D sg13g2_dfrbpq_1
*I *1962:Y O *D sg13g2_nor3_1
*CAP
1 *2097:D 0.000214719
2 *1962:Y 0.000679129
3 *66:8 0.000893849
*RES
1 *1962:Y *66:8 47.2718 
2 *66:8 *2097:D 42.0497 
*END

*D_NET *67 0.000940138
*CONN
*I *2096:D I *D sg13g2_dfrbpq_1
*I *1964:Y O *D sg13g2_nor3_1
*CAP
1 *2096:D 7.79798e-05
2 *1964:Y 0.000392089
3 *67:8 0.000470069
*RES
1 *1964:Y *67:8 44.0582 
2 *67:8 *2096:D 40.5356 
*END

*D_NET *68 0.000834782
*CONN
*I *2093:D I *D sg13g2_dfrbpq_1
*I *1969:Y O *D sg13g2_nor2_1
*CAP
1 *2093:D 0.000156117
2 *1969:Y 0.000261274
3 *68:10 0.000417391
*RES
1 *1969:Y *68:10 42.5853 
2 *68:10 *2093:D 41.4008 
*END

*D_NET *69 0.000477494
*CONN
*I *2092:D I *D sg13g2_dfrbpq_1
*I *1974:Y O *D sg13g2_nor2_1
*CAP
1 *2092:D 0.000238747
2 *1974:Y 0.000238747
*RES
1 *1974:Y *2092:D 42.3999 
*END

*D_NET *70 0.000196575
*CONN
*I *2091:D I *D sg13g2_dfrbpq_1
*I *1979:Y O *D sg13g2_nor2_1
*CAP
1 *2091:D 9.82873e-05
2 *1979:Y 9.82873e-05
*RES
1 *1979:Y *2091:D 40.8446 
*END

*D_NET *71 0.00041052
*CONN
*I *2090:D I *D sg13g2_dfrbpq_1
*I *1984:Y O *D sg13g2_nor2_1
*CAP
1 *2090:D 0.00020526
2 *1984:Y 0.00020526
*RES
1 *1984:Y *2090:D 42.0291 
*END

*D_NET *72 0.00137332
*CONN
*I *2089:D I *D sg13g2_dfrbpq_1
*I *1989:Y O *D sg13g2_nor2_1
*CAP
1 *2089:D 2.96094e-05
2 *1989:Y 0.000657049
3 *72:8 0.000686659
*RES
1 *1989:Y *72:8 47.0246 
2 *72:8 *2089:D 40 
*END

*D_NET *73 0.00119561
*CONN
*I *2088:D I *D sg13g2_dfrbpq_1
*I *1994:Y O *D sg13g2_nor2_1
*CAP
1 *2088:D 0.000597805
2 *1994:Y 0.000597805
*RES
1 *1994:Y *2088:D 46.3757 
*END

*D_NET *74 0.000248666
*CONN
*I *2087:D I *D sg13g2_dfrbpq_1
*I *1998:Y O *D sg13g2_nor3_1
*CAP
1 *2087:D 0.000124333
2 *1998:Y 0.000124333
*RES
1 *1998:Y *2087:D 41.133 
*END

*D_NET *75 0.000777108
*CONN
*I *2086:D I *D sg13g2_dfrbpq_1
*I *2002:Y O *D sg13g2_nor3_1
*CAP
1 *2086:D 0.000195185
2 *2002:Y 0.000193369
3 *75:8 0.000388554
*RES
1 *2002:Y *75:8 41.8334 
2 *75:8 *2086:D 41.8334 
*END

*D_NET *76 0.000566794
*CONN
*I *2085:D I *D sg13g2_dfrbpq_1
*I *2006:Y O *D sg13g2_nor3_1
*CAP
1 *2085:D 0.000283397
2 *2006:Y 0.000283397
*RES
1 *2006:Y *2085:D 42.8943 
*END

*D_NET *77 0.000617024
*CONN
*I *2084:D I *D sg13g2_dfrbpq_1
*I *2010:Y O *D sg13g2_nor3_1
*CAP
1 *2084:D 0.000308512
2 *2010:Y 0.000308512
*RES
1 *2010:Y *2084:D 43.1724 
*END

*D_NET *78 0.000321222
*CONN
*I *2083:D I *D sg13g2_dfrbpq_1
*I *2014:Y O *D sg13g2_nor3_1
*CAP
1 *2083:D 0.000160611
2 *2014:Y 0.000160611
*RES
1 *2014:Y *2083:D 41.5347 
*END

*D_NET *79 0.000477494
*CONN
*I *2082:D I *D sg13g2_dfrbpq_1
*I *2018:Y O *D sg13g2_nor3_1
*CAP
1 *2082:D 0.000238747
2 *2018:Y 0.000238747
*RES
1 *2018:Y *2082:D 42.3999 
*END

*D_NET *80 0.00105059
*CONN
*I *2081:D I *D sg13g2_dfrbpq_1
*I *2022:Y O *D sg13g2_nor3_1
*CAP
1 *2081:D 2.96094e-05
2 *2022:Y 0.000495684
3 *80:10 0.000525294
*RES
1 *2022:Y *80:10 45.1809 
2 *80:10 *2081:D 40 
*END

*D_NET *81 0.000401797
*CONN
*I *2080:D I *D sg13g2_dfrbpq_1
*I *2026:Y O *D sg13g2_nor3_1
*CAP
1 *2080:D 2.96094e-05
2 *2026:Y 0.000171289
3 *81:8 0.000200899
*RES
1 *2026:Y *81:8 41.5862 
2 *81:8 *2080:D 40 
*END

*D_NET *82 0.000248666
*CONN
*I *2079:D I *D sg13g2_dfrbpq_1
*I *2030:Y O *D sg13g2_nor3_1
*CAP
1 *2079:D 0.000124333
2 *2030:Y 0.000124333
*RES
1 *2030:Y *2079:D 41.133 
*END

*D_NET *83 0.00129939
*CONN
*I *2078:D I *D sg13g2_dfrbpq_1
*I *2034:Y O *D sg13g2_nor3_1
*CAP
1 *2078:D 2.96094e-05
2 *2034:Y 0.000620086
3 *83:14 0.000649696
*RES
1 *2034:Y *83:14 46.5611 
2 *83:14 *2078:D 40 
*END

*D_NET *84 0.000438426
*CONN
*I *2077:D I *D sg13g2_dfrbpq_1
*I *2038:Y O *D sg13g2_nor3_1
*CAP
1 *2077:D 0.000219213
2 *2038:Y 0.000219213
*RES
1 *2038:Y *2077:D 42.1836 
*END

*D_NET *85 0.000527726
*CONN
*I *2076:D I *D sg13g2_dfrbpq_1
*I *2042:Y O *D sg13g2_nor3_1
*CAP
1 *2076:D 0.000263863
2 *2042:Y 0.000263863
*RES
1 *2042:Y *2076:D 42.678 
*END

*D_NET *86 0.000321222
*CONN
*I *2075:D I *D sg13g2_dfrbpq_1
*I *2046:Y O *D sg13g2_nor3_1
*CAP
1 *2075:D 0.000160611
2 *2046:Y 0.000160611
*RES
1 *2046:Y *2075:D 41.5347 
*END

*D_NET *87 0.000321222
*CONN
*I *2074:D I *D sg13g2_dfrbpq_1
*I *2050:Y O *D sg13g2_nor3_1
*CAP
1 *2074:D 0.000160611
2 *2050:Y 0.000160611
*RES
1 *2050:Y *2074:D 41.5347 
*END

*D_NET *88 0.000564934
*CONN
*I *2073:D I *D sg13g2_dfrbpq_1
*I *2054:Y O *D sg13g2_nor3_1
*CAP
1 *2073:D 0.000282467
2 *2054:Y 0.000282467
*RES
1 *2054:Y *2073:D 42.884 
*END

*D_NET *89 0.00210534
*CONN
*I *2072:D I *D sg13g2_dfrbpq_1
*I *2058:Y O *D sg13g2_nor3_1
*CAP
1 *2072:D 0.000701209
2 *2058:Y 0.000351459
3 *89:8 0.00105267
*RES
1 *2058:Y *89:8 43.5638 
2 *89:8 *2072:D 47.519 
*END

*D_NET *90 0.000630048
*CONN
*I *2071:D I *D sg13g2_dfrbpq_1
*I *2062:Y O *D sg13g2_nor3_1
*CAP
1 *2071:D 0.000315024
2 *2062:Y 0.000315024
*RES
1 *2062:Y *2071:D 43.2445 
*END

*D_NET *91 0.000763996
*CONN
*I *2070:D I *D sg13g2_dfrbpq_1
*I *1844:Y O *D sg13g2_nor3_1
*CAP
1 *2070:D 0.000381998
2 *1844:Y 0.000381998
*RES
1 *1844:Y *2070:D 43.9861 
*END

*D_NET *92 0.000375172
*CONN
*I *2069:D I *D sg13g2_dfrbpq_1
*I *1848:Y O *D sg13g2_nor3_1
*CAP
1 *2069:D 0.000187586
2 *1848:Y 0.000187586
*RES
1 *1848:Y *2069:D 41.8334 
*END

*D_NET *93 0.000375172
*CONN
*I *2068:D I *D sg13g2_dfrbpq_1
*I *1852:Y O *D sg13g2_nor3_1
*CAP
1 *2068:D 0.000187586
2 *1852:Y 0.000187586
*RES
1 *1852:Y *2068:D 41.8334 
*END

*D_NET *94 0.000522144
*CONN
*I *2067:D I *D sg13g2_dfrbpq_1
*I *1856:Y O *D sg13g2_nor3_1
*CAP
1 *2067:D 0.000261072
2 *1856:Y 0.000261072
*RES
1 *1856:Y *2067:D 42.6471 
*END

*D_NET *95 0.00135119
*CONN
*I *2066:D I *D sg13g2_dfrbpq_1
*I *1860:Y O *D sg13g2_nor3_1
*CAP
1 *2066:D 0.000195185
2 *1860:Y 0.000480409
3 *95:8 0.000675594
*RES
1 *1860:Y *95:8 45.047 
2 *95:8 *2066:D 41.8334 
*END

*D_NET *96 0.000895978
*CONN
*I *2065:D I *D sg13g2_dfrbpq_1
*I *1864:Y O *D sg13g2_nor3_1
*CAP
1 *2065:D 7.79798e-05
2 *1864:Y 0.000370009
3 *96:8 0.000447989
*RES
1 *1864:Y *96:8 43.811 
2 *96:8 *2065:D 40.5356 
*END

*D_NET *97 0.00130703
*CONN
*I *2064:D I *D sg13g2_dfrbpq_1
*I *1868:Y O *D sg13g2_nor3_1
*CAP
1 *2064:D 0.000195185
2 *1868:Y 0.000458329
3 *97:8 0.000653514
*RES
1 *1868:Y *97:8 44.7998 
2 *97:8 *2064:D 41.8334 
*END

*D_NET *98 0.000953748
*CONN
*I *2126:D I *D sg13g2_dfrbpq_1
*I *1870:Y O *D sg13g2_nor3_1
*CAP
1 *2126:D 0.000195185
2 *1870:Y 0.000281689
3 *98:8 0.000476874
*RES
1 *1870:Y *98:8 42.8222 
2 *98:8 *2126:D 41.8334 
*END

*D_NET *99 0.000721395
*CONN
*I *2125:D I *D sg13g2_dfrbpq_1
*I *1872:Y O *D sg13g2_nor3_1
*CAP
1 *2125:D 0.000156117
2 *1872:Y 0.000204581
3 *99:12 0.000360697
*RES
1 *1872:Y *99:12 41.9467 
2 *99:12 *2125:D 41.4008 
*END

*D_NET *100 0.00103698
*CONN
*I *2124:D I *D sg13g2_dfrbpq_1
*I *1874:Y O *D sg13g2_nor3_1
*CAP
1 *2124:D 0.000214719
2 *1874:Y 0.000303769
3 *100:8 0.000518489
*RES
1 *1874:Y *100:8 43.0694 
2 *100:8 *2124:D 42.0497 
*END

*D_NET *101 0.000483263
*CONN
*I *2123:D I *D sg13g2_dfrbpq_1
*I *1876:Y O *D sg13g2_nor3_1
*CAP
1 *2123:D 2.96094e-05
2 *1876:Y 0.000212022
3 *101:10 0.000241632
*RES
1 *1876:Y *101:10 42.0291 
2 *101:10 *2123:D 40 
*END

*D_NET *102 0.000248666
*CONN
*I *2122:D I *D sg13g2_dfrbpq_1
*I *1878:Y O *D sg13g2_nor3_1
*CAP
1 *2122:D 0.000124333
2 *1878:Y 0.000124333
*RES
1 *1878:Y *2122:D 41.133 
*END

*D_NET *103 0.000321898
*CONN
*I *2121:D I *D sg13g2_dfrbpq_1
*I *1880:Y O *D sg13g2_nor3_1
*CAP
1 *2121:D 7.79798e-05
2 *1880:Y 8.29694e-05
3 *103:8 0.000160949
*RES
1 *1880:Y *103:8 40.5974 
2 *103:8 *2121:D 40.5356 
*END

*D_NET *104 0.000909588
*CONN
*I *1883:B I *D sg13g2_nor3_1
*I *1881:Y O *D sg13g2_a22oi_1
*CAP
1 *1883:B 0.000195185
2 *1881:Y 0.000259609
3 *104:8 0.000454794
*RES
1 *1881:Y *104:8 42.575 
2 *104:8 *1883:B 41.8334 
*END

*D_NET *105 0.000903526
*CONN
*I *1883:C I *D sg13g2_nor3_1
*I *1882:Y O *D sg13g2_nor2_1
*CAP
1 *1883:C 0.000451763
2 *1882:Y 0.000451763
*RES
1 *1882:Y *1883:C 44.7586 
*END

*D_NET *106 0.000851818
*CONN
*I *1886:B I *D sg13g2_nor3_1
*I *1884:Y O *D sg13g2_a22oi_1
*CAP
1 *1886:B 2.96094e-05
2 *1884:Y 0.0003963
3 *106:10 0.000425909
*RES
1 *1884:Y *106:10 44.0994 
2 *106:10 *1886:B 40 
*END

*D_NET *107 0.00105059
*CONN
*I *1886:C I *D sg13g2_nor3_1
*I *1885:Y O *D sg13g2_nor2_1
*CAP
1 *1886:C 0.000331924
2 *1885:Y 0.000193369
3 *107:8 0.000525294
*RES
1 *1885:Y *107:8 41.8334 
2 *107:8 *1886:C 43.3475 
*END

*D_NET *108 0.000535168
*CONN
*I *1889:B I *D sg13g2_nor3_1
*I *1887:Y O *D sg13g2_a22oi_1
*CAP
1 *1889:B 0.000267584
2 *1887:Y 0.000267584
*RES
1 *1887:Y *1889:B 42.7192 
*END

*D_NET *109 0.000624466
*CONN
*I *1889:C I *D sg13g2_nor3_1
*I *1888:Y O *D sg13g2_nor2_1
*CAP
1 *1889:C 0.000312233
2 *1888:Y 0.000312233
*RES
1 *1888:Y *1889:C 43.2136 
*END

*D_NET *110 0.00078074
*CONN
*I *1892:B I *D sg13g2_nor3_1
*I *1890:Y O *D sg13g2_a22oi_1
*CAP
1 *1892:B 0.00039037
2 *1890:Y 0.00039037
*RES
1 *1890:Y *1892:B 44.0788 
*END

*D_NET *111 0.00092359
*CONN
*I *1892:C I *D sg13g2_nor3_1
*I *1891:Y O *D sg13g2_nor2_1
*CAP
1 *1892:C 0.000246346
2 *1891:Y 0.000215449
3 *111:8 0.000461795
*RES
1 *1891:Y *111:8 42.0806 
2 *111:8 *1892:C 42.3999 
*END

*D_NET *112 0.000454378
*CONN
*I *1895:B I *D sg13g2_nor3_1
*I *1893:Y O *D sg13g2_a22oi_1
*CAP
1 *1895:B 2.96094e-05
2 *1893:Y 0.00019758
3 *112:10 0.000227189
*RES
1 *1893:Y *112:10 41.8746 
2 *112:10 *1895:B 40 
*END

*D_NET *113 0.000522332
*CONN
*I *1895:C I *D sg13g2_nor3_1
*I *1894:Y O *D sg13g2_nor2_1
*CAP
1 *1895:C 0.000156117
2 *1894:Y 0.000105049
3 *113:8 0.000261166
*RES
1 *1894:Y *113:8 40.8446 
2 *113:8 *1895:C 41.4008 
*END

*D_NET *114 0.000454378
*CONN
*I *1898:B I *D sg13g2_nor3_1
*I *1896:Y O *D sg13g2_a22oi_1
*CAP
1 *1898:B 7.79798e-05
2 *1896:Y 0.000149209
3 *114:8 0.000227189
*RES
1 *1896:Y *114:8 41.339 
2 *114:8 *1898:B 40.5356 
*END

*D_NET *115 0.000580494
*CONN
*I *1898:C I *D sg13g2_nor3_1
*I *1897:Y O *D sg13g2_nor2_1
*CAP
1 *1898:C 0.000207278
2 *1897:Y 8.29694e-05
3 *115:8 0.000290247
*RES
1 *1897:Y *115:8 40.5974 
2 *115:8 *1898:C 41.9673 
*END

*D_NET *116 0.000498538
*CONN
*I *1901:B I *D sg13g2_nor3_1
*I *1899:Y O *D sg13g2_a22oi_1
*CAP
1 *1901:B 2.96094e-05
2 *1899:Y 0.00021966
3 *116:10 0.000249269
*RES
1 *1899:Y *116:10 42.1218 
2 *116:10 *1901:B 40 
*END

*D_NET *117 0.00100643
*CONN
*I *1901:C I *D sg13g2_nor3_1
*I *1900:Y O *D sg13g2_nor2_1
*CAP
1 *1901:C 0.000331924
2 *1900:Y 0.000171289
3 *117:8 0.000503214
*RES
1 *1900:Y *117:8 41.5862 
2 *117:8 *1901:C 43.3475 
*END

*D_NET *118 0.000542698
*CONN
*I *1904:B I *D sg13g2_nor3_1
*I *1902:Y O *D sg13g2_a22oi_1
*CAP
1 *1904:B 2.96094e-05
2 *1902:Y 0.00024174
3 *118:10 0.000271349
*RES
1 *1902:Y *118:10 42.369 
2 *118:10 *1904:B 40 
*END

*D_NET *119 0.00040494
*CONN
*I *1904:C I *D sg13g2_nor3_1
*I *1903:Y O *D sg13g2_nor2_1
*CAP
1 *1904:C 0.00020247
2 *1903:Y 0.00020247
*RES
1 *1903:Y *1904:C 41.9982 
*END

*D_NET *120 0.000713766
*CONN
*I *1907:B I *D sg13g2_nor3_1
*I *1905:Y O *D sg13g2_a22oi_1
*CAP
1 *1907:B 0.000356883
2 *1905:Y 0.000356883
*RES
1 *1905:Y *1907:B 43.708 
*END

*D_NET *121 0.00032699
*CONN
*I *1907:C I *D sg13g2_nor3_1
*I *1906:Y O *D sg13g2_nor2_1
*CAP
1 *1907:C 5.84456e-05
2 *1906:Y 0.000105049
3 *121:8 0.000163495
*RES
1 *1906:Y *121:8 40.8446 
2 *121:8 *1907:C 40.3193 
*END

*D_NET *122 0.000498538
*CONN
*I *1910:B I *D sg13g2_nor3_1
*I *1908:Y O *D sg13g2_a22oi_1
*CAP
1 *1910:B 2.96094e-05
2 *1908:Y 0.00021966
3 *122:10 0.000249269
*RES
1 *1908:Y *122:10 42.1218 
2 *122:10 *1910:B 40 
*END

*D_NET *123 0.000650512
*CONN
*I *1910:C I *D sg13g2_nor3_1
*I *1909:Y O *D sg13g2_nor2_1
*CAP
1 *1910:C 0.000325256
2 *1909:Y 0.000325256
*RES
1 *1909:Y *1910:C 43.3578 
*END

*D_NET *124 0.000957176
*CONN
*I *1913:B I *D sg13g2_nor3_1
*I *1911:Y O *D sg13g2_a22oi_1
*CAP
1 *1913:B 2.96094e-05
2 *1911:Y 0.000448979
3 *124:10 0.000478588
*RES
1 *1911:Y *124:10 44.6556 
2 *124:10 *1913:B 40 
*END

*D_NET *125 0.00122919
*CONN
*I *1913:C I *D sg13g2_nor3_1
*I *1912:Y O *D sg13g2_nor2_1
*CAP
1 *1913:C 0.000136582
2 *1912:Y 0.000478011
3 *125:14 0.000614593
*RES
1 *1912:Y *125:14 44.9852 
2 *125:14 *1913:C 41.1845 
*END

*D_NET *126 0.000881148
*CONN
*I *1916:B I *D sg13g2_nor3_1
*I *1914:Y O *D sg13g2_a22oi_1
*CAP
1 *1916:B 5.84456e-05
2 *1914:Y 0.000124119
3 *126:16 0.000316455
4 *126:10 0.000382128
*RES
1 *1914:Y *126:10 41.0558 
2 *126:10 *126:16 42.4823 
3 *126:16 *1916:B 40.3193 
*END

*D_NET *127 0.000816545
*CONN
*I *1916:C I *D sg13g2_nor3_1
*I *1915:Y O *D sg13g2_nor2_1
*CAP
1 *1916:C 9.77466e-05
2 *1915:Y 0.000310526
3 *127:10 0.000408272
*RES
1 *1915:Y *127:10 43.1415 
2 *127:10 *1916:C 40.7545 
*END

*D_NET *128 0.000498538
*CONN
*I *1919:B I *D sg13g2_nor3_1
*I *1917:Y O *D sg13g2_a22oi_1
*CAP
1 *1919:B 2.96094e-05
2 *1917:Y 0.00021966
3 *128:10 0.000249269
*RES
1 *1917:Y *128:10 42.1218 
2 *128:10 *1919:B 40 
*END

*D_NET *129 0.000577956
*CONN
*I *1919:C I *D sg13g2_nor3_1
*I *1918:Y O *D sg13g2_nor2_1
*CAP
1 *1919:C 0.000288978
2 *1918:Y 0.000288978
*RES
1 *1918:Y *1919:C 42.9561 
*END

*D_NET *130 0.00107262
*CONN
*I *1922:B I *D sg13g2_nor3_1
*I *1920:Y O *D sg13g2_a22oi_1
*CAP
1 *1922:B 2.96094e-05
2 *1920:Y 0.0005067
3 *130:10 0.000536309
*RES
1 *1920:Y *130:10 45.3354 
2 *130:10 *1922:B 40 
*END

*D_NET *131 0.00122928
*CONN
*I *1922:C I *D sg13g2_nor3_1
*I *1921:Y O *D sg13g2_nor2_1
*CAP
1 *1922:C 9.00724e-05
2 *1921:Y 0.000524569
3 *131:8 0.000614642
*RES
1 *1921:Y *131:8 45.5414 
2 *131:8 *1922:C 40.6695 
*END

*D_NET *132 0.000719338
*CONN
*I *1925:B I *D sg13g2_nor3_1
*I *1923:Y O *D sg13g2_a22oi_1
*CAP
1 *1925:B 2.96094e-05
2 *1923:Y 0.00033006
3 *132:10 0.000359669
*RES
1 *1923:Y *132:10 43.3578 
2 *132:10 *1925:B 40 
*END

*D_NET *133 0.000382614
*CONN
*I *1925:C I *D sg13g2_nor3_1
*I *1924:Y O *D sg13g2_nor2_1
*CAP
1 *1925:C 0.000191307
2 *1924:Y 0.000191307
*RES
1 *1924:Y *1925:C 41.8746 
*END

*D_NET *134 0.000542698
*CONN
*I *1928:B I *D sg13g2_nor3_1
*I *1926:Y O *D sg13g2_a22oi_1
*CAP
1 *1928:B 2.96094e-05
2 *1926:Y 0.00024174
3 *134:10 0.000271349
*RES
1 *1926:Y *134:10 42.369 
2 *134:10 *1928:B 40 
*END

*D_NET *135 0.000748
*CONN
*I *1928:C I *D sg13g2_nor3_1
*I *1927:Y O *D sg13g2_nor2_1
*CAP
1 *1928:C 5.84456e-05
2 *1927:Y 0.000315554
3 *135:14 0.000374
*RES
1 *1927:Y *135:14 43.193 
2 *135:14 *1928:C 40.3193 
*END

*D_NET *136 0.000613304
*CONN
*I *1931:B I *D sg13g2_nor3_1
*I *1929:Y O *D sg13g2_a22oi_1
*CAP
1 *1931:B 0.000306652
2 *1929:Y 0.000306652
*RES
1 *1929:Y *1931:B 43.1518 
*END

*D_NET *137 0.000834692
*CONN
*I *1931:C I *D sg13g2_nor3_1
*I *1930:Y O *D sg13g2_nor2_1
*CAP
1 *1931:C 0.000417346
2 *1930:Y 0.000417346
*RES
1 *1930:Y *1931:C 44.3775 
*END

*D_NET *138 0.00107262
*CONN
*I *1934:B I *D sg13g2_nor3_1
*I *1932:Y O *D sg13g2_a22oi_1
*CAP
1 *1934:B 2.96094e-05
2 *1932:Y 0.0005067
3 *138:10 0.000536309
*RES
1 *1932:Y *138:10 45.3354 
2 *138:10 *1934:B 40 
*END

*D_NET *139 0.000434403
*CONN
*I *1934:C I *D sg13g2_nor3_1
*I *1933:Y O *D sg13g2_nor2_1
*CAP
1 *1934:C 9.00724e-05
2 *1933:Y 0.000127129
3 *139:8 0.000217202
*RES
1 *1933:Y *139:8 41.0918 
2 *139:8 *1934:C 40.6695 
*END

*D_NET *140 0.000895978
*CONN
*I *1937:B I *D sg13g2_nor3_1
*I *1935:Y O *D sg13g2_a22oi_1
*CAP
1 *1937:B 2.96094e-05
2 *1935:Y 0.00041838
3 *140:10 0.000447989
*RES
1 *1935:Y *140:10 44.3466 
2 *140:10 *1937:B 40 
*END

*D_NET *141 0.000849574
*CONN
*I *1937:C I *D sg13g2_nor3_1
*I *1936:Y O *D sg13g2_nor2_1
*CAP
1 *1937:C 0.000424787
2 *1936:Y 0.000424787
*RES
1 *1936:Y *1937:C 44.4599 
*END

*D_NET *142 0.000719338
*CONN
*I *1940:B I *D sg13g2_nor3_1
*I *1938:Y O *D sg13g2_a22oi_1
*CAP
1 *1940:B 2.96094e-05
2 *1938:Y 0.00033006
3 *142:10 0.000359669
*RES
1 *1938:Y *142:10 43.3578 
2 *142:10 *1940:B 40 
*END

*D_NET *143 0.00113382
*CONN
*I *1940:C I *D sg13g2_nor3_1
*I *1939:Y O *D sg13g2_nor2_1
*CAP
1 *1940:C 0.000351459
2 *1939:Y 0.000215449
3 *143:8 0.000566908
*RES
1 *1939:Y *143:8 42.0806 
2 *143:8 *1940:C 43.5638 
*END

*D_NET *144 0.000675178
*CONN
*I *1943:B I *D sg13g2_nor3_1
*I *1941:Y O *D sg13g2_a22oi_1
*CAP
1 *1943:B 2.96094e-05
2 *1941:Y 0.00030798
3 *144:10 0.000337589
*RES
1 *1941:Y *144:10 43.1106 
2 *144:10 *1943:B 40 
*END

*D_NET *145 0.000350988
*CONN
*I *1943:C I *D sg13g2_nor3_1
*I *1942:Y O *D sg13g2_nor2_1
*CAP
1 *1943:C 0.000175494
2 *1942:Y 0.000175494
*RES
1 *1942:Y *1943:C 41.6995 
*END

*D_NET *146 0.000884032
*CONN
*I *1946:B I *D sg13g2_nor3_1
*I *1944:Y O *D sg13g2_a22oi_1
*CAP
1 *1946:B 9.7514e-05
2 *1944:Y 0.000344502
3 *146:10 0.000442016
*RES
1 *1944:Y *146:10 43.5123 
2 *146:10 *1946:B 40.7519 
*END

*D_NET *147 0.000745392
*CONN
*I *1946:C I *D sg13g2_nor3_1
*I *1945:Y O *D sg13g2_nor2_1
*CAP
1 *1946:C 0.000372696
2 *1945:Y 0.000372696
*RES
1 *1945:Y *1946:C 43.8831 
*END

*D_NET *148 0.00103177
*CONN
*I *1949:B I *D sg13g2_nor3_1
*I *1956:B_N I *D sg13g2_nor2b_1
*I *1947:X O *D sg13g2_and3_1
*CAP
1 *1949:B 0.000235184
2 *1956:B_N 1.10054e-05
3 *1947:X 1.10054e-05
4 *148:12 0.000269695
5 *148:4 0.000504878
*RES
1 *1947:X *148:4 20 
2 *148:4 *148:12 42.4617 
3 *148:12 *1956:B_N 20 
4 *148:4 *1949:B 22.4823 
*END

*D_NET *149 0.00040494
*CONN
*I *1949:C I *D sg13g2_nor3_1
*I *1948:Y O *D sg13g2_a21oi_1
*CAP
1 *1949:C 0.00020247
2 *1948:Y 0.00020247
*RES
1 *1948:Y *1949:C 41.9982 
*END

*D_NET *150 0.000399358
*CONN
*I *1954:A I *D sg13g2_xnor2_1
*I *1951:Y O *D sg13g2_nand2_1
*CAP
1 *1954:A 0.000199679
2 *1951:Y 0.000199679
*RES
1 *1951:Y *1954:A 41.9673 
*END

*D_NET *151 0.000533306
*CONN
*I *1964:B I *D sg13g2_nor3_1
*I *1952:Y O *D sg13g2_nor2_1
*CAP
1 *1964:B 0.000266653
2 *1952:Y 0.000266653
*RES
1 *1952:Y *1964:B 42.7089 
*END

*D_NET *152 0.000963932
*CONN
*I *1954:B I *D sg13g2_xnor2_1
*I *1953:Y O *D sg13g2_xnor2_1
*CAP
1 *1954:B 0.000156117
2 *1953:Y 0.000325849
3 *152:8 0.000481966
*RES
1 *1953:Y *152:8 43.3166 
2 *152:8 *1954:B 41.4008 
*END

*D_NET *153 0.00155035
*CONN
*I *1955:B I *D sg13g2_nor2_1
*I *1954:Y O *D sg13g2_xnor2_1
*CAP
1 *1955:B 0.000383085
2 *1954:Y 0.000392089
3 *153:8 0.000775175
*RES
1 *1954:Y *153:8 44.0582 
2 *153:8 *1955:B 43.914 
*END

*D_NET *154 0.00106256
*CONN
*I *1959:B I *D sg13g2_nor3_1
*I *1957:Y O *D sg13g2_a22oi_1
*CAP
1 *1959:B 0.000136582
2 *1957:Y 5.84456e-05
3 *154:16 0.000472836
4 *154:8 0.000394699
*RES
1 *1957:Y *154:8 40.3193 
2 *154:8 *154:16 43.3578 
3 *154:16 *1959:B 41.1845 
*END

*D_NET *155 0.00068027
*CONN
*I *1959:C I *D sg13g2_nor3_1
*I *1958:Y O *D sg13g2_nor2_1
*CAP
1 *1959:C 5.84456e-05
2 *1958:Y 0.000281689
3 *155:8 0.000340135
*RES
1 *1958:Y *155:8 42.8222 
2 *155:8 *1959:C 40.3193 
*END

*D_NET *156 0.000557492
*CONN
*I *1962:B I *D sg13g2_nor3_1
*I *1960:Y O *D sg13g2_a22oi_1
*CAP
1 *1962:B 0.000278746
2 *1960:Y 0.000278746
*RES
1 *1960:Y *1962:B 42.8428 
*END

*D_NET *157 0.000944597
*CONN
*I *1962:C I *D sg13g2_nor3_1
*I *1961:Y O *D sg13g2_nor2_1
*CAP
1 *1962:C 2.96094e-05
2 *1961:Y 0.000442689
3 *157:10 0.000472299
*RES
1 *1961:Y *157:10 44.6247 
2 *157:10 *1962:C 40 
*END

*D_NET *158 0.000717576
*CONN
*I *1964:C I *D sg13g2_nor3_1
*I *1963:Y O *D sg13g2_a22oi_1
*CAP
1 *1964:C 7.79798e-05
2 *1963:Y 0.000280808
3 *158:10 0.000358788
*RES
1 *1963:Y *158:10 42.8016 
2 *158:10 *1964:C 40.5356 
*END

*D_NET *159 0.000445957
*CONN
*I *1968:A I *D sg13g2_xnor2_1
*I *1965:Y O *D sg13g2_nand2_1
*CAP
1 *1968:A 2.96094e-05
2 *1965:Y 0.000193369
3 *159:8 0.000222979
*RES
1 *1965:Y *159:8 41.8334 
2 *159:8 *1968:A 40 
*END

*D_NET *160 0.000743132
*CONN
*I *1870:B I *D sg13g2_nor3_1
*I *1966:Y O *D sg13g2_nor2_1
*CAP
1 *1870:B 0.000156117
2 *1966:Y 0.000215449
3 *160:8 0.000371566
*RES
1 *1966:Y *160:8 42.0806 
2 *160:8 *1870:B 41.4008 
*END

*D_NET *161 0.00040494
*CONN
*I *1968:B I *D sg13g2_xnor2_1
*I *1967:Y O *D sg13g2_xnor2_1
*CAP
1 *1968:B 0.00020247
2 *1967:Y 0.00020247
*RES
1 *1967:Y *1968:B 41.9982 
*END

*D_NET *162 0.000542698
*CONN
*I *1969:B I *D sg13g2_nor2_1
*I *1968:Y O *D sg13g2_xnor2_1
*CAP
1 *1969:B 7.79798e-05
2 *1968:Y 0.000193369
3 *162:8 0.000271349
*RES
1 *1968:Y *162:8 41.8334 
2 *162:8 *1969:B 40.5356 
*END

*D_NET *163 0.00045947
*CONN
*I *1973:A I *D sg13g2_xnor2_1
*I *1970:Y O *D sg13g2_nand2_1
*CAP
1 *1973:A 5.84456e-05
2 *1970:Y 0.000171289
3 *163:8 0.000229735
*RES
1 *1970:Y *163:8 41.5862 
2 *163:8 *1973:A 40.3193 
*END

*D_NET *164 0.000410218
*CONN
*I *1872:B I *D sg13g2_nor3_1
*I *1971:Y O *D sg13g2_nor2_1
*CAP
1 *1872:B 7.79798e-05
2 *1971:Y 0.000127129
3 *164:8 0.000205109
*RES
1 *1971:Y *164:8 41.0918 
2 *164:8 *1872:B 40.5356 
*END

*D_NET *165 0.000477494
*CONN
*I *1973:B I *D sg13g2_xnor2_1
*I *1972:Y O *D sg13g2_xnor2_1
*CAP
1 *1973:B 0.000238747
2 *1972:Y 0.000238747
*RES
1 *1972:Y *1973:B 42.3999 
*END

*D_NET *166 0.00040494
*CONN
*I *1974:B I *D sg13g2_nor2_1
*I *1973:Y O *D sg13g2_xnor2_1
*CAP
1 *1974:B 0.00020247
2 *1973:Y 0.00020247
*RES
1 *1973:Y *1974:B 41.9982 
*END

*D_NET *167 0.000481216
*CONN
*I *1978:A I *D sg13g2_xnor2_1
*I *1975:Y O *D sg13g2_nand2_1
*CAP
1 *1978:A 0.000240608
2 *1975:Y 0.000240608
*RES
1 *1975:Y *1978:A 42.4205 
*END

*D_NET *168 0.00098939
*CONN
*I *1874:B I *D sg13g2_nor3_1
*I *1976:Y O *D sg13g2_nor2_1
*CAP
1 *1874:B 5.84456e-05
2 *1976:Y 0.000436249
3 *168:8 0.000494695
*RES
1 *1976:Y *168:8 44.5526 
2 *168:8 *1874:B 40.3193 
*END

*D_NET *169 0.000399358
*CONN
*I *1978:B I *D sg13g2_xnor2_1
*I *1977:Y O *D sg13g2_xnor2_1
*CAP
1 *1978:B 0.000199679
2 *1977:Y 0.000199679
*RES
1 *1977:Y *1978:B 41.9673 
*END

*D_NET *170 0.00149334
*CONN
*I *1979:B I *D sg13g2_nor2_1
*I *1978:Y O *D sg13g2_xnor2_1
*CAP
1 *1979:B 0.000153559
2 *1978:Y 0.000593111
3 *170:16 0.000746669
*RES
1 *1978:Y *170:16 46.2624 
2 *170:16 *1979:B 41.3725 
*END

*D_NET *171 0.000336104
*CONN
*I *1983:A I *D sg13g2_xnor2_1
*I *1980:Y O *D sg13g2_nand2_1
*CAP
1 *1983:A 0.000168052
2 *1980:Y 0.000168052
*RES
1 *1980:Y *1983:A 41.6171 
*END

*D_NET *172 0.00125514
*CONN
*I *1876:B I *D sg13g2_nor3_1
*I *1981:Y O *D sg13g2_nor2_1
*CAP
1 *1876:B 0.000627571
2 *1981:Y 0.000627571
*RES
1 *1981:Y *1876:B 46.7053 
*END

*D_NET *173 0.000449588
*CONN
*I *1983:B I *D sg13g2_xnor2_1
*I *1982:Y O *D sg13g2_xnor2_1
*CAP
1 *1983:B 0.000224794
2 *1982:Y 0.000224794
*RES
1 *1982:Y *1983:B 42.2454 
*END

*D_NET *174 0.00069388
*CONN
*I *1984:B I *D sg13g2_nor2_1
*I *1983:Y O *D sg13g2_xnor2_1
*CAP
1 *1984:B 0.000175651
2 *1983:Y 0.000171289
3 *174:8 0.00034694
*RES
1 *1983:Y *174:8 41.5862 
2 *174:8 *1984:B 41.6171 
*END

*D_NET *175 0.00113881
*CONN
*I *1988:A I *D sg13g2_xnor2_1
*I *1985:Y O *D sg13g2_nand2_1
*CAP
1 *1988:A 0.000195185
2 *1985:Y 0.00037422
3 *175:10 0.000569405
*RES
1 *1985:Y *175:10 43.8522 
2 *175:10 *1988:A 41.8334 
*END

*D_NET *176 0.00149385
*CONN
*I *1878:B I *D sg13g2_nor3_1
*I *1986:Y O *D sg13g2_nor2_1
*CAP
1 *1878:B 2.96094e-05
2 *1986:Y 0.000717317
3 *176:10 0.000746926
*RES
1 *1986:Y *176:10 47.6838 
2 *176:10 *1878:B 40 
*END

*D_NET *177 0.000631018
*CONN
*I *1988:B I *D sg13g2_xnor2_1
*I *1987:Y O *D sg13g2_xnor2_1
*CAP
1 *1988:B 7.79798e-05
2 *1987:Y 0.000237529
3 *177:8 0.000315509
*RES
1 *1987:Y *177:8 42.3278 
2 *177:8 *1988:B 40.5356 
*END

*D_NET *178 0.00127305
*CONN
*I *1989:B I *D sg13g2_nor2_1
*I *1988:Y O *D sg13g2_xnor2_1
*CAP
1 *1989:B 0.000156117
2 *1988:Y 0.000480409
3 *178:8 0.000636526
*RES
1 *1988:Y *178:8 45.047 
2 *178:8 *1989:B 41.4008 
*END

*D_NET *179 0.000533306
*CONN
*I *1993:A I *D sg13g2_xnor2_1
*I *1990:Y O *D sg13g2_nand2_1
*CAP
1 *1993:A 0.000266653
2 *1990:Y 0.000266653
*RES
1 *1990:Y *1993:A 42.7089 
*END

*D_NET *180 0.00108114
*CONN
*I *1880:B I *D sg13g2_nor3_1
*I *1991:Y O *D sg13g2_nor2_1
*CAP
1 *1880:B 0.000214719
2 *1991:Y 0.000325849
3 *180:8 0.000540569
*RES
1 *1991:Y *180:8 43.3166 
2 *180:8 *1880:B 42.0497 
*END

*D_NET *181 0.000540748
*CONN
*I *1993:B I *D sg13g2_xnor2_1
*I *1992:Y O *D sg13g2_xnor2_1
*CAP
1 *1993:B 0.000270374
2 *1992:Y 0.000270374
*RES
1 *1992:Y *1993:B 42.7501 
*END

*D_NET *182 0.00174873
*CONN
*I *1994:B I *D sg13g2_nor2_1
*I *1993:Y O *D sg13g2_xnor2_1
*CAP
1 *1994:B 0.000703074
2 *1993:Y 0.000171289
3 *182:8 0.000874364
*RES
1 *1993:Y *182:8 41.5862 
2 *182:8 *1994:B 47.4572 
*END

*D_NET *183 0.00225669
*CONN
*I *1996:B1 I *D sg13g2_a21oi_1
*I *1997:C I *D sg13g2_and3_1
*I *1995:X O *D sg13g2_xor2_1
*CAP
1 *1996:B1 0.000412852
2 *1997:C 1.10054e-05
3 *1995:X 0.000657049
4 *183:12 0.000471297
5 *183:8 0.00070449
*RES
1 *1995:X *183:8 47.0246 
2 *183:8 *183:12 20.3193 
3 *183:12 *1997:C 20 
4 *183:12 *1996:B1 24.4496 
*END

*D_NET *184 0.000963932
*CONN
*I *1998:B I *D sg13g2_nor3_1
*I *1996:Y O *D sg13g2_a21oi_1
*CAP
1 *1998:B 0.000156117
2 *1996:Y 0.000325849
3 *184:8 0.000481966
*RES
1 *1996:Y *184:8 43.3166 
2 *184:8 *1998:B 41.4008 
*END

*D_NET *185 0.00104716
*CONN
*I *1998:C I *D sg13g2_nor3_1
*I *1997:X O *D sg13g2_and3_1
*CAP
1 *1998:C 2.96094e-05
2 *1997:X 0.000493971
3 *185:10 0.00052358
*RES
1 *1997:X *185:10 45.1809 
2 *185:10 *1998:C 40 
*END

*D_NET *186 0.0016317
*CONN
*I *2001:C I *D sg13g2_and3_1
*I *2000:B1 I *D sg13g2_a21oi_1
*I *1999:X O *D sg13g2_xor2_1
*CAP
1 *2001:C 0.000137513
2 *2000:B1 9.10026e-05
3 *1999:X 0.000568729
4 *186:10 0.000247119
5 *186:8 0.000587333
*RES
1 *1999:X *186:8 46.0358 
2 *186:8 *186:10 20 
3 *186:10 *2000:B1 20.8858 
4 *186:10 *2001:C 21.4008 
*END

*D_NET *187 0.000695162
*CONN
*I *2002:B I *D sg13g2_nor3_1
*I *2000:Y O *D sg13g2_a21oi_1
*CAP
1 *2002:B 0.000347581
2 *2000:Y 0.000347581
*RES
1 *2000:Y *2002:B 43.605 
*END

*D_NET *188 0.00050363
*CONN
*I *2002:C I *D sg13g2_nor3_1
*I *2001:X O *D sg13g2_and3_1
*CAP
1 *2002:C 5.84456e-05
2 *2001:X 0.000193369
3 *188:8 0.000251815
*RES
1 *2001:X *188:8 41.8334 
2 *188:8 *2002:C 40.3193 
*END

*D_NET *189 0.00110972
*CONN
*I *2004:B1 I *D sg13g2_a21oi_1
*I *2005:C I *D sg13g2_and3_1
*I *2003:X O *D sg13g2_xor2_1
*CAP
1 *2004:B1 0.000138443
2 *2005:C 3.98416e-05
3 *2003:X 0.000376574
4 *189:10 0.000554859
*RES
1 *2003:X *189:10 24.0479 
2 *189:10 *2005:C 20.3193 
3 *189:10 *2004:B1 21.4111 
*END

*D_NET *190 0.00068027
*CONN
*I *2006:B I *D sg13g2_nor3_1
*I *2004:Y O *D sg13g2_a21oi_1
*CAP
1 *2006:B 5.84456e-05
2 *2004:Y 0.000281689
3 *190:8 0.000340135
*RES
1 *2004:Y *190:8 42.8222 
2 *190:8 *2006:B 40.3193 
*END

*D_NET *191 0.000580277
*CONN
*I *2006:C I *D sg13g2_nor3_1
*I *2005:X O *D sg13g2_and3_1
*CAP
1 *2006:C 2.96094e-05
2 *2005:X 0.000260529
3 *191:10 0.000290139
*RES
1 *2005:X *191:10 42.5853 
2 *191:10 *2006:C 40 
*END

*D_NET *192 0.00117297
*CONN
*I *2008:B1 I *D sg13g2_a21oi_1
*I *2009:C I *D sg13g2_and3_1
*I *2007:X O *D sg13g2_xor2_1
*CAP
1 *2008:B1 7.14684e-05
2 *2009:C 0.00012542
3 *2007:X 0.000389597
4 *192:8 0.000586485
*RES
1 *2007:X *192:8 24.1921 
2 *192:8 *2009:C 21.2669 
3 *192:8 *2008:B1 20.6695 
*END

*D_NET *193 0.000743132
*CONN
*I *2010:B I *D sg13g2_nor3_1
*I *2008:Y O *D sg13g2_a21oi_1
*CAP
1 *2010:B 0.000156117
2 *2008:Y 0.000215449
3 *193:8 0.000371566
*RES
1 *2008:Y *193:8 42.0806 
2 *193:8 *2010:B 41.4008 
*END

*D_NET *194 0.00055191
*CONN
*I *2010:C I *D sg13g2_nor3_1
*I *2009:X O *D sg13g2_and3_1
*CAP
1 *2010:C 0.000275955
2 *2009:X 0.000275955
*RES
1 *2009:X *2010:C 42.8119 
*END

*D_NET *195 0.00116934
*CONN
*I *2012:B1 I *D sg13g2_a21oi_1
*I *2013:C I *D sg13g2_and3_1
*I *2011:X O *D sg13g2_xor2_1
*CAP
1 *2012:B1 0.000332855
2 *2013:C 1.10054e-05
3 *2011:X 0.000193369
4 *195:12 0.0003913
5 *195:8 0.00024081
*RES
1 *2011:X *195:8 41.8334 
2 *195:8 *195:12 20.3193 
3 *195:12 *2013:C 20 
4 *195:12 *2012:B1 23.5638 
*END

*D_NET *196 0.000793762
*CONN
*I *2014:B I *D sg13g2_nor3_1
*I *2012:Y O *D sg13g2_a21oi_1
*CAP
1 *2014:B 0.000396881
2 *2012:Y 0.000396881
*RES
1 *2012:Y *2014:B 44.1509 
*END

*D_NET *197 0.000668814
*CONN
*I *2014:C I *D sg13g2_nor3_1
*I *2013:X O *D sg13g2_and3_1
*CAP
1 *2014:C 0.000207278
2 *2013:X 0.000127129
3 *197:8 0.000334407
*RES
1 *2013:X *197:8 41.0918 
2 *197:8 *2014:C 41.9673 
*END

*D_NET *198 0.00127529
*CONN
*I *2016:B1 I *D sg13g2_a21oi_1
*I *2017:C I *D sg13g2_and3_1
*I *2015:X O *D sg13g2_xor2_1
*CAP
1 *2016:B1 0.000425875
2 *2017:C 4.26322e-05
3 *2015:X 0.000169139
4 *198:8 0.000637646
*RES
1 *2015:X *198:8 21.751 
2 *198:8 *2017:C 20.3502 
3 *198:8 *2016:B1 24.5938 
*END

*D_NET *199 0.00107262
*CONN
*I *2018:B I *D sg13g2_nor3_1
*I *2016:Y O *D sg13g2_a21oi_1
*CAP
1 *2018:B 7.79798e-05
2 *2016:Y 0.000458329
3 *199:8 0.000536309
*RES
1 *2016:Y *199:8 44.7998 
2 *199:8 *2018:B 40.5356 
*END

*D_NET *200 0.000963336
*CONN
*I *2018:C I *D sg13g2_nor3_1
*I *2017:X O *D sg13g2_and3_1
*CAP
1 *2018:C 2.96094e-05
2 *2017:X 0.000149209
3 *200:16 0.000332459
4 *200:8 0.000452059
*RES
1 *2017:X *200:8 41.339 
2 *200:8 *200:16 42.9561 
3 *200:16 *2018:C 40 
*END

*D_NET *201 0.00100135
*CONN
*I *2021:C I *D sg13g2_and3_1
*I *2020:B1 I *D sg13g2_a21oi_1
*I *2019:X O *D sg13g2_xor2_1
*CAP
1 *2021:C 0.000152163
2 *2020:B1 0.000215649
3 *2019:X 0.000132862
4 *201:8 0.000500674
*RES
1 *2019:X *201:8 21.3493 
2 *201:8 *2020:B1 22.266 
3 *201:8 *2021:C 21.563 
*END

*D_NET *202 0.000787292
*CONN
*I *2022:B I *D sg13g2_nor3_1
*I *2020:Y O *D sg13g2_a21oi_1
*CAP
1 *2022:B 2.96094e-05
2 *2020:Y 0.000364037
3 *202:10 0.000393646
*RES
1 *2020:Y *202:10 43.7286 
2 *202:10 *2022:B 40 
*END

*D_NET *203 0.00041531
*CONN
*I *2022:C I *D sg13g2_nor3_1
*I *2021:X O *D sg13g2_and3_1
*CAP
1 *2022:C 5.84456e-05
2 *2021:X 0.000149209
3 *203:8 0.000207655
*RES
1 *2021:X *203:8 41.339 
2 *203:8 *2022:C 40.3193 
*END

*D_NET *204 0.0012741
*CONN
*I *2025:C I *D sg13g2_and3_1
*I *2024:B1 I *D sg13g2_a21oi_1
*I *2023:X O *D sg13g2_xor2_1
*CAP
1 *2025:C 1.10054e-05
2 *2024:B1 1.10054e-05
3 *2023:X 0.000237529
4 *204:18 0.000145733
5 *204:12 0.000388516
6 *204:8 0.000480312
*RES
1 *2023:X *204:8 42.3278 
2 *204:8 *204:12 22.4823 
3 *204:12 *204:18 41.0918 
4 *204:18 *2024:B1 20 
5 *204:12 *2025:C 20 
*END

*D_NET *205 0.000711906
*CONN
*I *2026:B I *D sg13g2_nor3_1
*I *2024:Y O *D sg13g2_a21oi_1
*CAP
1 *2026:B 0.000355953
2 *2024:Y 0.000355953
*RES
1 *2024:Y *2026:B 43.6977 
*END

*D_NET *206 0.000848392
*CONN
*I *2026:C I *D sg13g2_nor3_1
*I *2025:X O *D sg13g2_and3_1
*CAP
1 *2026:C 0.000292856
2 *2025:X 0.00013134
3 *206:10 0.000424196
*RES
1 *2025:X *206:10 41.133 
2 *206:10 *2026:C 42.9149 
*END

*D_NET *207 0.00105634
*CONN
*I *2029:C I *D sg13g2_and3_1
*I *2028:B1 I *D sg13g2_a21oi_1
*I *2027:X O *D sg13g2_xor2_1
*CAP
1 *2029:C 1.10054e-05
2 *2028:B1 0.000215649
3 *2027:X 9.10026e-05
4 *207:23 0.00022152
5 *207:8 0.000517167
*RES
1 *2027:X *207:8 20.8858 
2 *207:8 *2028:B1 22.266 
3 *207:8 *207:23 41.9364 
4 *207:23 *2029:C 20 
*END

*D_NET *208 0.00111511
*CONN
*I *2030:B I *D sg13g2_nor3_1
*I *2028:Y O *D sg13g2_a21oi_1
*CAP
1 *2030:B 0.000253788
2 *2028:Y 0.000303769
3 *208:8 0.000557557
*RES
1 *2028:Y *208:8 43.0694 
2 *208:8 *2030:B 42.4823 
*END

*D_NET *209 0.000471717
*CONN
*I *2030:C I *D sg13g2_nor3_1
*I *2029:X O *D sg13g2_and3_1
*CAP
1 *2030:C 2.96094e-05
2 *2029:X 0.000206249
3 *209:12 0.000235859
*RES
1 *2029:X *209:12 41.9776 
2 *209:12 *2030:C 40 
*END

*D_NET *210 0.0014669
*CONN
*I *2032:B1 I *D sg13g2_a21oi_1
*I *2033:C I *D sg13g2_and3_1
*I *2031:X O *D sg13g2_xor2_1
*CAP
1 *2032:B1 0.000157047
2 *2033:C 0.000276112
3 *2031:X 0.000281689
4 *210:10 0.000451763
5 *210:8 0.000300293
*RES
1 *2031:X *210:8 42.8222 
2 *210:8 *210:10 20 
3 *210:10 *2033:C 22.9355 
4 *210:10 *2032:B1 21.6171 
*END

*D_NET *211 0.000577956
*CONN
*I *2034:B I *D sg13g2_nor3_1
*I *2032:Y O *D sg13g2_a21oi_1
*CAP
1 *2034:B 0.000288978
2 *2032:Y 0.000288978
*RES
1 *2032:Y *2034:B 42.9561 
*END

*D_NET *212 0.0014449
*CONN
*I *2034:C I *D sg13g2_nor3_1
*I *2033:X O *D sg13g2_and3_1
*CAP
1 *2034:C 0.000722451
2 *2033:X 0.000722451
*RES
1 *2033:X *2034:C 47.7559 
*END

*D_NET *213 0.00175311
*CONN
*I *2037:C I *D sg13g2_and3_1
*I *2036:B1 I *D sg13g2_a21oi_1
*I *2035:X O *D sg13g2_xor2_1
*CAP
1 *2037:C 7.79798e-05
2 *2036:B1 0.00026382
3 *2035:X 0.000534753
4 *213:10 0.000876553
*RES
1 *2035:X *213:10 45.6135 
2 *213:10 *2036:B1 42.6162 
3 *213:10 *2037:C 40.5356 
*END

*D_NET *214 0.00076859
*CONN
*I *2038:B I *D sg13g2_nor3_1
*I *2036:Y O *D sg13g2_a21oi_1
*CAP
1 *2038:B 5.84456e-05
2 *2036:Y 0.000325849
3 *214:8 0.000384295
*RES
1 *2036:Y *214:8 43.3166 
2 *214:8 *2038:B 40.3193 
*END

*D_NET *215 0.000454378
*CONN
*I *2038:C I *D sg13g2_nor3_1
*I *2037:X O *D sg13g2_and3_1
*CAP
1 *2038:C 7.79798e-05
2 *2037:X 0.000149209
3 *215:8 0.000227189
*RES
1 *2037:X *215:8 41.339 
2 *215:8 *2038:C 40.5356 
*END

*D_NET *216 0.00194345
*CONN
*I *2040:B1 I *D sg13g2_a21oi_1
*I *2041:C I *D sg13g2_and3_1
*I *2039:X O *D sg13g2_xor2_1
*CAP
1 *2040:B1 2.96094e-05
2 *2041:C 0.000127129
3 *2039:X 0.000814988
4 *216:10 0.000971727
*RES
1 *2039:X *216:10 48.7653 
2 *216:10 *2041:C 41.0918 
3 *216:10 *2040:B1 40 
*END

*D_NET *217 0.000675178
*CONN
*I *2042:B I *D sg13g2_nor3_1
*I *2040:Y O *D sg13g2_a21oi_1
*CAP
1 *2042:B 7.79798e-05
2 *2040:Y 0.000259609
3 *217:8 0.000337589
*RES
1 *2040:Y *217:8 42.575 
2 *217:8 *2042:B 40.5356 
*END

*D_NET *218 0.000471914
*CONN
*I *2042:C I *D sg13g2_nor3_1
*I *2041:X O *D sg13g2_and3_1
*CAP
1 *2042:C 0.000235957
2 *2041:X 0.000235957
*RES
1 *2041:X *2042:C 42.369 
*END

*D_NET *219 0.00132521
*CONN
*I *2044:B1 I *D sg13g2_a21oi_1
*I *2045:C I *D sg13g2_and3_1
*I *2043:X O *D sg13g2_xor2_1
*CAP
1 *2044:B1 2.96094e-05
2 *2045:C 0.000127129
3 *2043:X 0.000505868
4 *219:10 0.000662606
*RES
1 *2043:X *219:10 45.3045 
2 *219:10 *2045:C 41.0918 
3 *219:10 *2044:B1 40 
*END

*D_NET *220 0.000886782
*CONN
*I *2046:B I *D sg13g2_nor3_1
*I *2044:Y O *D sg13g2_a21oi_1
*CAP
1 *2046:B 0.000443391
2 *2044:Y 0.000443391
*RES
1 *2044:Y *2046:B 44.6659 
*END

*D_NET *221 0.00059656
*CONN
*I *2046:C I *D sg13g2_nor3_1
*I *2045:X O *D sg13g2_and3_1
*CAP
1 *2046:C 0.00029828
2 *2045:X 0.00029828
*RES
1 *2045:X *2046:C 43.0591 
*END

*D_NET *222 0.00144066
*CONN
*I *2049:C I *D sg13g2_and3_1
*I *2048:B1 I *D sg13g2_a21oi_1
*I *2047:X O *D sg13g2_xor2_1
*CAP
1 *2049:C 0.000351459
2 *2048:B1 0.00013134
3 *2047:X 0.000237529
4 *222:8 0.000720328
*RES
1 *2047:X *222:8 42.3278 
2 *222:8 *2048:B1 41.133 
3 *222:8 *2049:C 43.5638 
*END

*D_NET *223 0.000586858
*CONN
*I *2050:B I *D sg13g2_nor3_1
*I *2048:Y O *D sg13g2_a21oi_1
*CAP
1 *2050:B 7.79798e-05
2 *2048:Y 0.000215449
3 *223:8 0.000293429
*RES
1 *2048:Y *223:8 42.0806 
2 *223:8 *2050:B 40.5356 
*END

*D_NET *224 0.00124583
*CONN
*I *2050:C I *D sg13g2_nor3_1
*I *2049:X O *D sg13g2_and3_1
*CAP
1 *2050:C 0.000195185
2 *2049:X 0.000427731
3 *224:10 0.000622916
*RES
1 *2049:X *224:10 44.4393 
2 *224:10 *2050:C 41.8334 
*END

*D_NET *225 0.00108367
*CONN
*I *2052:B1 I *D sg13g2_a21oi_1
*I *2053:C I *D sg13g2_and3_1
*I *2051:X O *D sg13g2_xor2_1
*CAP
1 *2052:B1 0.000116118
2 *2053:C 7.14684e-05
3 *2051:X 0.000354249
4 *225:10 0.000541836
*RES
1 *2051:X *225:10 23.8007 
2 *225:10 *2053:C 20.6695 
3 *225:10 *2052:B1 21.1639 
*END

*D_NET *226 0.00103355
*CONN
*I *2054:B I *D sg13g2_nor3_1
*I *2052:Y O *D sg13g2_a21oi_1
*CAP
1 *2054:B 5.84456e-05
2 *2052:Y 0.000458329
3 *226:8 0.000516775
*RES
1 *2052:Y *226:8 44.7998 
2 *226:8 *2054:B 40.3193 
*END

*D_NET *227 0.00103179
*CONN
*I *2054:C I *D sg13g2_nor3_1
*I *2053:X O *D sg13g2_and3_1
*CAP
1 *2054:C 9.7514e-05
2 *2053:X 0.00041838
3 *227:10 0.000515894
*RES
1 *2053:X *227:10 44.3466 
2 *227:10 *2054:C 40.7519 
*END

*D_NET *228 0.000869726
*CONN
*I *2056:B1 I *D sg13g2_a21oi_1
*I *2057:C I *D sg13g2_and3_1
*I *2055:X O *D sg13g2_xor2_1
*CAP
1 *2056:B1 0.000138443
2 *2057:C 3.98416e-05
3 *2055:X 0.000256578
4 *228:10 0.000434863
*RES
1 *2055:X *228:10 22.7192 
2 *228:10 *2057:C 20.3193 
3 *228:10 *2056:B1 21.4111 
*END

*D_NET *229 0.00068027
*CONN
*I *2058:B I *D sg13g2_nor3_1
*I *2056:Y O *D sg13g2_a21oi_1
*CAP
1 *2058:B 5.84456e-05
2 *2056:Y 0.000281689
3 *229:8 0.000340135
*RES
1 *2056:Y *229:8 42.8222 
2 *229:8 *2058:B 40.3193 
*END

*D_NET *230 0.000581766
*CONN
*I *2058:C I *D sg13g2_nor3_1
*I *2057:X O *D sg13g2_and3_1
*CAP
1 *2058:C 9.7514e-05
2 *2057:X 0.000193369
3 *230:8 0.000290883
*RES
1 *2057:X *230:8 41.8334 
2 *230:8 *2058:C 40.7519 
*END

*D_NET *231 0.0011073
*CONN
*I *2061:C I *D sg13g2_and3_1
*I *2060:B1 I *D sg13g2_a21oi_1
*I *2059:X O *D sg13g2_xor2_1
*CAP
1 *2061:C 0.000165733
2 *2060:B1 0.000304949
3 *2059:X 8.29694e-05
4 *231:8 0.000553651
*RES
1 *2059:X *231:8 40.5974 
2 *231:8 *2060:B1 43.0488 
3 *231:8 *2061:C 41.5192 
*END

*D_NET *232 0.000819808
*CONN
*I *2062:B I *D sg13g2_nor3_1
*I *2060:Y O *D sg13g2_a21oi_1
*CAP
1 *2062:B 0.000409904
2 *2060:Y 0.000409904
*RES
1 *2060:Y *2062:B 44.2951 
*END

*D_NET *233 0.000399358
*CONN
*I *2062:C I *D sg13g2_nor3_1
*I *2061:X O *D sg13g2_and3_1
*CAP
1 *2062:C 0.000199679
2 *2061:X 0.000199679
*RES
1 *2061:X *2062:C 41.9673 
*END

*D_NET *234 0.00111157
*CONN
*I *1843:C I *D sg13g2_and3_1
*I *1842:B1 I *D sg13g2_a21oi_1
*I *1841:X O *D sg13g2_xor2_1
*CAP
1 *1843:C 1.10054e-05
2 *1842:B1 0.000215649
3 *1841:X 0.000281689
4 *234:12 0.000274095
5 *234:8 0.00032913
*RES
1 *1841:X *234:8 42.8222 
2 *234:8 *234:12 20.3193 
3 *234:12 *1842:B1 22.266 
4 *234:12 *1843:C 20 
*END

*D_NET *235 0.000805994
*CONN
*I *1844:B I *D sg13g2_nor3_1
*I *1842:Y O *D sg13g2_a21oi_1
*CAP
1 *1844:B 0.000253788
2 *1842:Y 0.000149209
3 *235:8 0.000402997
*RES
1 *1842:Y *235:8 41.339 
2 *235:8 *1844:B 42.4823 
*END

*D_NET *236 0.00041531
*CONN
*I *1844:C I *D sg13g2_nor3_1
*I *1843:X O *D sg13g2_and3_1
*CAP
1 *1844:C 5.84456e-05
2 *1843:X 0.000149209
3 *236:8 0.000207655
*RES
1 *1843:X *236:8 41.339 
2 *236:8 *1844:C 40.3193 
*END

*D_NET *237 0.00230222
*CONN
*I *1847:C I *D sg13g2_and3_1
*I *1846:B1 I *D sg13g2_a21oi_1
*I *1845:X O *D sg13g2_xor2_1
*CAP
1 *1847:C 2.96094e-05
2 *1846:B1 0.00054004
3 *1845:X 0.000581459
4 *237:10 0.00115111
*RES
1 *1845:X *237:10 46.1388 
2 *237:10 *1846:B1 45.6856 
3 *237:10 *1847:C 40 
*END

*D_NET *238 0.00069388
*CONN
*I *1848:B I *D sg13g2_nor3_1
*I *1846:Y O *D sg13g2_a21oi_1
*CAP
1 *1848:B 0.000175651
2 *1846:Y 0.000171289
3 *238:8 0.00034694
*RES
1 *1846:Y *238:8 41.5862 
2 *238:8 *1848:B 41.6171 
*END

*D_NET *239 0.000586858
*CONN
*I *1848:C I *D sg13g2_nor3_1
*I *1847:X O *D sg13g2_and3_1
*CAP
1 *1848:C 7.79798e-05
2 *1847:X 0.000215449
3 *239:8 0.000293429
*RES
1 *1847:X *239:8 42.0806 
2 *239:8 *1848:C 40.5356 
*END

*D_NET *240 0.00103725
*CONN
*I *1851:C I *D sg13g2_and3_1
*I *1850:B1 I *D sg13g2_a21oi_1
*I *1849:X O *D sg13g2_xor2_1
*CAP
1 *1851:C 1.10054e-05
2 *1850:B1 0.000215649
3 *1849:X 9.10026e-05
4 *240:21 0.000211973
5 *240:8 0.00050762
*RES
1 *1849:X *240:8 20.8858 
2 *240:8 *1850:B1 22.266 
3 *240:8 *240:21 41.8334 
4 *240:21 *1851:C 20 
*END

*D_NET *241 0.00111511
*CONN
*I *1852:B I *D sg13g2_nor3_1
*I *1850:Y O *D sg13g2_a21oi_1
*CAP
1 *1852:B 0.000253788
2 *1850:Y 0.000303769
3 *241:8 0.000557557
*RES
1 *1850:Y *241:8 43.0694 
2 *241:8 *1852:B 42.4823 
*END

*D_NET *242 0.00041531
*CONN
*I *1852:C I *D sg13g2_nor3_1
*I *1851:X O *D sg13g2_and3_1
*CAP
1 *1852:C 5.84456e-05
2 *1851:X 0.000149209
3 *242:8 0.000207655
*RES
1 *1851:X *242:8 41.339 
2 *242:8 *1852:C 40.3193 
*END

*D_NET *243 0.00124776
*CONN
*I *1855:C I *D sg13g2_and3_1
*I *1854:B1 I *D sg13g2_a21oi_1
*I *1853:X O *D sg13g2_xor2_1
*CAP
1 *1855:C 0.000192488
2 *1854:B1 0.000255742
3 *1853:X 0.000175651
4 *243:8 0.000623881
*RES
1 *1853:X *243:8 41.6171 
2 *243:8 *1854:B1 42.5132 
3 *243:8 *1855:C 41.8128 
*END

*D_NET *244 0.00107604
*CONN
*I *1856:B I *D sg13g2_nor3_1
*I *1854:Y O *D sg13g2_a21oi_1
*CAP
1 *1856:B 0.000234253
2 *1854:Y 0.000303769
3 *244:8 0.000538023
*RES
1 *1854:Y *244:8 43.0694 
2 *244:8 *1856:B 42.266 
*END

*D_NET *245 0.0005614
*CONN
*I *1856:C I *D sg13g2_nor3_1
*I *1855:X O *D sg13g2_and3_1
*CAP
1 *1856:C 0.000175651
2 *1855:X 0.000105049
3 *245:8 0.0002807
*RES
1 *1855:X *245:8 40.8446 
2 *245:8 *1856:C 41.6171 
*END

*D_NET *246 0.000703848
*CONN
*I *1858:B1 I *D sg13g2_a21oi_1
*I *1859:C I *D sg13g2_and3_1
*I *1857:X O *D sg13g2_xor2_1
*CAP
1 *1858:B1 1.10054e-05
2 *1859:C 1.10054e-05
3 *1857:X 0.000137513
4 *246:16 0.000203406
5 *246:6 0.000340918
*RES
1 *1857:X *246:6 21.4008 
2 *246:6 *246:16 41.7304 
3 *246:16 *1859:C 20 
4 *246:6 *1858:B1 20 
*END

*D_NET *247 0.000399358
*CONN
*I *1860:B I *D sg13g2_nor3_1
*I *1858:Y O *D sg13g2_a21oi_1
*CAP
1 *1860:B 0.000199679
2 *1858:Y 0.000199679
*RES
1 *1858:Y *1860:B 41.9673 
*END

*D_NET *248 0.000618886
*CONN
*I *1860:C I *D sg13g2_nor3_1
*I *1859:X O *D sg13g2_and3_1
*CAP
1 *1860:C 0.000309443
2 *1859:X 0.000309443
*RES
1 *1859:X *1860:C 43.1827 
*END

*D_NET *249 0.00139866
*CONN
*I *1862:B1 I *D sg13g2_a21oi_1
*I *1863:C I *D sg13g2_and3_1
*I *1861:X O *D sg13g2_xor2_1
*CAP
1 *1862:B1 3.98416e-05
2 *1863:C 0.000138443
3 *1861:X 0.000278262
4 *249:14 0.000421067
5 *249:10 0.000521045
*RES
1 *1861:X *249:10 42.7707 
2 *249:10 *249:14 22.4823 
3 *249:14 *1863:C 21.4111 
4 *249:14 *1862:B1 20.3193 
*END

*D_NET *250 0.00068027
*CONN
*I *1864:B I *D sg13g2_nor3_1
*I *1862:Y O *D sg13g2_a21oi_1
*CAP
1 *1864:B 5.84456e-05
2 *1862:Y 0.000281689
3 *250:8 0.000340135
*RES
1 *1862:Y *250:8 42.8222 
2 *250:8 *1864:B 40.3193 
*END

*D_NET *251 0.000697601
*CONN
*I *1864:C I *D sg13g2_nor3_1
*I *1863:X O *D sg13g2_and3_1
*CAP
1 *1864:C 0.000177511
2 *1863:X 0.000171289
3 *251:8 0.000348801
*RES
1 *1863:X *251:8 41.5862 
2 *251:8 *1864:C 41.6377 
*END

*D_NET *252 0.00154063
*CONN
*I *1866:B1 I *D sg13g2_a21oi_1
*I *1867:C I *D sg13g2_and3_1
*I *1865:X O *D sg13g2_xor2_1
*CAP
1 *1866:B1 1.10054e-05
2 *1867:C 1.10054e-05
3 *1865:X 0.000215449
4 *252:22 0.000203406
5 *252:12 0.000543859
6 *252:8 0.000555903
*RES
1 *1865:X *252:8 42.0806 
2 *252:8 *252:12 23.5638 
3 *252:12 *252:22 41.7304 
4 *252:22 *1867:C 20 
5 *252:12 *1866:B1 20 
*END

*D_NET *253 0.000717674
*CONN
*I *1868:B I *D sg13g2_nor3_1
*I *1866:Y O *D sg13g2_a21oi_1
*CAP
1 *1868:B 2.96094e-05
2 *1866:Y 0.000329228
3 *253:10 0.000358837
*RES
1 *1866:Y *253:10 43.3269 
2 *253:10 *1868:B 40 
*END

*D_NET *254 0.000682138
*CONN
*I *1868:C I *D sg13g2_nor3_1
*I *1867:X O *D sg13g2_and3_1
*CAP
1 *1868:C 0.000341069
2 *1867:X 0.000341069
*RES
1 *1867:X *1868:C 43.5329 
*END

*D_NET *255 0.000659512
*CONN
*I *1870:C I *D sg13g2_nor3_1
*I *1869:Y O *D sg13g2_a22oi_1
*CAP
1 *1870:C 2.96094e-05
2 *1869:Y 0.000300147
3 *255:14 0.000329756
*RES
1 *1869:Y *255:14 43.0076 
2 *255:14 *1870:C 40 
*END

*D_NET *256 0.000815296
*CONN
*I *1872:C I *D sg13g2_nor3_1
*I *1871:Y O *D sg13g2_a22oi_1
*CAP
1 *1872:C 2.96094e-05
2 *1871:Y 0.000378039
3 *256:14 0.000407648
*RES
1 *1871:Y *256:14 43.8728 
2 *256:14 *1872:C 40 
*END

*D_NET *257 0.000487426
*CONN
*I *1874:C I *D sg13g2_nor3_1
*I *1873:Y O *D sg13g2_a22oi_1
*CAP
1 *1874:C 9.7514e-05
2 *1873:Y 0.000146199
3 *257:10 0.000243713
*RES
1 *1873:Y *257:10 41.303 
2 *257:10 *1874:C 40.7519 
*END

*D_NET *258 0.000719338
*CONN
*I *1876:C I *D sg13g2_nor3_1
*I *1875:Y O *D sg13g2_a22oi_1
*CAP
1 *1876:C 7.79798e-05
2 *1875:Y 0.000281689
3 *258:8 0.000359669
*RES
1 *1875:Y *258:8 42.8222 
2 *258:8 *1876:C 40.5356 
*END

*D_NET *259 0.00175029
*CONN
*I *1878:C I *D sg13g2_nor3_1
*I *1877:Y O *D sg13g2_a22oi_1
*CAP
1 *1878:C 0.000390527
2 *1877:Y 0.00048462
3 *259:10 0.000875147
*RES
1 *1877:Y *259:10 45.0882 
2 *259:10 *1878:C 43.9964 
*END

*D_NET *260 0.00154516
*CONN
*I *1880:C I *D sg13g2_nor3_1
*I *1879:Y O *D sg13g2_a22oi_1
*CAP
1 *1880:C 0.00026588
2 *1879:Y 0.0005067
3 *260:10 0.00077258
*RES
1 *1879:Y *260:10 45.3354 
2 *260:10 *1880:C 42.6162 
*END

*D_NET *261 0.000732948
*CONN
*I *2082:RESET_B I *D sg13g2_dfrbpq_1
*I *2128:L_HI O *D sg13g2_tiehi
*CAP
1 *2082:RESET_B 0.000195185
2 *2128:L_HI 0.000171289
3 *261:8 0.000366474
*RES
1 *2128:L_HI *261:8 41.5862 
2 *261:8 *2082:RESET_B 41.8334 
*END

*D_NET *262 0.000516564
*CONN
*I *2083:RESET_B I *D sg13g2_dfrbpq_1
*I *2129:L_HI O *D sg13g2_tiehi
*CAP
1 *2083:RESET_B 0.000258282
2 *2129:L_HI 0.000258282
*RES
1 *2129:L_HI *2083:RESET_B 42.6162 
*END

*D_NET *263 0.000602142
*CONN
*I *2084:RESET_B I *D sg13g2_dfrbpq_1
*I *2130:L_HI O *D sg13g2_tiehi
*CAP
1 *2084:RESET_B 0.000301071
2 *2130:L_HI 0.000301071
*RES
1 *2130:L_HI *2084:RESET_B 43.09 
*END

*D_NET *264 0.000498538
*CONN
*I *2085:RESET_B I *D sg13g2_dfrbpq_1
*I *2131:L_HI O *D sg13g2_tiehi
*CAP
1 *2085:RESET_B 7.79798e-05
2 *2131:L_HI 0.000171289
3 *264:8 0.000249269
*RES
1 *2131:L_HI *264:8 41.5862 
2 *264:8 *2085:RESET_B 40.5356 
*END

*D_NET *265 0.000605862
*CONN
*I *2086:RESET_B I *D sg13g2_dfrbpq_1
*I *2132:L_HI O *D sg13g2_tiehi
*CAP
1 *2086:RESET_B 0.000302931
2 *2132:L_HI 0.000302931
*RES
1 *2132:L_HI *2086:RESET_B 43.1106 
*END

*D_NET *266 0.000438426
*CONN
*I *2087:RESET_B I *D sg13g2_dfrbpq_1
*I *2133:L_HI O *D sg13g2_tiehi
*CAP
1 *2087:RESET_B 0.000219213
2 *2133:L_HI 0.000219213
*RES
1 *2133:L_HI *2087:RESET_B 42.1836 
*END

*D_NET *267 0.000688788
*CONN
*I *2088:RESET_B I *D sg13g2_dfrbpq_1
*I *2134:L_HI O *D sg13g2_tiehi
*CAP
1 *2088:RESET_B 0.000195185
2 *2134:L_HI 0.000149209
3 *267:8 0.000344394
*RES
1 *2134:L_HI *267:8 41.339 
2 *267:8 *2088:RESET_B 41.8334 
*END

*D_NET *268 0.000498538
*CONN
*I *2089:RESET_B I *D sg13g2_dfrbpq_1
*I *2135:L_HI O *D sg13g2_tiehi
*CAP
1 *2089:RESET_B 7.79798e-05
2 *2135:L_HI 0.000171289
3 *268:8 0.000249269
*RES
1 *2135:L_HI *268:8 41.5862 
2 *268:8 *2089:RESET_B 40.5356 
*END

*D_NET *269 0.000675178
*CONN
*I *2090:RESET_B I *D sg13g2_dfrbpq_1
*I *2136:L_HI O *D sg13g2_tiehi
*CAP
1 *2090:RESET_B 7.79798e-05
2 *2136:L_HI 0.000259609
3 *269:8 0.000337589
*RES
1 *2136:L_HI *269:8 42.575 
2 *269:8 *2090:RESET_B 40.5356 
*END

*D_NET *270 0.000516564
*CONN
*I *2091:RESET_B I *D sg13g2_dfrbpq_1
*I *2137:L_HI O *D sg13g2_tiehi
*CAP
1 *2091:RESET_B 0.000258282
2 *2137:L_HI 0.000258282
*RES
1 *2137:L_HI *2091:RESET_B 42.6162 
*END

*D_NET *271 0.000561212
*CONN
*I *2092:RESET_B I *D sg13g2_dfrbpq_1
*I *2138:L_HI O *D sg13g2_tiehi
*CAP
1 *2092:RESET_B 0.000280606
2 *2138:L_HI 0.000280606
*RES
1 *2138:L_HI *2092:RESET_B 42.8634 
*END

*D_NET *272 0.000438426
*CONN
*I *2093:RESET_B I *D sg13g2_dfrbpq_1
*I *2139:L_HI O *D sg13g2_tiehi
*CAP
1 *2093:RESET_B 0.000219213
2 *2139:L_HI 0.000219213
*RES
1 *2139:L_HI *2093:RESET_B 42.1836 
*END

*D_NET *273 0.00050168
*CONN
*I *2096:RESET_B I *D sg13g2_dfrbpq_1
*I *2140:L_HI O *D sg13g2_tiehi
*CAP
1 *2096:RESET_B 0.00025084
2 *2140:L_HI 0.00025084
*RES
1 *2140:L_HI *2096:RESET_B 42.5338 
*END

*D_NET *274 0.000527726
*CONN
*I *2097:RESET_B I *D sg13g2_dfrbpq_1
*I *2141:L_HI O *D sg13g2_tiehi
*CAP
1 *2097:RESET_B 0.000263863
2 *2141:L_HI 0.000263863
*RES
1 *2141:L_HI *2097:RESET_B 42.678 
*END

*D_NET *275 0.000650512
*CONN
*I *2098:RESET_B I *D sg13g2_dfrbpq_1
*I *2142:L_HI O *D sg13g2_tiehi
*CAP
1 *2098:RESET_B 0.000325256
2 *2142:L_HI 0.000325256
*RES
1 *2142:L_HI *2098:RESET_B 43.3578 
*END

*D_NET *276 0.000675178
*CONN
*I *2127:RESET_B I *D sg13g2_dfrbpq_1
*I *2143:L_HI O *D sg13g2_tiehi
*CAP
1 *2127:RESET_B 7.79798e-05
2 *2143:L_HI 0.000259609
3 *276:8 0.000337589
*RES
1 *2143:L_HI *276:8 42.575 
2 *276:8 *2127:RESET_B 40.5356 
*END

*D_NET *277 0.000498538
*CONN
*I *2063:RESET_B I *D sg13g2_dfrbpq_1
*I *2144:L_HI O *D sg13g2_tiehi
*CAP
1 *2063:RESET_B 7.79798e-05
2 *2144:L_HI 0.000171289
3 *277:8 0.000249269
*RES
1 *2144:L_HI *277:8 41.5862 
2 *277:8 *2063:RESET_B 40.5356 
*END

*D_NET *278 0.000561212
*CONN
*I *2095:RESET_B I *D sg13g2_dfrbpq_1
*I *2145:L_HI O *D sg13g2_tiehi
*CAP
1 *2095:RESET_B 0.000280606
2 *2145:L_HI 0.000280606
*RES
1 *2145:L_HI *2095:RESET_B 42.8634 
*END

*D_NET *279 0.000438426
*CONN
*I *2094:RESET_B I *D sg13g2_dfrbpq_1
*I *2146:L_HI O *D sg13g2_tiehi
*CAP
1 *2094:RESET_B 0.000219213
2 *2146:L_HI 0.000219213
*RES
1 *2146:L_HI *2094:RESET_B 42.1836 
*END

*D_NET *280 0.000483076
*CONN
*I *2099:RESET_B I *D sg13g2_dfrbpq_1
*I *2147:L_HI O *D sg13g2_tiehi
*CAP
1 *2099:RESET_B 0.000241538
2 *2147:L_HI 0.000241538
*RES
1 *2147:L_HI *2099:RESET_B 42.4308 
*END

*D_NET *281 0.000498538
*CONN
*I *2100:RESET_B I *D sg13g2_dfrbpq_1
*I *2148:L_HI O *D sg13g2_tiehi
*CAP
1 *2100:RESET_B 7.79798e-05
2 *2148:L_HI 0.000171289
3 *281:8 0.000249269
*RES
1 *2148:L_HI *281:8 41.5862 
2 *281:8 *2100:RESET_B 40.5356 
*END

*D_NET *282 0.000498538
*CONN
*I *2101:RESET_B I *D sg13g2_dfrbpq_1
*I *2149:L_HI O *D sg13g2_tiehi
*CAP
1 *2101:RESET_B 7.79798e-05
2 *2149:L_HI 0.000171289
3 *282:8 0.000249269
*RES
1 *2149:L_HI *282:8 41.5862 
2 *282:8 *2101:RESET_B 40.5356 
*END

*D_NET *283 0.000483076
*CONN
*I *2102:RESET_B I *D sg13g2_dfrbpq_1
*I *2150:L_HI O *D sg13g2_tiehi
*CAP
1 *2102:RESET_B 0.000241538
2 *2150:L_HI 0.000241538
*RES
1 *2150:L_HI *2102:RESET_B 42.4308 
*END

*D_NET *284 0.000498538
*CONN
*I *2103:RESET_B I *D sg13g2_dfrbpq_1
*I *2151:L_HI O *D sg13g2_tiehi
*CAP
1 *2103:RESET_B 7.79798e-05
2 *2151:L_HI 0.000171289
3 *284:8 0.000249269
*RES
1 *2151:L_HI *284:8 41.5862 
2 *284:8 *2103:RESET_B 40.5356 
*END

*D_NET *285 0.000498538
*CONN
*I *2104:RESET_B I *D sg13g2_dfrbpq_1
*I *2152:L_HI O *D sg13g2_tiehi
*CAP
1 *2104:RESET_B 7.79798e-05
2 *2152:L_HI 0.000171289
3 *285:8 0.000249269
*RES
1 *2152:L_HI *285:8 41.5862 
2 *285:8 *2104:RESET_B 40.5356 
*END

*D_NET *286 0.000445868
*CONN
*I *2105:RESET_B I *D sg13g2_dfrbpq_1
*I *2153:L_HI O *D sg13g2_tiehi
*CAP
1 *2105:RESET_B 0.000222934
2 *2153:L_HI 0.000222934
*RES
1 *2153:L_HI *2105:RESET_B 42.2248 
*END

*D_NET *287 0.000498538
*CONN
*I *2106:RESET_B I *D sg13g2_dfrbpq_1
*I *2154:L_HI O *D sg13g2_tiehi
*CAP
1 *2106:RESET_B 2.96094e-05
2 *2154:L_HI 0.00021966
3 *287:10 0.000249269
*RES
1 *2154:L_HI *287:10 42.1218 
2 *287:10 *2106:RESET_B 40 
*END

*D_NET *288 0.000516564
*CONN
*I *2107:RESET_B I *D sg13g2_dfrbpq_1
*I *2155:L_HI O *D sg13g2_tiehi
*CAP
1 *2107:RESET_B 0.000258282
2 *2155:L_HI 0.000258282
*RES
1 *2155:L_HI *2107:RESET_B 42.6162 
*END

*D_NET *289 0.000438426
*CONN
*I *2108:RESET_B I *D sg13g2_dfrbpq_1
*I *2156:L_HI O *D sg13g2_tiehi
*CAP
1 *2108:RESET_B 0.000219213
2 *2156:L_HI 0.000219213
*RES
1 *2156:L_HI *2108:RESET_B 42.1836 
*END

*D_NET *290 0.000445868
*CONN
*I *2109:RESET_B I *D sg13g2_dfrbpq_1
*I *2157:L_HI O *D sg13g2_tiehi
*CAP
1 *2109:RESET_B 0.000222934
2 *2157:L_HI 0.000222934
*RES
1 *2157:L_HI *2109:RESET_B 42.2248 
*END

*D_NET *291 0.000375172
*CONN
*I *2110:RESET_B I *D sg13g2_dfrbpq_1
*I *2158:L_HI O *D sg13g2_tiehi
*CAP
1 *2110:RESET_B 0.000187586
2 *2158:L_HI 0.000187586
*RES
1 *2158:L_HI *2110:RESET_B 41.8334 
*END

*D_NET *292 0.000483076
*CONN
*I *2111:RESET_B I *D sg13g2_dfrbpq_1
*I *2159:L_HI O *D sg13g2_tiehi
*CAP
1 *2111:RESET_B 0.000241538
2 *2159:L_HI 0.000241538
*RES
1 *2159:L_HI *2111:RESET_B 42.4308 
*END

*D_NET *293 0.000445868
*CONN
*I *2112:RESET_B I *D sg13g2_dfrbpq_1
*I *2160:L_HI O *D sg13g2_tiehi
*CAP
1 *2112:RESET_B 0.000222934
2 *2160:L_HI 0.000222934
*RES
1 *2160:L_HI *2112:RESET_B 42.2248 
*END

*D_NET *294 0.000498538
*CONN
*I *2113:RESET_B I *D sg13g2_dfrbpq_1
*I *2161:L_HI O *D sg13g2_tiehi
*CAP
1 *2113:RESET_B 7.79798e-05
2 *2161:L_HI 0.000171289
3 *294:8 0.000249269
*RES
1 *2161:L_HI *294:8 41.5862 
2 *294:8 *2113:RESET_B 40.5356 
*END

*D_NET *295 0.000498538
*CONN
*I *2114:RESET_B I *D sg13g2_dfrbpq_1
*I *2162:L_HI O *D sg13g2_tiehi
*CAP
1 *2114:RESET_B 7.79798e-05
2 *2162:L_HI 0.000171289
3 *295:8 0.000249269
*RES
1 *2162:L_HI *295:8 41.5862 
2 *295:8 *2114:RESET_B 40.5356 
*END

*D_NET *296 0.000375172
*CONN
*I *2115:RESET_B I *D sg13g2_dfrbpq_1
*I *2163:L_HI O *D sg13g2_tiehi
*CAP
1 *2115:RESET_B 0.000187586
2 *2163:L_HI 0.000187586
*RES
1 *2163:L_HI *2115:RESET_B 41.8334 
*END

*D_NET *297 0.000732948
*CONN
*I *2116:RESET_B I *D sg13g2_dfrbpq_1
*I *2164:L_HI O *D sg13g2_tiehi
*CAP
1 *2116:RESET_B 2.96094e-05
2 *2164:L_HI 0.000336865
3 *297:10 0.000366474
*RES
1 *2164:L_HI *297:10 43.4196 
2 *297:10 *2116:RESET_B 40 
*END

*D_NET *298 0.000375172
*CONN
*I *2117:RESET_B I *D sg13g2_dfrbpq_1
*I *2165:L_HI O *D sg13g2_tiehi
*CAP
1 *2117:RESET_B 0.000187586
2 *2165:L_HI 0.000187586
*RES
1 *2165:L_HI *2117:RESET_B 41.8334 
*END

*D_NET *299 0.000777108
*CONN
*I *2118:RESET_B I *D sg13g2_dfrbpq_1
*I *2166:L_HI O *D sg13g2_tiehi
*CAP
1 *2118:RESET_B 2.96094e-05
2 *2166:L_HI 0.000358945
3 *299:10 0.000388554
*RES
1 *2166:L_HI *299:10 43.6668 
2 *299:10 *2118:RESET_B 40 
*END

*D_NET *300 0.000498538
*CONN
*I *2119:RESET_B I *D sg13g2_dfrbpq_1
*I *2167:L_HI O *D sg13g2_tiehi
*CAP
1 *2119:RESET_B 7.79798e-05
2 *2167:L_HI 0.000171289
3 *300:8 0.000249269
*RES
1 *2167:L_HI *300:8 41.5862 
2 *300:8 *2119:RESET_B 40.5356 
*END

*D_NET *301 0.000561212
*CONN
*I *2120:RESET_B I *D sg13g2_dfrbpq_1
*I *2168:L_HI O *D sg13g2_tiehi
*CAP
1 *2120:RESET_B 0.000280606
2 *2168:L_HI 0.000280606
*RES
1 *2168:L_HI *2120:RESET_B 42.8634 
*END

*D_NET *302 0.000483076
*CONN
*I *2121:RESET_B I *D sg13g2_dfrbpq_1
*I *2169:L_HI O *D sg13g2_tiehi
*CAP
1 *2121:RESET_B 0.000241538
2 *2169:L_HI 0.000241538
*RES
1 *2169:L_HI *2121:RESET_B 42.4308 
*END

*D_NET *303 0.000527726
*CONN
*I *2122:RESET_B I *D sg13g2_dfrbpq_1
*I *2170:L_HI O *D sg13g2_tiehi
*CAP
1 *2122:RESET_B 0.000263863
2 *2170:L_HI 0.000263863
*RES
1 *2170:L_HI *2122:RESET_B 42.678 
*END

*D_NET *304 0.00074137
*CONN
*I *2123:RESET_B I *D sg13g2_dfrbpq_1
*I *2171:L_HI O *D sg13g2_tiehi
*CAP
1 *2123:RESET_B 0.000117048
2 *2171:L_HI 0.000253637
3 *304:10 0.000370685
*RES
1 *2171:L_HI *304:10 42.4926 
2 *304:10 *2123:RESET_B 40.9682 
*END

*D_NET *305 0.000498538
*CONN
*I *2124:RESET_B I *D sg13g2_dfrbpq_1
*I *2172:L_HI O *D sg13g2_tiehi
*CAP
1 *2124:RESET_B 7.79798e-05
2 *2172:L_HI 0.000171289
3 *305:8 0.000249269
*RES
1 *2172:L_HI *305:8 41.5862 
2 *305:8 *2124:RESET_B 40.5356 
*END

*D_NET *306 0.000498538
*CONN
*I *2125:RESET_B I *D sg13g2_dfrbpq_1
*I *2173:L_HI O *D sg13g2_tiehi
*CAP
1 *2125:RESET_B 2.96094e-05
2 *2173:L_HI 0.00021966
3 *306:10 0.000249269
*RES
1 *2173:L_HI *306:10 42.1218 
2 *306:10 *2125:RESET_B 40 
*END

*D_NET *307 0.000602142
*CONN
*I *2126:RESET_B I *D sg13g2_dfrbpq_1
*I *2174:L_HI O *D sg13g2_tiehi
*CAP
1 *2126:RESET_B 0.000301071
2 *2174:L_HI 0.000301071
*RES
1 *2174:L_HI *2126:RESET_B 43.09 
*END

*D_NET *308 0.000884922
*CONN
*I *2064:RESET_B I *D sg13g2_dfrbpq_1
*I *2175:L_HI O *D sg13g2_tiehi
*CAP
1 *2064:RESET_B 0.000442461
2 *2175:L_HI 0.000442461
*RES
1 *2175:L_HI *2064:RESET_B 44.6556 
*END

*D_NET *309 0.000375172
*CONN
*I *2065:RESET_B I *D sg13g2_dfrbpq_1
*I *2176:L_HI O *D sg13g2_tiehi
*CAP
1 *2065:RESET_B 0.000187586
2 *2176:L_HI 0.000187586
*RES
1 *2176:L_HI *2065:RESET_B 41.8334 
*END

*D_NET *310 0.000483076
*CONN
*I *2066:RESET_B I *D sg13g2_dfrbpq_1
*I *2177:L_HI O *D sg13g2_tiehi
*CAP
1 *2066:RESET_B 0.000241538
2 *2177:L_HI 0.000241538
*RES
1 *2177:L_HI *2066:RESET_B 42.4308 
*END

*D_NET *311 0.00045331
*CONN
*I *2067:RESET_B I *D sg13g2_dfrbpq_1
*I *2178:L_HI O *D sg13g2_tiehi
*CAP
1 *2067:RESET_B 0.000226655
2 *2178:L_HI 0.000226655
*RES
1 *2178:L_HI *2067:RESET_B 42.266 
*END

*D_NET *312 0.000498538
*CONN
*I *2068:RESET_B I *D sg13g2_dfrbpq_1
*I *2179:L_HI O *D sg13g2_tiehi
*CAP
1 *2068:RESET_B 7.79798e-05
2 *2179:L_HI 0.000171289
3 *312:8 0.000249269
*RES
1 *2179:L_HI *312:8 41.5862 
2 *312:8 *2068:RESET_B 40.5356 
*END

*D_NET *313 0.000795713
*CONN
*I *2069:RESET_B I *D sg13g2_dfrbpq_1
*I *2180:L_HI O *D sg13g2_tiehi
*CAP
1 *2069:RESET_B 0.000156117
2 *2180:L_HI 0.00024174
3 *313:10 0.000397856
*RES
1 *2180:L_HI *313:10 42.369 
2 *313:10 *2069:RESET_B 41.4008 
*END

*D_NET *314 0.000498538
*CONN
*I *2070:RESET_B I *D sg13g2_dfrbpq_1
*I *2181:L_HI O *D sg13g2_tiehi
*CAP
1 *2070:RESET_B 7.79798e-05
2 *2181:L_HI 0.000171289
3 *314:8 0.000249269
*RES
1 *2181:L_HI *314:8 41.5862 
2 *314:8 *2070:RESET_B 40.5356 
*END

*D_NET *315 0.00045331
*CONN
*I *2071:RESET_B I *D sg13g2_dfrbpq_1
*I *2182:L_HI O *D sg13g2_tiehi
*CAP
1 *2071:RESET_B 0.000226655
2 *2182:L_HI 0.000226655
*RES
1 *2182:L_HI *2071:RESET_B 42.266 
*END

*D_NET *316 0.000445868
*CONN
*I *2072:RESET_B I *D sg13g2_dfrbpq_1
*I *2183:L_HI O *D sg13g2_tiehi
*CAP
1 *2072:RESET_B 0.000222934
2 *2183:L_HI 0.000222934
*RES
1 *2183:L_HI *2072:RESET_B 42.2248 
*END

*D_NET *317 0.000498538
*CONN
*I *2073:RESET_B I *D sg13g2_dfrbpq_1
*I *2184:L_HI O *D sg13g2_tiehi
*CAP
1 *2073:RESET_B 2.96094e-05
2 *2184:L_HI 0.00021966
3 *317:10 0.000249269
*RES
1 *2184:L_HI *317:10 42.1218 
2 *317:10 *2073:RESET_B 40 
*END

*D_NET *318 0.000427264
*CONN
*I *2074:RESET_B I *D sg13g2_dfrbpq_1
*I *2185:L_HI O *D sg13g2_tiehi
*CAP
1 *2074:RESET_B 0.000213632
2 *2185:L_HI 0.000213632
*RES
1 *2185:L_HI *2074:RESET_B 42.1218 
*END

*D_NET *319 0.000445868
*CONN
*I *2075:RESET_B I *D sg13g2_dfrbpq_1
*I *2186:L_HI O *D sg13g2_tiehi
*CAP
1 *2075:RESET_B 0.000222934
2 *2186:L_HI 0.000222934
*RES
1 *2186:L_HI *2075:RESET_B 42.2248 
*END

*D_NET *320 0.000602142
*CONN
*I *2076:RESET_B I *D sg13g2_dfrbpq_1
*I *2187:L_HI O *D sg13g2_tiehi
*CAP
1 *2076:RESET_B 0.000301071
2 *2187:L_HI 0.000301071
*RES
1 *2187:L_HI *2076:RESET_B 43.09 
*END

*D_NET *321 0.000498538
*CONN
*I *2077:RESET_B I *D sg13g2_dfrbpq_1
*I *2188:L_HI O *D sg13g2_tiehi
*CAP
1 *2077:RESET_B 7.79798e-05
2 *2188:L_HI 0.000171289
3 *321:8 0.000249269
*RES
1 *2188:L_HI *321:8 41.5862 
2 *321:8 *2077:RESET_B 40.5356 
*END

*D_NET *322 0.000542608
*CONN
*I *2078:RESET_B I *D sg13g2_dfrbpq_1
*I *2189:L_HI O *D sg13g2_tiehi
*CAP
1 *2078:RESET_B 0.000271304
2 *2189:L_HI 0.000271304
*RES
1 *2189:L_HI *2078:RESET_B 42.7604 
*END

*D_NET *323 0.000375172
*CONN
*I *2079:RESET_B I *D sg13g2_dfrbpq_1
*I *2190:L_HI O *D sg13g2_tiehi
*CAP
1 *2079:RESET_B 0.000187586
2 *2190:L_HI 0.000187586
*RES
1 *2190:L_HI *2079:RESET_B 41.8334 
*END

*D_NET *324 0.000750974
*CONN
*I *2080:RESET_B I *D sg13g2_dfrbpq_1
*I *2191:L_HI O *D sg13g2_tiehi
*CAP
1 *2080:RESET_B 0.000375487
2 *2191:L_HI 0.000375487
*RES
1 *2191:L_HI *2080:RESET_B 43.914 
*END

*D_NET *325 0.000896084
*CONN
*I *2081:RESET_B I *D sg13g2_dfrbpq_1
*I *2192:L_HI O *D sg13g2_tiehi
*CAP
1 *2081:RESET_B 0.000448042
2 *2192:L_HI 0.000448042
*RES
1 *2192:L_HI *2081:RESET_B 44.7174 
*END

*D_NET *326 0.00315641
*CONN
*I *1963:B1 I *D sg13g2_a22oi_1
*I *1952:A I *D sg13g2_nor2_1
*I *1953:A I *D sg13g2_xnor2_1
*I *2096:Q O *D sg13g2_dfrbpq_1
*CAP
1 *1963:B1 1.10054e-05
2 *1952:A 0.000227742
3 *1953:A 0.000200126
4 *2096:Q 2.96094e-05
5 *326:21 0.000257351
6 *326:8 0.00130985
7 *326:6 0.00112073
*RES
1 *2096:Q *326:6 40 
2 *326:6 *326:8 12.2158 
3 *326:8 *1953:A 41.9055 
4 *326:8 *326:21 20 
5 *326:21 *1952:A 22.3999 
6 *326:21 *1963:B1 20 
*END

*D_NET *327 0.00131711
*CONN
*I *1923:B1 I *D sg13g2_a22oi_1
*I *1924:A I *D sg13g2_nor2_1
*I *2051:A I *D sg13g2_xor2_1
*I *2106:Q O *D sg13g2_dfrbpq_1
*CAP
1 *1923:B1 2.96094e-05
2 *1924:A 0.000178046
3 *2051:A 2.96094e-05
4 *2106:Q 0.000273171
5 *327:21 0.000355775
6 *327:10 0.0004509
*RES
1 *2106:Q *327:10 42.7089 
2 *327:10 *2051:A 40 
3 *327:10 *327:21 1.6583 
4 *327:21 *1924:A 41.6583 
5 *327:21 *1923:B1 40 
*END

*D_NET *328 0.00186833
*CONN
*I *1920:B1 I *D sg13g2_a22oi_1
*I *2047:A I *D sg13g2_xor2_1
*I *1921:A I *D sg13g2_nor2_1
*I *2107:Q O *D sg13g2_dfrbpq_1
*CAP
1 *1920:B1 5.84456e-05
2 *2047:A 0.0002859
3 *1921:A 2.96094e-05
4 *2107:Q 0.000383571
5 *328:23 0.000520985
6 *328:10 0.00058982
*RES
1 *2107:Q *328:10 43.9449 
2 *328:10 *1921:A 40 
3 *328:10 *328:23 1.9776 
4 *328:23 *2047:A 42.8634 
5 *328:23 *1920:B1 40.3193 
*END

*D_NET *329 0.00267222
*CONN
*I *1917:B1 I *D sg13g2_a22oi_1
*I *1918:A I *D sg13g2_nor2_1
*I *2043:A I *D sg13g2_xor2_1
*I *2108:Q O *D sg13g2_dfrbpq_1
*CAP
1 *1917:B1 1.10054e-05
2 *1918:A 0.000227742
3 *2043:A 0.000266366
4 *2108:Q 0.000764022
5 *329:25 0.000305722
6 *329:10 0.00109736
*RES
1 *2108:Q *329:10 48.2091 
2 *329:10 *2043:A 42.6471 
3 *329:10 *329:25 20.5356 
4 *329:25 *1918:A 22.3999 
5 *329:25 *1917:B1 20 
*END

*D_NET *330 0.00243766
*CONN
*I *1915:A I *D sg13g2_nor2_1
*I *2039:A I *D sg13g2_xor2_1
*I *1914:B1 I *D sg13g2_a22oi_1
*I *2109:Q O *D sg13g2_dfrbpq_1
*CAP
1 *1915:A 0.00019472
2 *2039:A 1.10054e-05
3 *1914:B1 0.000249137
4 *2109:Q 0.000392089
5 *330:22 0.000632022
6 *330:8 0.000958689
*RES
1 *2109:Q *330:8 44.0582 
2 *330:8 *330:22 23.9346 
3 *330:22 *1914:B1 22.6368 
4 *330:22 *2039:A 20 
5 *330:8 *1915:A 41.8283 
*END

*D_NET *331 0.00294707
*CONN
*I *1912:A I *D sg13g2_nor2_1
*I *2035:A I *D sg13g2_xor2_1
*I *1911:B1 I *D sg13g2_a22oi_1
*I *2110:Q O *D sg13g2_dfrbpq_1
*CAP
1 *1912:A 2.96094e-05
2 *2035:A 0.000352389
3 *1911:B1 1.10054e-05
4 *2110:Q 0.000913491
5 *331:16 0.000530434
6 *331:10 0.00111014
*RES
1 *2110:Q *331:10 49.8777 
2 *331:10 *331:16 21.6583 
3 *331:16 *1911:B1 20 
4 *331:16 *2035:A 23.7801 
5 *331:10 *1912:A 40 
*END

*D_NET *332 0.00259341
*CONN
*I *2031:A I *D sg13g2_xor2_1
*I *1908:B1 I *D sg13g2_a22oi_1
*I *1909:A I *D sg13g2_nor2_1
*I *2111:Q O *D sg13g2_dfrbpq_1
*CAP
1 *2031:A 3.98416e-05
2 *1908:B1 1.10054e-05
3 *1909:A 0.000250067
4 *2111:Q 0.000811609
5 *332:12 0.000426648
6 *332:10 0.000224021
7 *332:8 0.000830213
*RES
1 *2111:Q *332:8 48.755 
2 *332:8 *332:10 20 
3 *332:10 *332:12 1.8334 
4 *332:12 *1909:A 22.6471 
5 *332:12 *1908:B1 20 
6 *332:10 *2031:A 20.3193 
*END

*D_NET *333 0.00275995
*CONN
*I *1906:A I *D sg13g2_nor2_1
*I *2027:A I *D sg13g2_xor2_1
*I *1905:B1 I *D sg13g2_a22oi_1
*I *2112:Q O *D sg13g2_dfrbpq_1
*CAP
1 *1906:A 1.10054e-05
2 *2027:A 1.10054e-05
3 *1905:B1 1.10054e-05
4 *2112:Q 0.000480409
5 *333:32 0.00024502
6 *333:22 0.000537103
7 *333:12 0.000643541
8 *333:8 0.000820863
*RES
1 *2112:Q *333:8 45.047 
2 *333:8 *333:12 23.5638 
3 *333:12 *333:22 3.2342 
4 *333:22 *333:32 42.1939 
5 *333:32 *1905:B1 20 
6 *333:22 *2027:A 20 
7 *333:12 *1906:A 20 
*END

*D_NET *334 0.00176914
*CONN
*I *2023:A I *D sg13g2_xor2_1
*I *1902:B1 I *D sg13g2_a22oi_1
*I *1903:A I *D sg13g2_nor2_1
*I *2113:Q O *D sg13g2_dfrbpq_1
*CAP
1 *2023:A 0.000132862
2 *1902:B1 9.7514e-05
3 *1903:A 0.000253637
4 *2113:Q 1.10054e-05
5 *334:10 0.000740704
6 *334:4 0.000533421
*RES
1 *2113:Q *334:4 20 
2 *334:4 *334:10 24.1303 
3 *334:10 *1903:A 42.4926 
4 *334:10 *1902:B1 40.7519 
5 *334:4 *2023:A 21.3493 
*END

*D_NET *335 0.00164568
*CONN
*I *2019:A I *D sg13g2_xor2_1
*I *1900:A I *D sg13g2_nor2_1
*I *1899:B1 I *D sg13g2_a22oi_1
*I *2114:Q O *D sg13g2_dfrbpq_1
*CAP
1 *2019:A 0.000132862
2 *1900:A 0.000157047
3 *1899:B1 0.000254718
4 *2114:Q 1.10054e-05
5 *335:10 0.000678973
6 *335:4 0.000411075
*RES
1 *2114:Q *335:4 20 
2 *335:4 *335:10 42.575 
3 *335:10 *1899:B1 22.6986 
4 *335:10 *1900:A 21.6171 
5 *335:4 *2019:A 21.3493 
*END

*D_NET *336 0.00196958
*CONN
*I *2015:A I *D sg13g2_xor2_1
*I *1897:A I *D sg13g2_nor2_1
*I *1896:B1 I *D sg13g2_a22oi_1
*I *2115:Q O *D sg13g2_dfrbpq_1
*CAP
1 *2015:A 0.000215649
2 *1897:A 1.10054e-05
3 *1896:B1 1.10054e-05
4 *2115:Q 0.000502489
5 *336:21 0.000452693
6 *336:10 0.000255648
7 *336:8 0.000521093
*RES
1 *2115:Q *336:8 45.2942 
2 *336:8 *336:10 20 
3 *336:10 *1896:B1 20 
4 *336:10 *336:21 2.5029 
5 *336:21 *1897:A 20 
6 *336:21 *2015:A 22.266 
*END

*D_NET *337 0.00342408
*CONN
*I *1865:A I *D sg13g2_xor2_1
*I *1960:B1 I *D sg13g2_a22oi_1
*I *1961:A I *D sg13g2_nor2_1
*I *2097:Q O *D sg13g2_dfrbpq_1
*CAP
1 *1865:A 6.93755e-05
2 *1960:B1 1.10054e-05
3 *1961:A 7.79798e-05
4 *2097:Q 0.000214719
5 *337:37 0.000242474
6 *337:27 0.000604259
7 *337:10 0.00118547
8 *337:8 0.0010188
*RES
1 *2097:Q *337:8 42.0497 
2 *337:8 *337:10 9.0022 
3 *337:10 *1961:A 40.5356 
4 *337:10 *337:27 23.1827 
5 *337:27 *337:37 42.163 
6 *337:37 *1960:B1 20 
7 *337:27 *1865:A 20.6463 
*END

*D_NET *338 0.0012827
*CONN
*I *1893:B1 I *D sg13g2_a22oi_1
*I *2011:A I *D sg13g2_xor2_1
*I *1894:A I *D sg13g2_nor2_1
*I *2116:Q O *D sg13g2_dfrbpq_1
*CAP
1 *1893:B1 1.10054e-05
2 *2011:A 1.10054e-05
3 *1894:A 1.10054e-05
4 *2116:Q 0.000149209
5 *338:31 0.00019665
6 *338:23 0.000422688
7 *338:12 0.000284484
8 *338:8 0.00019665
*RES
1 *2116:Q *338:8 41.339 
2 *338:8 *338:12 20.3193 
3 *338:12 *1894:A 20 
4 *338:12 *338:23 2.5029 
5 *338:23 *338:31 41.6583 
6 *338:31 *2011:A 20 
7 *338:23 *1893:B1 20 
*END

*D_NET *339 0.00143671
*CONN
*I *1891:A I *D sg13g2_nor2_1
*I *2007:A I *D sg13g2_xor2_1
*I *1890:B1 I *D sg13g2_a22oi_1
*I *2117:Q O *D sg13g2_dfrbpq_1
*CAP
1 *1891:A 2.96094e-05
2 *2007:A 2.96094e-05
3 *1890:B1 0.000178046
4 *2117:Q 0.000295251
5 *339:12 0.000393495
6 *339:10 0.0005107
*RES
1 *2117:Q *339:10 42.9561 
2 *339:10 *339:12 2.0806 
3 *339:12 *1890:B1 41.6583 
4 *339:12 *2007:A 40 
5 *339:10 *1891:A 40 
*END

*D_NET *340 0.00200248
*CONN
*I *2003:A I *D sg13g2_xor2_1
*I *1887:B1 I *D sg13g2_a22oi_1
*I *1888:A I *D sg13g2_nor2_1
*I *2118:Q O *D sg13g2_dfrbpq_1
*CAP
1 *2003:A 1.10054e-05
2 *1887:B1 1.10054e-05
3 *1888:A 0.000137513
4 *2118:Q 0.000471891
5 *340:29 0.000313855
6 *340:14 0.000488732
7 *340:12 7.79798e-05
8 *340:10 0.000490495
*RES
1 *2118:Q *340:10 44.9337 
2 *340:10 *340:12 20 
3 *340:12 *340:14 0.5356 
4 *340:14 *1888:A 21.4008 
5 *340:14 *340:29 42.9561 
6 *340:29 *1887:B1 20 
7 *340:12 *2003:A 20 
*END

*D_NET *341 0.00201374
*CONN
*I *1884:B1 I *D sg13g2_a22oi_1
*I *1885:A I *D sg13g2_nor2_1
*I *1999:A I *D sg13g2_xor2_1
*I *2119:Q O *D sg13g2_dfrbpq_1
*CAP
1 *1884:B1 0.000136582
2 *1885:A 0.000347738
3 *1999:A 9.84442e-05
4 *2119:Q 0.00019758
5 *341:14 0.000672706
6 *341:10 0.000560686
*RES
1 *2119:Q *341:10 41.8746 
2 *341:10 *341:14 22.3278 
3 *341:14 *1999:A 20.9682 
4 *341:14 *1885:A 23.7286 
5 *341:10 *1884:B1 41.1845 
*END

*D_NET *342 0.00213148
*CONN
*I *1881:B1 I *D sg13g2_a22oi_1
*I *1882:A I *D sg13g2_nor2_1
*I *1995:A I *D sg13g2_xor2_1
*I *2120:Q O *D sg13g2_dfrbpq_1
*CAP
1 *1881:B1 2.96094e-05
2 *1882:A 0.000287275
3 *1995:A 0.000111489
4 *2120:Q 0.000473604
5 *342:12 0.000562524
6 *342:10 0.000666974
*RES
1 *2120:Q *342:10 44.9337 
2 *342:10 *342:12 1.8334 
3 *342:12 *1995:A 40.9167 
4 *342:12 *1882:A 42.8531 
5 *342:10 *1881:B1 40 
*END

*D_NET *343 0.00196067
*CONN
*I *1992:A I *D sg13g2_xnor2_1
*I *1879:B1 I *D sg13g2_a22oi_1
*I *1991:A I *D sg13g2_nor2_1
*I *2121:Q O *D sg13g2_dfrbpq_1
*CAP
1 *1992:A 1.10054e-05
2 *1879:B1 0.000393318
3 *1991:A 0.000193369
4 *2121:Q 0.000364037
5 *343:21 0.000422927
6 *343:10 0.00057601
*RES
1 *2121:Q *343:10 43.7286 
2 *343:10 *1991:A 41.8334 
3 *343:10 *343:21 20 
4 *343:21 *1879:B1 24.2333 
5 *343:21 *1992:A 20 
*END

*D_NET *344 0.00182642
*CONN
*I *1986:A I *D sg13g2_nor2_1
*I *1987:A I *D sg13g2_xnor2_1
*I *1877:B1 I *D sg13g2_a22oi_1
*I *2122:Q O *D sg13g2_dfrbpq_1
*CAP
1 *1986:A 0.000214719
2 *1987:A 1.10054e-05
3 *1877:B1 0.000237044
4 *2122:Q 0.000127129
5 *344:14 0.000571363
6 *344:8 0.000665162
*RES
1 *2122:Q *344:8 41.0918 
2 *344:8 *344:14 23.3887 
3 *344:14 *1877:B1 22.5029 
4 *344:14 *1987:A 20 
5 *344:8 *1986:A 42.0497 
*END

*D_NET *345 0.00194902
*CONN
*I *1981:A I *D sg13g2_nor2_1
*I *1982:A I *D sg13g2_xnor2_1
*I *1875:B1 I *D sg13g2_a22oi_1
*I *2123:Q O *D sg13g2_dfrbpq_1
*CAP
1 *1981:A 1.10054e-05
2 *1982:A 1.10054e-05
3 *1875:B1 1.10054e-05
4 *2123:Q 6.4957e-05
5 *345:36 0.000509148
6 *345:16 0.00026289
7 *345:8 0.000389397
8 *345:6 0.000689607
*RES
1 *2123:Q *345:6 20.5974 
2 *345:6 *345:8 1.4008 
3 *345:8 *345:16 42.3999 
4 *345:16 *1875:B1 20 
5 *345:8 *1982:A 20 
6 *345:6 *345:36 45.1294 
7 *345:36 *1981:A 20 
*END

*D_NET *346 0.00131036
*CONN
*I *1977:A I *D sg13g2_xnor2_1
*I *1976:A I *D sg13g2_nor2_1
*I *1873:B1 I *D sg13g2_a22oi_1
*I *2124:Q O *D sg13g2_dfrbpq_1
*CAP
1 *1977:A 1.10054e-05
2 *1976:A 0.000149209
3 *1873:B1 0.000243969
4 *2124:Q 0.000232393
5 *346:14 0.000411783
6 *346:12 0.000262002
*RES
1 *2124:Q *346:12 22.4514 
2 *346:12 *346:14 20 
3 *346:14 *1873:B1 42.3999 
4 *346:14 *1976:A 41.339 
5 *346:12 *1977:A 20 
*END

*D_NET *347 0.00296684
*CONN
*I *1972:A I *D sg13g2_xnor2_1
*I *1871:B1 I *D sg13g2_a22oi_1
*I *1971:A I *D sg13g2_nor2_1
*I *2125:Q O *D sg13g2_dfrbpq_1
*CAP
1 *1972:A 1.10054e-05
2 *1871:B1 2.96094e-05
3 *1971:A 0.000510959
4 *2125:Q 0.000496517
5 *347:24 0.000957294
6 *347:12 0.000446335
7 *347:10 0.000515121
*RES
1 *2125:Q *347:10 45.2118 
2 *347:10 *347:12 20 
3 *347:12 *347:24 24.4393 
4 *347:24 *1971:A 45.3663 
5 *347:24 *1871:B1 40 
6 *347:12 *1972:A 20 
*END

*D_NET *348 0.00392997
*CONN
*I *1958:A I *D sg13g2_nor2_1
*I *1957:B1 I *D sg13g2_a22oi_1
*I *1861:A I *D sg13g2_xor2_1
*I *2098:Q O *D sg13g2_dfrbpq_1
*CAP
1 *1958:A 7.79798e-05
2 *1957:B1 6.56547e-05
3 *1861:A 0.00021966
4 *2098:Q 2.96094e-05
5 *348:35 0.00038149
6 *348:29 0.000582162
7 *348:10 0.000539347
8 *348:8 0.0010679
9 *348:6 0.000966169
*RES
1 *2098:Q *348:6 40 
2 *348:6 *348:8 10.4854 
3 *348:8 *348:10 0.5974 
4 *348:10 *1861:A 42.1218 
5 *348:10 *348:29 42.5544 
6 *348:29 *348:35 43.1312 
7 *348:35 *1957:B1 40.3991 
8 *348:8 *1958:A 40.5356 
*END

*D_NET *349 0.00140313
*CONN
*I *1967:A I *D sg13g2_xnor2_1
*I *1869:B1 I *D sg13g2_a22oi_1
*I *1966:A I *D sg13g2_nor2_1
*I *2126:Q O *D sg13g2_dfrbpq_1
*CAP
1 *1967:A 0.000149209
2 *1869:B1 3.98416e-05
3 *1966:A 0.000176581
4 *2126:Q 0.000175651
5 *349:12 0.000376707
6 *349:8 0.000485144
*RES
1 *2126:Q *349:8 41.6171 
2 *349:8 *349:12 21.5862 
3 *349:12 *1966:A 21.8334 
4 *349:12 *1869:B1 20.3193 
5 *349:8 *1967:A 41.339 
*END

*D_NET *350 0.000805378
*CONN
*I *1948:B1 I *D sg13g2_a21oi_1
*I *1947:C I *D sg13g2_and3_1
*I *2127:Q O *D sg13g2_dfrbpq_1
*CAP
1 *1948:B1 0.0001755
2 *1947:C 7.79798e-05
3 *2127:Q 0.000149209
4 *350:8 0.000402689
*RES
1 *2127:Q *350:8 41.339 
2 *350:8 *1947:C 40.5356 
3 *350:8 *1948:B1 41.6274 
*END

*D_NET *351 0.00283985
*CONN
*I *1945:A I *D sg13g2_nor2_1
*I *1944:B1 I *D sg13g2_a22oi_1
*I *1857:A I *D sg13g2_xor2_1
*I *2099:Q O *D sg13g2_dfrbpq_1
*CAP
1 *1945:A 1.10054e-05
2 *1944:B1 1.10054e-05
3 *1857:A 3.98416e-05
4 *2099:Q 2.96094e-05
5 *351:32 0.00019665
6 *351:19 0.000362225
7 *351:10 0.00118266
8 *351:6 0.00100685
*RES
1 *2099:Q *351:6 40 
2 *351:6 *351:10 30.7326 
3 *351:10 *1857:A 20.3193 
4 *351:10 *351:19 1.8334 
5 *351:19 *1944:B1 20 
6 *351:19 *351:32 41.6583 
7 *351:32 *1945:A 20 
*END

*D_NET *352 0.00126861
*CONN
*I *1853:A I *D sg13g2_xor2_1
*I *1941:B1 I *D sg13g2_a22oi_1
*I *1942:A I *D sg13g2_nor2_1
*I *2100:Q O *D sg13g2_dfrbpq_1
*CAP
1 *1853:A 0.000132862
2 *1941:B1 1.10054e-05
3 *1942:A 1.10054e-05
4 *2100:Q 1.10054e-05
5 *352:20 0.000276647
6 *352:8 0.00047943
7 *352:4 0.000346651
*RES
1 *2100:Q *352:4 20 
2 *352:4 *352:8 2.2454 
3 *352:8 *352:20 42.5441 
4 *352:20 *1942:A 20 
5 *352:8 *1941:B1 20 
6 *352:4 *1853:A 21.3493 
*END

*D_NET *353 0.00142009
*CONN
*I *1849:A I *D sg13g2_xor2_1
*I *1938:B1 I *D sg13g2_a22oi_1
*I *1939:A I *D sg13g2_nor2_1
*I *2101:Q O *D sg13g2_dfrbpq_1
*CAP
1 *1849:A 9.37932e-05
2 *1938:B1 0.000215649
3 *1939:A 0.000210998
4 *2101:Q 1.10054e-05
5 *353:10 0.000605246
6 *353:4 0.000283397
*RES
1 *2101:Q *353:4 20 
2 *353:4 *353:10 1.9776 
3 *353:10 *1939:A 22.2145 
4 *353:10 *1938:B1 22.266 
5 *353:4 *1849:A 20.9167 
*END

*D_NET *354 0.00285129
*CONN
*I *1936:A I *D sg13g2_nor2_1
*I *1935:B1 I *D sg13g2_a22oi_1
*I *1845:A I *D sg13g2_xor2_1
*I *2102:Q O *D sg13g2_dfrbpq_1
*CAP
1 *1936:A 5.84456e-05
2 *1935:B1 1.10054e-05
3 *1845:A 3.98416e-05
4 *2102:Q 0.000855769
5 *354:27 0.000167813
6 *354:14 0.000500429
7 *354:8 0.00121799
*RES
1 *2102:Q *354:8 49.2494 
2 *354:8 *354:14 23.1724 
3 *354:14 *1845:A 20.3193 
4 *354:14 *354:27 41.339 
5 *354:27 *1935:B1 20 
6 *354:8 *1936:A 40.3193 
*END

*D_NET *355 0.00154706
*CONN
*I *1932:B1 I *D sg13g2_a22oi_1
*I *1841:A I *D sg13g2_xor2_1
*I *1933:A I *D sg13g2_nor2_1
*I *2103:Q O *D sg13g2_dfrbpq_1
*CAP
1 *1932:B1 0.000231557
2 *1841:A 9.7514e-05
3 *1933:A 0.000339411
4 *2103:Q 2.96094e-05
5 *355:19 0.000404511
6 *355:6 0.00044446
*RES
1 *2103:Q *355:6 40 
2 *355:6 *1933:A 43.4505 
3 *355:6 *355:19 0.8446 
4 *355:19 *1841:A 40.7519 
5 *355:19 *1932:B1 42.2454 
*END

*D_NET *356 0.00125155
*CONN
*I *2059:A I *D sg13g2_xor2_1
*I *1930:A I *D sg13g2_nor2_1
*I *1929:B1 I *D sg13g2_a22oi_1
*I *2104:Q O *D sg13g2_dfrbpq_1
*CAP
1 *2059:A 0.000132862
2 *1930:A 1.10054e-05
3 *1929:B1 0.000168052
4 *2104:Q 0.000179058
5 *356:24 0.000313855
6 *356:16 0.000446716
*RES
1 *2104:Q *1929:B1 41.6171 
2 *2104:Q *356:16 20 
3 *356:16 *356:24 42.9561 
4 *356:24 *1930:A 20 
5 *356:16 *2059:A 21.3493 
*END

*D_NET *357 0.0012973
*CONN
*I *2055:A I *D sg13g2_xor2_1
*I *1926:B1 I *D sg13g2_a22oi_1
*I *1927:A I *D sg13g2_nor2_1
*I *2105:Q O *D sg13g2_dfrbpq_1
*CAP
1 *2055:A 5.93758e-05
2 *1926:B1 1.10054e-05
3 *1927:A 0.000237044
4 *2105:Q 0.000152396
5 *357:12 0.00043688
6 *357:8 0.000400602
*RES
1 *2105:Q *357:8 21.5656 
2 *357:8 *357:12 2.0909 
3 *357:12 *1927:A 22.5029 
4 *357:12 *1926:B1 20 
5 *357:8 *2055:A 20.5356 
*END

*D_NET *1 0.00745717
*CONN
*P clk I
*I *2193:A I *D sg13g2_buf_16
*CAP
1 clk 0.000139326
2 *2193:A 2.96094e-05
3 *1:16 0.000476729
4 *1:12 0.00355965
5 *1:10 0.00325186
*RES
1 clk *1:10 41.133 
2 *1:10 *1:12 34.9273 
3 *1:12 *1:16 24.7998 
4 *1:16 *2193:A 40 
*END

*D_NET *358 0.0357935
*CONN
*I *2198:A I *D sg13g2_buf_4
*I *2206:A I *D sg13g2_buf_4
*I *2205:A I *D sg13g2_buf_4
*I *2204:A I *D sg13g2_buf_4
*I *2207:A I *D sg13g2_buf_4
*I *2197:A I *D sg13g2_buf_4
*I *2200:A I *D sg13g2_buf_4
*I *2199:A I *D sg13g2_buf_4
*I *2196:A I *D sg13g2_buf_4
*I *2195:A I *D sg13g2_buf_4
*I *2208:A I *D sg13g2_buf_4
*I *2209:A I *D sg13g2_buf_4
*I *2203:A I *D sg13g2_buf_4
*I *2194:A I *D sg13g2_buf_4
*I *2201:A I *D sg13g2_buf_4
*I *2202:A I *D sg13g2_buf_4
*I *2193:X O *D sg13g2_buf_16
*CAP
1 *2198:A 9.84442e-05
2 *2206:A 2.96094e-05
3 *2205:A 2.96094e-05
4 *2204:A 0.000117978
5 *2207:A 1.10054e-05
6 *2197:A 1.10054e-05
7 *2200:A 0.000152396
8 *2199:A 9.7514e-05
9 *2196:A 9.7514e-05
10 *2195:A 0.00017193
11 *2208:A 0.000117978
12 *2209:A 0.000117978
13 *2203:A 1.10054e-05
14 *2194:A 0.000117048
15 *2201:A 9.84442e-05
16 *2202:A 0.000154256
17 *2193:X 0.000195958
18 *358:328 0.000165419
19 *358:324 0.000422503
20 *358:292 0.000828549
21 *358:286 0.0020705
22 *358:282 0.00149521
23 *358:271 0.000258835
24 *358:264 0.000192394
25 *358:260 0.000174878
26 *358:255 0.000106043
27 *358:251 9.4044e-05
28 *358:249 0.00165341
29 *358:243 0.002049
30 *358:236 0.000252084
31 *358:229 0.000166349
32 *358:216 0.000803532
33 *358:198 0.00221841
34 *358:189 0.00151813
35 *358:187 0.000115345
36 *358:183 0.00135913
37 *358:174 0.00135892
38 *358:172 0.000115914
39 *358:152 0.000239194
40 *358:138 0.000238904
41 *358:134 0.00176345
42 *358:122 0.000417503
43 *358:116 0.00216917
44 *358:102 0.000166349
45 *358:100 0.00121645
46 *358:70 0.000324968
47 *358:66 0.0018949
48 *358:48 0.000339366
49 *358:46 0.00210719
50 *358:33 0.000458193
51 *358:31 0.000205417
52 *358:27 0.00113513
53 *358:21 0.00292601
54 *358:6 0.00114306
*RES
1 *2193:X *358:6 20.9682 
2 *358:6 *358:21 31.3609 
3 *358:21 *358:27 31.2991 
4 *358:27 *358:31 1.1845 
5 *358:31 *358:33 0.9682 
6 *358:33 *358:46 43.708 
7 *358:46 *358:48 2.0497 
8 *358:48 *2202:A 21.5862 
9 *358:46 *358:66 37.1598 
10 *358:66 *358:70 22.3278 
11 *358:70 *2201:A 20.9682 
12 *358:66 *2194:A 40.9682 
13 *358:31 *2203:A 20 
14 *358:21 *358:100 29.3215 
15 *358:100 *358:102 0.5356 
16 *358:102 *2209:A 21.1845 
17 *358:100 *358:116 23.3166 
18 *358:116 *358:122 23.1106 
19 *358:122 *2208:A 21.1845 
20 *358:116 *358:134 17.407 
21 *358:134 *358:138 20.5356 
22 *358:138 *2195:A 21.7819 
23 *358:134 *358:152 1.5862 
24 *358:152 *2196:A 40.7519 
25 *2193:X *358:172 40.7519 
26 *358:172 *358:174 20 
27 *358:174 *358:183 34.8217 
28 *358:183 *358:187 20 
29 *358:187 *358:189 0.5356 
30 *358:189 *358:198 36.2431 
31 *358:198 *2199:A 40.7519 
32 *358:198 *358:216 27.0349 
33 *358:216 *2200:A 21.5656 
34 *358:187 *358:229 0.5356 
35 *358:229 *2197:A 20 
36 *358:229 *358:236 1.1845 
37 *358:236 *358:243 21.4008 
38 *358:243 *358:249 17.3349 
39 *358:249 *358:251 0.8446 
40 *358:251 *358:255 20 
41 *358:255 *358:260 0.9682 
42 *358:260 *358:264 0.9682 
43 *358:264 *2207:A 20 
44 *358:264 *358:271 1.0403 
45 *358:271 *358:282 41.4317 
46 *358:282 *358:286 34.6878 
47 *358:286 *358:292 27.7147 
48 *358:292 *2204:A 21.1845 
49 *358:286 *2205:A 40 
50 *358:249 *2206:A 40 
51 *358:243 *358:324 43.5741 
52 *358:324 *358:328 20.5356 
53 *358:328 *2198:A 20.9682 
*END

*D_NET *359 0.00751987
*CONN
*I *2089:CLK I *D sg13g2_dfrbpq_1
*I *2083:CLK I *D sg13g2_dfrbpq_1
*I *2084:CLK I *D sg13g2_dfrbpq_1
*I *2115:CLK I *D sg13g2_dfrbpq_1
*I *2116:CLK I *D sg13g2_dfrbpq_1
*I *2194:X O *D sg13g2_buf_4
*CAP
1 *2089:CLK 0.000156117
2 *2083:CLK 0.000863407
3 *2084:CLK 1.10054e-05
4 *2115:CLK 1.10054e-05
5 *2116:CLK 0.00040355
6 *2194:X 0.00144928
7 *359:55 0.00107813
8 *359:16 0.000634082
9 *359:12 0.000876577
10 *359:8 0.00203672
*RES
1 *2194:X *359:8 45.5105 
2 *359:8 *359:12 27.0246 
3 *359:12 *359:16 2.4308 
4 *359:16 *2116:CLK 24.3466 
5 *359:16 *2115:CLK 20 
6 *359:12 *2084:CLK 20 
7 *359:8 *2083:CLK 49.2906 
8 *2194:X *359:55 49.991 
9 *359:55 *2089:CLK 41.4008 
*END

*D_NET *360 0.00690105
*CONN
*I *2097:CLK I *D sg13g2_dfrbpq_1
*I *2064:CLK I *D sg13g2_dfrbpq_1
*I *2096:CLK I *D sg13g2_dfrbpq_1
*I *2224:A I *D sg13g2_inv_1
*I *2092:CLK I *D sg13g2_dfrbpq_1
*I *2195:X O *D sg13g2_buf_4
*CAP
1 *2097:CLK 0.000292705
2 *2064:CLK 1.10054e-05
3 *2096:CLK 0.000230533
4 *2224:A 0.000390527
5 *2092:CLK 0.000899929
6 *2195:X 0.000390527
7 *360:34 0.000972675
8 *360:30 0.00134216
9 *360:19 0.000894687
10 *360:8 0.0014763
*RES
1 *2195:X *360:8 43.9964 
2 *360:8 *2092:CLK 49.7438 
3 *360:8 *360:19 2.0806 
4 *360:19 *2224:A 43.9964 
5 *360:19 *360:30 3.5638 
6 *360:30 *360:34 27.8898 
7 *360:34 *2096:CLK 22.4308 
8 *360:34 *2064:CLK 20 
9 *360:30 *2097:CLK 42.9252 
*END

*D_NET *361 0.00339097
*CONN
*I *2098:CLK I *D sg13g2_dfrbpq_1
*I *2065:CLK I *D sg13g2_dfrbpq_1
*I *2066:CLK I *D sg13g2_dfrbpq_1
*I *2099:CLK I *D sg13g2_dfrbpq_1
*I *2212:A I *D sg13g2_inv_1
*I *2196:X O *D sg13g2_buf_4
*CAP
1 *2098:CLK 1.10054e-05
2 *2065:CLK 0.000230533
3 *2066:CLK 4.26322e-05
4 *2099:CLK 0.000329134
5 *2212:A 8.72818e-05
6 *2196:X 0.000168052
7 *361:53 0.000476933
8 *361:38 0.000853507
9 *361:13 0.000732684
10 *361:4 0.000459205
*RES
1 *2196:X *361:4 20 
2 *361:4 *2212:A 20.8446 
3 *361:4 *361:13 3.9964 
4 *361:13 *2099:CLK 23.5226 
5 *361:13 *2066:CLK 20.3502 
6 *2196:X *361:38 21.6171 
7 *361:38 *2065:CLK 22.4308 
8 *361:38 *361:53 44.7998 
9 *361:53 *2098:CLK 20 
*END

*D_NET *362 0.00579981
*CONN
*I *2112:CLK I *D sg13g2_dfrbpq_1
*I *2213:A I *D sg13g2_inv_1
*I *2069:CLK I *D sg13g2_dfrbpq_1
*I *2068:CLK I *D sg13g2_dfrbpq_1
*I *2080:CLK I *D sg13g2_dfrbpq_1
*I *2197:X O *D sg13g2_buf_4
*CAP
1 *2112:CLK 0.000562289
2 *2213:A 0.000214719
3 *2069:CLK 0.000214719
4 *2068:CLK 0.000804413
5 *2080:CLK 0.000746637
6 *2197:X 0.000776246
7 *362:46 0.000918689
8 *362:22 0.00120497
9 *362:20 0.000357129
*RES
1 *2197:X *2080:CLK 48.0237 
2 *2197:X *362:20 40 
3 *362:20 *362:22 2.0806 
4 *362:22 *2068:CLK 48.6211 
5 *362:22 *2069:CLK 42.0497 
6 *362:20 *362:46 1.5862 
7 *362:46 *2213:A 42.0497 
8 *362:46 *2112:CLK 45.9637 
*END

*D_NET *363 0.00657255
*CONN
*I *2108:CLK I *D sg13g2_dfrbpq_1
*I *2075:CLK I *D sg13g2_dfrbpq_1
*I *2214:A I *D sg13g2_inv_1
*I *2102:CLK I *D sg13g2_dfrbpq_1
*I *2070:CLK I *D sg13g2_dfrbpq_1
*I *2198:X O *D sg13g2_buf_4
*CAP
1 *2108:CLK 0.000502489
2 *2075:CLK 0.000193369
3 *2214:A 1.10054e-05
4 *2102:CLK 0.000502489
5 *2070:CLK 0.000778465
6 *2198:X 4.06149e-05
7 *363:50 0.00164187
8 *363:41 0.000322841
9 *363:31 0.00126885
10 *363:6 0.00131056
*RES
1 *2198:X *363:6 40 
2 *363:6 *2070:CLK 48.3636 
3 *363:6 *2102:CLK 45.2942 
4 *2198:X *363:31 20 
5 *363:31 *363:41 43.0591 
6 *363:41 *2214:A 20 
7 *363:31 *363:50 30.2691 
8 *363:50 *2075:CLK 41.8334 
9 *363:50 *2108:CLK 45.2942 
*END

*D_NET *364 0.00585441
*CONN
*I *2111:CLK I *D sg13g2_dfrbpq_1
*I *2079:CLK I *D sg13g2_dfrbpq_1
*I *2067:CLK I *D sg13g2_dfrbpq_1
*I *2078:CLK I *D sg13g2_dfrbpq_1
*I *2215:A I *D sg13g2_inv_1
*I *2199:X O *D sg13g2_buf_4
*CAP
1 *2111:CLK 0.000590809
2 *2079:CLK 2.96094e-05
3 *2067:CLK 1.10054e-05
4 *2078:CLK 0.00040355
5 *2215:A 6.4957e-05
6 *2199:X 0.000374557
7 *364:39 0.00112332
8 *364:33 0.00148233
9 *364:31 0.00126313
10 *364:6 0.000511139
*RES
1 *2199:X *364:6 20.3502 
2 *364:6 *2215:A 20.5974 
3 *364:6 *2078:CLK 24.3466 
4 *2199:X *364:31 43.3475 
5 *364:31 *364:33 3.811 
6 *364:33 *364:39 32.1334 
7 *364:39 *2067:CLK 20 
8 *364:33 *2079:CLK 40 
9 *364:31 *2111:CLK 46.283 
*END

*D_NET *365 0.00591412
*CONN
*I *2109:CLK I *D sg13g2_dfrbpq_1
*I *2076:CLK I *D sg13g2_dfrbpq_1
*I *2077:CLK I *D sg13g2_dfrbpq_1
*I *2216:A I *D sg13g2_inv_1
*I *2110:CLK I *D sg13g2_dfrbpq_1
*I *2200:X O *D sg13g2_buf_4
*CAP
1 *2109:CLK 2.96094e-05
2 *2076:CLK 1.10054e-05
3 *2077:CLK 1.10054e-05
4 *2216:A 0.000149209
5 *2110:CLK 0.000156117
6 *2200:X 0.00054566
7 *365:58 0.000933025
8 *365:52 0.00160702
9 *365:41 0.00114344
10 *365:26 0.000801902
11 *365:8 0.000526126
*RES
1 *2200:X *365:8 43.811 
2 *365:8 *2110:CLK 41.4008 
3 *2200:X *365:26 41.6171 
4 *365:26 *2216:A 41.339 
5 *365:26 *365:41 25.0882 
6 *365:41 *2077:CLK 20 
7 *365:41 *365:52 27.0658 
8 *365:52 *365:58 30.094 
9 *365:58 *2076:CLK 20 
10 *365:52 *2109:CLK 40 
*END

*D_NET *366 0.00495938
*CONN
*I *2114:CLK I *D sg13g2_dfrbpq_1
*I *2082:CLK I *D sg13g2_dfrbpq_1
*I *2210:A I *D sg13g2_inv_1
*I *2085:CLK I *D sg13g2_dfrbpq_1
*I *2117:CLK I *D sg13g2_dfrbpq_1
*I *2201:X O *D sg13g2_buf_4
*CAP
1 *2114:CLK 0.000696563
2 *2082:CLK 7.891e-05
3 *2210:A 9.7514e-05
4 *2085:CLK 0.00040355
5 *2117:CLK 1.10054e-05
6 *2201:X 2.96094e-05
7 *366:47 0.00120072
8 *366:20 0.000344453
9 *366:14 0.000999163
10 *366:8 0.000501359
11 *366:6 0.000596533
*RES
1 *2201:X *366:6 40 
2 *366:6 *366:8 1.5862 
3 *366:8 *366:14 22.7089 
4 *366:14 *366:20 43.3166 
5 *366:20 *2117:CLK 20 
6 *366:14 *2085:CLK 24.3466 
7 *366:8 *2210:A 40.7519 
8 *366:6 *366:47 24.5526 
9 *366:47 *2082:CLK 20.7519 
10 *366:47 *2114:CLK 27.5911 
*END

*D_NET *367 0.00649585
*CONN
*I *2127:CLK I *D sg13g2_dfrbpq_1
*I *2090:CLK I *D sg13g2_dfrbpq_1
*I *2121:CLK I *D sg13g2_dfrbpq_1
*I *2123:CLK I *D sg13g2_dfrbpq_1
*I *2211:A I *D sg13g2_inv_1
*I *2202:X O *D sg13g2_buf_4
*CAP
1 *2127:CLK 1.10054e-05
2 *2090:CLK 1.10054e-05
3 *2121:CLK 1.10054e-05
4 *2123:CLK 0.000567265
5 *2211:A 0.000226655
6 *2202:X 0.000256264
7 *367:65 0.000924653
8 *367:48 0.00153927
9 *367:37 0.000366533
10 *367:24 0.00143038
11 *367:18 0.00115181
*RES
1 *2202:X *2211:A 42.266 
2 *2202:X *367:18 40 
3 *367:18 *367:24 25.459 
4 *367:24 *2123:CLK 26.1594 
5 *367:24 *367:37 43.5638 
6 *367:37 *2121:CLK 20 
7 *367:18 *367:48 26.6332 
8 *367:48 *2090:CLK 20 
9 *367:48 *367:65 49.7438 
10 *367:65 *2127:CLK 20 
*END

*D_NET *368 0.00508654
*CONN
*I *2126:CLK I *D sg13g2_dfrbpq_1
*I *2122:CLK I *D sg13g2_dfrbpq_1
*I *2081:CLK I *D sg13g2_dfrbpq_1
*I *2088:CLK I *D sg13g2_dfrbpq_1
*I *2217:A I *D sg13g2_inv_1
*I *2203:X O *D sg13g2_buf_4
*CAP
1 *2126:CLK 0.000344017
2 *2122:CLK 0.000266653
3 *2081:CLK 0.000195185
4 *2088:CLK 0.000303769
5 *2217:A 1.10054e-05
6 *2203:X 0.000816475
7 *368:60 0.000806557
8 *368:17 0.00137177
9 *368:6 0.000971104
*RES
1 *2203:X *368:6 20.8446 
2 *368:6 *2217:A 20 
3 *368:6 *368:17 29.476 
4 *368:17 *2088:CLK 43.0694 
5 *368:17 *2081:CLK 41.8334 
6 *2203:X *2122:CLK 42.7089 
7 *2203:X *368:60 44.841 
8 *368:60 *2126:CLK 43.4814 
*END

*D_NET *369 0.00621367
*CONN
*I *2086:CLK I *D sg13g2_dfrbpq_1
*I *2118:CLK I *D sg13g2_dfrbpq_1
*I *2119:CLK I *D sg13g2_dfrbpq_1
*I *2087:CLK I *D sg13g2_dfrbpq_1
*I *2218:A I *D sg13g2_inv_1
*I *2204:X O *D sg13g2_buf_4
*CAP
1 *2086:CLK 1.10054e-05
2 *2118:CLK 1.10054e-05
3 *2119:CLK 1.10054e-05
4 *2087:CLK 0.000176581
5 *2218:A 9.82873e-05
6 *2204:X 0.000411608
7 *369:60 0.000931067
8 *369:46 0.00148532
9 *369:28 0.000951629
10 *369:22 0.00102232
11 *369:18 0.00110384
*RES
1 *2204:X *2218:A 40.8446 
2 *2204:X *369:18 23.3475 
3 *369:18 *369:22 2.6162 
4 *369:22 *369:28 48.2606 
5 *369:28 *2087:CLK 21.8334 
6 *369:22 *2119:CLK 20 
7 *369:18 *369:46 45.7886 
8 *369:46 *369:60 49.785 
9 *369:60 *2118:CLK 20 
10 *369:46 *2086:CLK 20 
*END

*D_NET *370 0.00555779
*CONN
*I *2071:CLK I *D sg13g2_dfrbpq_1
*I *2105:CLK I *D sg13g2_dfrbpq_1
*I *2219:A I *D sg13g2_inv_1
*I *2104:CLK I *D sg13g2_dfrbpq_1
*I *2072:CLK I *D sg13g2_dfrbpq_1
*I *2205:X O *D sg13g2_buf_4
*CAP
1 *2071:CLK 0.000825171
2 *2105:CLK 0.000950042
3 *2219:A 1.10054e-05
4 *2104:CLK 0.000175651
5 *2072:CLK 0.000373388
6 *2205:X 2.96094e-05
7 *370:34 0.00104756
8 *370:10 0.000646558
9 *370:8 0.000414029
10 *370:6 0.00108478
*RES
1 *2205:X *370:6 40 
2 *370:6 *370:8 2.575 
3 *370:8 *370:10 1.0918 
4 *370:10 *2072:CLK 43.8213 
5 *370:10 *2104:CLK 41.6171 
6 *370:8 *370:34 20.7519 
7 *370:34 *2219:A 20 
8 *370:34 *2105:CLK 30.3979 
9 *370:6 *2071:CLK 48.8889 
*END

*D_NET *371 0.00660085
*CONN
*I *2101:CLK I *D sg13g2_dfrbpq_1
*I *2113:CLK I *D sg13g2_dfrbpq_1
*I *2220:A I *D sg13g2_inv_1
*I *2103:CLK I *D sg13g2_dfrbpq_1
*I *2120:CLK I *D sg13g2_dfrbpq_1
*I *2206:X O *D sg13g2_buf_4
*CAP
1 *2101:CLK 1.10054e-05
2 *2113:CLK 1.10054e-05
3 *2220:A 1.10054e-05
4 *2103:CLK 0.00059145
5 *2120:CLK 0.000729213
6 *2206:X 0.00031332
7 *371:47 0.00110462
8 *371:25 0.000981977
9 *371:10 0.00125042
10 *371:8 0.0012539
11 *371:6 0.00034293
*RES
1 *2206:X *371:6 23.3475 
2 *371:6 *371:8 20 
3 *371:8 *371:10 1.5862 
4 *371:10 *2120:CLK 47.8074 
5 *371:10 *371:25 23.9964 
6 *371:25 *2103:CLK 26.4272 
7 *371:25 *2220:A 20 
8 *371:8 *371:47 31.948 
9 *371:47 *2113:CLK 20 
10 *371:6 *2101:CLK 20 
*END

*D_NET *372 0.00671604
*CONN
*I *2074:CLK I *D sg13g2_dfrbpq_1
*I *2107:CLK I *D sg13g2_dfrbpq_1
*I *2106:CLK I *D sg13g2_dfrbpq_1
*I *2073:CLK I *D sg13g2_dfrbpq_1
*I *2221:A I *D sg13g2_inv_1
*I *2207:X O *D sg13g2_buf_4
*CAP
1 *2074:CLK 3.98416e-05
2 *2107:CLK 1.10054e-05
3 *2106:CLK 1.10054e-05
4 *2073:CLK 3.98416e-05
5 *2221:A 1.10054e-05
6 *2207:X 0.000371923
7 *372:63 0.000799542
8 *372:45 0.0013861
9 *372:36 0.000717219
10 *372:19 0.000972579
11 *372:15 0.00137865
12 *372:6 0.000977326
*RES
1 *2207:X *372:6 23.9964 
2 *372:6 *2221:A 20 
3 *372:6 *372:15 26.3757 
4 *372:15 *372:19 22.3278 
5 *372:19 *2073:CLK 20.3193 
6 *372:19 *372:36 47.4469 
7 *372:36 *2106:CLK 20 
8 *372:15 *372:45 26.0358 
9 *372:45 *372:63 48.3585 
10 *372:63 *2107:CLK 20 
11 *372:45 *2074:CLK 20.3193 
*END

*D_NET *373 0.00605034
*CONN
*I *2222:A I *D sg13g2_inv_1
*I *2063:CLK I *D sg13g2_dfrbpq_1
*I *2095:CLK I *D sg13g2_dfrbpq_1
*I *2091:CLK I *D sg13g2_dfrbpq_1
*I *2124:CLK I *D sg13g2_dfrbpq_1
*I *2208:X O *D sg13g2_buf_4
*CAP
1 *2222:A 1.10054e-05
2 *2063:CLK 0.000491425
3 *2095:CLK 2.96094e-05
4 *2091:CLK 0.000281689
5 *2124:CLK 0.000723289
6 *2208:X 0.000215649
7 *373:36 0.000883514
8 *373:25 0.00139391
9 *373:10 0.00163331
10 *373:6 0.000386939
*RES
1 *2208:X *373:6 22.266 
2 *373:6 *373:10 21.5862 
3 *373:10 *2124:CLK 47.7662 
4 *373:10 *373:25 47.8898 
5 *373:25 *2091:CLK 42.8222 
6 *373:25 *373:36 4.0582 
7 *373:36 *2095:CLK 40 
8 *373:36 *2063:CLK 45.15 
9 *373:6 *2222:A 20 
*END

*D_NET *374 0.00443512
*CONN
*I *2125:CLK I *D sg13g2_dfrbpq_1
*I *2100:CLK I *D sg13g2_dfrbpq_1
*I *2094:CLK I *D sg13g2_dfrbpq_1
*I *2093:CLK I *D sg13g2_dfrbpq_1
*I *2223:A I *D sg13g2_inv_1
*I *2209:X O *D sg13g2_buf_4
*CAP
1 *2125:CLK 7.79798e-05
2 *2100:CLK 0.000662145
3 *2094:CLK 0.000259609
4 *2093:CLK 1.10054e-05
5 *2223:A 6.4957e-05
6 *2209:X 0.000567202
7 *374:55 0.000602549
8 *374:26 0.00129177
9 *374:15 0.000585669
10 *374:6 0.000312233
*RES
1 *2209:X *374:6 20.3502 
2 *374:6 *2223:A 20.5974 
3 *374:6 *374:15 2.266 
4 *374:15 *2093:CLK 20 
5 *374:15 *374:26 23.914 
6 *374:26 *2094:CLK 42.575 
7 *374:26 *2100:CLK 47.004 
8 *2209:X *374:55 45.5414 
9 *374:55 *2125:CLK 40.5356 
*END

*D_NET *375 0.00851234
*CONN
*I *2232:A I *D sg13g2_buf_1
*I *2229:A I *D sg13g2_buf_1
*I *2269:X O *D sg13g2_buf_8
*CAP
1 *2232:A 0.00178955
2 *2229:A 2.96094e-05
3 *2269:X 0.000157047
4 *375:10 0.00230957
5 *375:6 0.00422656
*RES
1 *2269:X *375:6 21.6171 
2 *375:6 *375:10 45.3174 
3 *375:10 *2229:A 40 
4 *375:6 *2232:A 39.6936 
*END

*D_NET *376 0.00883762
*CONN
*I *1947:A I *D sg13g2_and3_1
*I *1877:A1 I *D sg13g2_a22oi_1
*I *1985:A I *D sg13g2_nand2_1
*I *1980:A I *D sg13g2_nand2_1
*I *1875:A1 I *D sg13g2_a22oi_1
*I *1990:A I *D sg13g2_nand2_1
*I *1879:A1 I *D sg13g2_a22oi_1
*I *2270:X O *D sg13g2_buf_1
*CAP
1 *1947:A 1.10054e-05
2 *1877:A1 3.98416e-05
3 *1985:A 1.10054e-05
4 *1980:A 7.79798e-05
5 *1875:A1 2.96094e-05
6 *1990:A 0.000454711
7 *1879:A1 1.10054e-05
8 *2270:X 0.000479361
9 *376:84 0.00026289
10 *376:76 0.00112053
11 *376:40 0.00019665
12 *376:32 0.00132872
13 *376:24 0.00115037
14 *376:20 0.00067414
15 *376:18 0.001746
16 *376:12 0.0012438
*RES
1 *2270:X *376:12 25.1861 
2 *376:12 *376:18 28.2246 
3 *376:18 *376:20 1.8334 
4 *376:20 *376:24 4.841 
5 *376:24 *376:32 27.4469 
6 *376:32 *376:40 41.6583 
7 *376:40 *1879:A1 20 
8 *376:32 *1990:A 24.9131 
9 *376:24 *1875:A1 40 
10 *376:20 *1980:A 40.5356 
11 *376:18 *376:76 28.9713 
12 *376:76 *376:84 42.3999 
13 *376:84 *1985:A 20 
14 *376:76 *1877:A1 20.3193 
15 *376:12 *1947:A 20 
*END

*D_NET *377 0.00749372
*CONN
*I *1970:A I *D sg13g2_nand2_1
*I *1871:A1 I *D sg13g2_a22oi_1
*I *1873:A1 I *D sg13g2_a22oi_1
*I *1948:A1 I *D sg13g2_a21oi_1
*I *1975:A I *D sg13g2_nand2_1
*I *2270:A I *D sg13g2_buf_1
*I *2271:X O *D sg13g2_buf_1
*CAP
1 *1970:A 0.000112165
2 *1871:A1 0.000117048
3 *1873:A1 1.10054e-05
4 *1948:A1 1.10054e-05
5 *1975:A 0.000259609
6 *2270:A 0.000288446
7 *2271:X 0.000923723
8 *377:58 4.80094e-05
9 *377:54 0.000473144
10 *377:24 0.000566659
11 *377:22 0.000815662
12 *377:20 0.00133519
13 *377:12 0.00128824
14 *377:10 0.00124381
*RES
1 *2271:X *377:10 49.9395 
2 *377:10 *377:12 2.3278 
3 *377:12 *377:20 30.5678 
4 *377:20 *377:22 3.9964 
5 *377:22 *377:24 20 
6 *377:24 *2270:A 42.8943 
7 *377:24 *1975:A 42.575 
8 *377:22 *377:54 44.4496 
9 *377:54 *377:58 40 
10 *377:58 *1948:A1 20 
11 *377:20 *1873:A1 20 
12 *377:12 *1871:A1 40.9682 
13 *377:10 *1970:A 40.9141 
*END

*D_NET *378 0.00340271
*CONN
*I *2271:A I *D sg13g2_buf_1
*I *1867:A I *D sg13g2_and3_1
*I *1866:A1 I *D sg13g2_a21oi_1
*I *1963:A1 I *D sg13g2_a22oi_1
*I *1951:A I *D sg13g2_nand2_1
*I *2272:X O *D sg13g2_buf_1
*CAP
1 *2271:A 1.10054e-05
2 *1867:A 1.10054e-05
3 *1866:A1 1.10054e-05
4 *1963:A1 1.10054e-05
5 *1951:A 2.96094e-05
6 *2272:X 0.000137513
7 *378:56 0.000344453
8 *378:40 0.000260344
9 *378:32 0.000485452
10 *378:23 0.000617198
11 *378:12 0.000711927
12 *378:6 0.000772194
*RES
1 *2272:X *378:6 21.4008 
2 *378:6 *378:12 23.1415 
3 *378:12 *1951:A 40 
4 *378:12 *378:23 24.0582 
5 *378:23 *1963:A1 20 
6 *378:23 *378:32 2.4926 
7 *378:32 *378:40 42.369 
8 *378:40 *1866:A1 20 
9 *378:32 *1867:A 20 
10 *378:6 *378:56 43.3166 
11 *378:56 *2271:A 20 
*END

*D_NET *379 0.0046881
*CONN
*I *1905:A1 I *D sg13g2_a22oi_1
*I *2029:A I *D sg13g2_and3_1
*I *2028:A1 I *D sg13g2_a21oi_1
*I *2024:A1 I *D sg13g2_a21oi_1
*I *2025:A I *D sg13g2_and3_1
*I *2273:X O *D sg13g2_buf_1
*CAP
1 *1905:A1 2.96094e-05
2 *2029:A 0.000204581
3 *2028:A1 0.000214719
4 *2024:A1 7.79798e-05
5 *2025:A 0.000193369
6 *2273:X 4.26322e-05
7 *379:40 0.00072198
8 *379:36 0.000979998
9 *379:12 0.000902119
10 *379:6 0.00132111
*RES
1 *2273:X *379:6 20.3502 
2 *379:6 *379:12 26.7877 
3 *379:12 *2025:A 41.8334 
4 *379:12 *2024:A1 40.5356 
5 *379:6 *379:36 27.0349 
6 *379:36 *379:40 3.3887 
7 *379:40 *2028:A1 42.0497 
8 *379:40 *2029:A 41.9467 
9 *379:36 *1905:A1 40 
*END

*D_NET *380 0.00528119
*CONN
*I *1850:A1 I *D sg13g2_a21oi_1
*I *1938:A1 I *D sg13g2_a22oi_1
*I *1851:A I *D sg13g2_and3_1
*I *1842:A1 I *D sg13g2_a21oi_1
*I *1843:A I *D sg13g2_and3_1
*I *1932:A1 I *D sg13g2_a22oi_1
*I *2274:X O *D sg13g2_buf_1
*CAP
1 *1850:A1 7.79798e-05
2 *1938:A1 0.0003963
3 *1851:A 6.4957e-05
4 *1842:A1 5.93758e-05
5 *1843:A 0.000344017
6 *1932:A1 0.00035214
7 *2274:X 0.000193369
8 *380:64 0.000839208
9 *380:51 0.000711736
10 *380:18 0.000812281
11 *380:14 0.000565054
12 *380:8 0.000864774
*RES
1 *2274:X *380:8 41.8334 
2 *380:8 *380:14 24.1303 
3 *380:14 *380:18 21.0918 
4 *380:18 *1932:A1 43.605 
5 *380:18 *1843:A 43.4814 
6 *380:14 *1842:A1 20.5356 
7 *380:8 *380:51 22.9149 
8 *380:51 *1851:A 20.5974 
9 *380:51 *380:64 23.8522 
10 *380:64 *1938:A1 44.0994 
11 *380:64 *1850:A1 40.5356 
*END

*D_NET *381 0.00507506
*CONN
*I *1935:A1 I *D sg13g2_a22oi_1
*I *1846:A1 I *D sg13g2_a21oi_1
*I *2274:A I *D sg13g2_buf_1
*I *1847:A I *D sg13g2_and3_1
*I *2273:A I *D sg13g2_buf_1
*I *2275:X O *D sg13g2_buf_1
*CAP
1 *1935:A1 0.000268079
2 *1846:A1 5.84456e-05
3 *2274:A 0.000325849
4 *1847:A 1.10054e-05
5 *2273:A 1.10054e-05
6 *2275:X 0.000237354
7 *381:38 0.000570135
8 *381:36 0.000706469
9 *381:27 0.000805396
10 *381:18 0.00119841
11 *381:12 0.000882913
*RES
1 *2275:X *381:12 42.3175 
2 *381:12 *381:18 26.9422 
3 *381:18 *2273:A 20 
4 *381:18 *381:27 5.99975 
5 *381:27 *1847:A 20 
6 *381:27 *381:36 22.5905 
7 *381:36 *381:38 2.0806 
8 *381:38 *2274:A 43.3166 
9 *381:38 *1846:A1 40.3193 
10 *381:36 *1935:A1 42.6471 
*END

*D_NET *382 0.00664671
*CONN
*I *1899:A1 I *D sg13g2_a22oi_1
*I *2016:A1 I *D sg13g2_a21oi_1
*I *2012:A1 I *D sg13g2_a21oi_1
*I *1896:A1 I *D sg13g2_a22oi_1
*I *1893:A1 I *D sg13g2_a22oi_1
*I *2013:A I *D sg13g2_and3_1
*I *2017:A I *D sg13g2_and3_1
*I *2276:X O *D sg13g2_buf_1
*CAP
1 *1899:A1 5.93758e-05
2 *2016:A1 1.10054e-05
3 *2012:A1 1.10054e-05
4 *1896:A1 1.10054e-05
5 *1893:A1 1.10054e-05
6 *2013:A 0.000130071
7 *2017:A 0.000292901
8 *2276:X 0.000237529
9 *382:64 0.000459064
10 *382:47 0.000743705
11 *382:45 0.000399629
12 *382:39 0.000789383
13 *382:22 0.0012157
14 *382:16 0.00115985
15 *382:10 0.000859348
16 *382:8 0.000256133
*RES
1 *2276:X *382:8 42.3278 
2 *382:8 *382:10 20 
3 *382:10 *382:16 8.652 
4 *382:16 *382:22 23.8831 
5 *382:22 *2017:A 42.9355 
6 *382:22 *382:39 25.9431 
7 *382:39 *382:45 42.0806 
8 *382:45 *382:47 1.8334 
9 *382:47 *2013:A 21.3184 
10 *382:47 *382:64 44.5938 
11 *382:64 *1893:A1 20 
12 *382:45 *1896:A1 20 
13 *382:39 *2012:A1 20 
14 *382:16 *2016:A1 20 
15 *382:10 *1899:A1 20.5356 
*END

*D_NET *383 0.00752813
*CONN
*I *2061:A I *D sg13g2_and3_1
*I *2056:A1 I *D sg13g2_a21oi_1
*I *1926:A1 I *D sg13g2_a22oi_1
*I *2057:A I *D sg13g2_and3_1
*I *2060:A1 I *D sg13g2_a21oi_1
*I *1929:A1 I *D sg13g2_a22oi_1
*I *1996:A1 I *D sg13g2_a21oi_1
*I *1997:A I *D sg13g2_and3_1
*I *2277:X O *D sg13g2_buf_1
*CAP
1 *2061:A 4.26322e-05
2 *2056:A1 1.10054e-05
3 *1926:A1 1.10054e-05
4 *2057:A 9.10026e-05
5 *2060:A1 1.10054e-05
6 *1929:A1 0.000347048
7 *1996:A1 1.10054e-05
8 *1997:A 0.000168209
9 *2277:X 0.000237529
10 *383:99 0.000555168
11 *383:76 0.000858213
12 *383:70 0.000792173
13 *383:59 0.000844465
14 *383:55 0.000438306
15 *383:38 0.00118364
16 *383:25 0.00112362
17 *383:8 0.000802098
*RES
1 *2277:X *383:8 42.3278 
2 *383:8 *1997:A 41.5347 
3 *383:8 *383:25 24.1921 
4 *383:25 *1996:A1 20 
5 *383:25 *383:38 27.725 
6 *383:38 *1929:A1 43.5432 
7 *383:38 *383:55 21.133 
8 *383:55 *383:59 3.0488 
9 *383:59 *2060:A1 20 
10 *383:59 *383:70 6.18 
11 *383:70 *383:76 42.0806 
12 *383:76 *2057:A 20.8858 
13 *383:76 *383:99 45.6444 
14 *383:99 *1926:A1 20 
15 *383:70 *2056:A1 20 
16 *383:55 *2061:A 20.3502 
*END

*D_NET *384 0.00903279
*CONN
*I *2004:A1 I *D sg13g2_a21oi_1
*I *2005:A I *D sg13g2_and3_1
*I *1887:A1 I *D sg13g2_a22oi_1
*I *1890:A1 I *D sg13g2_a22oi_1
*I *2008:A1 I *D sg13g2_a21oi_1
*I *2009:A I *D sg13g2_and3_1
*I *2001:A I *D sg13g2_and3_1
*I *2000:A1 I *D sg13g2_a21oi_1
*I *2278:X O *D sg13g2_buf_1
*CAP
1 *2004:A1 1.10054e-05
2 *2005:A 1.10054e-05
3 *1887:A1 1.10054e-05
4 *1890:A1 1.10054e-05
5 *2008:A1 0.000215449
6 *2009:A 0.000109607
7 *2001:A 1.10054e-05
8 *2000:A1 1.10054e-05
9 *2278:X 0.000464253
10 *384:106 0.000259813
11 *384:98 0.000612359
12 *384:62 0.000780018
13 *384:56 0.00140547
14 *384:52 0.00107608
15 *384:43 0.000228081
16 *384:30 0.000275521
17 *384:26 0.000960105
18 *384:12 0.00140072
19 *384:10 0.00117928
*RES
1 *2278:X *384:10 44.841 
2 *384:10 *384:12 4.0582 
3 *384:12 *384:26 49.7232 
4 *384:26 *384:30 20.3193 
5 *384:30 *2000:A1 20 
6 *384:30 *384:43 41.9982 
7 *384:43 *2001:A 20 
8 *384:12 *384:52 21.1845 
9 *384:52 *384:56 10.403 
10 *384:56 *384:62 24.841 
11 *384:62 *2009:A 40.8858 
12 *384:62 *2008:A1 42.0806 
13 *384:56 *1890:A1 20 
14 *384:52 *1887:A1 20 
15 *384:10 *384:98 23.6977 
16 *384:98 *384:106 42.369 
17 *384:106 *2005:A 20 
18 *384:98 *2004:A1 20 
*END

*D_NET *385 0.00889569
*CONN
*I *1881:A1 I *D sg13g2_a22oi_1
*I *2021:A I *D sg13g2_and3_1
*I *2020:A1 I *D sg13g2_a21oi_1
*I *2277:A I *D sg13g2_buf_1
*I *1884:A1 I *D sg13g2_a22oi_1
*I *2278:A I *D sg13g2_buf_1
*I *2276:A I *D sg13g2_buf_1
*I *2279:X O *D sg13g2_buf_1
*CAP
1 *1881:A1 0.000762607
2 *2021:A 0.000108211
3 *2020:A1 3.98416e-05
4 *2277:A 1.10054e-05
5 *1884:A1 0.000214719
6 *2278:A 0.000442173
7 *2276:A 5.93758e-05
8 *2279:X 0.000302888
9 *385:66 0.000166657
10 *385:39 0.000927577
11 *385:35 0.0012584
12 *385:22 0.00179253
13 *385:18 0.00124102
14 *385:12 0.00124719
15 *385:10 0.000321492
*RES
1 *2279:X *385:10 43.0488 
2 *385:10 *385:12 20 
3 *385:12 *385:18 24.9955 
4 *385:18 *385:22 28.2606 
5 *385:22 *2276:A 20.5356 
6 *385:22 *385:35 10.815 
7 *385:35 *385:39 22.8222 
8 *385:39 *2278:A 44.5938 
9 *385:39 *1884:A1 42.0497 
10 *385:35 *2277:A 20 
11 *385:18 *385:66 20 
12 *385:66 *2020:A1 20.3193 
13 *385:66 *2021:A 21.0763 
14 *385:12 *1881:A1 28.3224 
*END

*D_NET *386 0.00454563
*CONN
*I *1858:A1 I *D sg13g2_a21oi_1
*I *1944:A1 I *D sg13g2_a22oi_1
*I *1859:A I *D sg13g2_and3_1
*I *1855:A I *D sg13g2_and3_1
*I *1941:A1 I *D sg13g2_a22oi_1
*I *1854:A1 I *D sg13g2_a21oi_1
*I *2280:X O *D sg13g2_buf_1
*CAP
1 *1858:A1 0.000381025
2 *1944:A1 0.000215649
3 *1859:A 0.000169139
4 *1855:A 7.74494e-05
5 *1941:A1 0.000272806
6 *1854:A1 2.96094e-05
7 *2280:X 0.000175651
8 *386:45 0.000403393
9 *386:43 0.000452989
10 *386:12 0.000422015
11 *386:10 0.000956969
12 *386:8 0.000988931
*RES
1 *2280:X *386:8 41.6171 
2 *386:8 *386:10 8.5078 
3 *386:10 *386:12 1.339 
4 *386:12 *1854:A1 40 
5 *386:12 *1941:A1 42.7192 
6 *386:10 *1855:A 40.5356 
7 *386:8 *386:43 0.5974 
8 *386:43 *386:45 20 
9 *386:45 *1859:A 21.751 
10 *386:45 *1944:A1 22.266 
11 *386:43 *1858:A1 43.914 
*END

*D_NET *387 0.00367287
*CONN
*I *2041:A I *D sg13g2_and3_1
*I *2040:A1 I *D sg13g2_a21oi_1
*I *2037:A I *D sg13g2_and3_1
*I *1914:A1 I *D sg13g2_a22oi_1
*I *2036:A1 I *D sg13g2_a21oi_1
*I *2281:X O *D sg13g2_buf_1
*CAP
1 *2041:A 3.98416e-05
2 *2040:A1 1.10054e-05
3 *2037:A 0.000182501
4 *1914:A1 0.000443232
5 *2036:A1 2.96094e-05
6 *2281:X 1.10054e-05
7 *387:61 0.000279878
8 *387:53 0.000584053
9 *387:21 0.000707613
10 *387:10 0.000604638
11 *387:4 0.000779493
*RES
1 *2281:X *387:4 20 
2 *387:4 *387:10 25.3045 
3 *387:10 *2036:A1 40 
4 *387:10 *387:21 0.9167 
5 *387:21 *1914:A1 44.5835 
6 *387:21 *2037:A 41.6995 
7 *387:4 *387:53 3.0488 
8 *387:53 *387:61 42.5853 
9 *387:61 *2040:A1 20 
10 *387:53 *2041:A 20.3193 
*END

*D_NET *388 0.00640595
*CONN
*I *2048:A1 I *D sg13g2_a21oi_1
*I *2049:A I *D sg13g2_and3_1
*I *2052:A1 I *D sg13g2_a21oi_1
*I *2053:A I *D sg13g2_and3_1
*I *1923:A1 I *D sg13g2_a22oi_1
*I *1920:A1 I *D sg13g2_a22oi_1
*I *2282:X O *D sg13g2_buf_1
*CAP
1 *2048:A1 3.98416e-05
2 *2049:A 1.10054e-05
3 *2052:A1 7.79798e-05
4 *2053:A 2.96094e-05
5 *1923:A1 0.000615435
6 *1920:A1 1.10054e-05
7 *2282:X 0.000677416
8 *388:43 0.000808805
9 *388:41 0.000887784
10 *388:37 0.00118075
11 *388:27 0.000903748
12 *388:14 0.000418184
13 *388:10 0.00074439
*RES
1 *2282:X *388:10 47.2203 
2 *388:10 *388:14 20.5356 
3 *388:14 *1920:A1 20 
4 *388:14 *388:27 43.3887 
5 *388:27 *388:37 5.7989 
6 *388:37 *388:41 27.0246 
7 *388:41 *388:43 1.8334 
8 *388:43 *1923:A1 46.5096 
9 *388:43 *2053:A 40 
10 *388:41 *2052:A1 40.5356 
11 *388:37 *2049:A 20 
12 *388:27 *2048:A1 20.3193 
*END

*D_NET *389 0.00478455
*CONN
*I *2281:A I *D sg13g2_buf_1
*I *1917:A1 I *D sg13g2_a22oi_1
*I *2044:A1 I *D sg13g2_a21oi_1
*I *2045:A I *D sg13g2_and3_1
*I *2282:A I *D sg13g2_buf_1
*I *2283:X O *D sg13g2_buf_1
*CAP
1 *2281:A 1.10054e-05
2 *1917:A1 0.000196115
3 *2044:A1 5.84456e-05
4 *2045:A 0.000107281
5 *2282:A 0.000237529
6 *2283:X 0.000255648
7 *389:22 0.000552731
8 *389:20 0.00055913
9 *389:16 0.000849797
10 *389:14 0.00102557
11 *389:8 0.000931302
*RES
1 *2283:X *389:8 22.7089 
2 *389:8 *389:14 47.0246 
3 *389:14 *389:16 3.9964 
4 *389:16 *389:20 23.0694 
5 *389:20 *389:22 2.3278 
6 *389:22 *2282:A 42.3278 
7 *389:22 *2045:A 40.8601 
8 *389:20 *2044:A1 40.3193 
9 *389:16 *1917:A1 22.0497 
10 *389:8 *2281:A 20 
*END

*D_NET *390 0.00765681
*CONN
*I *1911:A1 I *D sg13g2_a22oi_1
*I *2032:A1 I *D sg13g2_a21oi_1
*I *1908:A1 I *D sg13g2_a22oi_1
*I *2033:A I *D sg13g2_and3_1
*I *2283:A I *D sg13g2_buf_1
*I *2280:A I *D sg13g2_buf_1
*I *2284:X O *D sg13g2_buf_1
*CAP
1 *1911:A1 1.10054e-05
2 *2032:A1 1.10054e-05
3 *1908:A1 1.10054e-05
4 *2033:A 0.000189604
5 *2283:A 0.000622241
6 *2280:A 2.96094e-05
7 *2284:X 0.00151752
8 *390:59 0.000674175
9 *390:51 0.000886417
10 *390:45 0.000955252
11 *390:28 0.00118324
12 *390:26 0.00108632
13 *390:10 0.00047942
*RES
1 *2284:X *390:10 44.6865 
2 *390:10 *2280:A 40 
3 *2284:X *390:26 31.7008 
4 *390:26 *390:28 20 
5 *390:28 *2283:A 46.5714 
6 *390:28 *390:45 25.8607 
7 *390:45 *390:51 4.4496 
8 *390:51 *390:59 44.841 
9 *390:59 *2033:A 21.9776 
10 *390:59 *1908:A1 20 
11 *390:51 *2032:A1 20 
12 *390:45 *1911:A1 20 
*END

*D_NET *391 0.0119269
*CONN
*I *2284:A I *D sg13g2_buf_1
*I *2275:A I *D sg13g2_buf_1
*I *1902:A1 I *D sg13g2_a22oi_1
*I *2279:A I *D sg13g2_buf_1
*I *1869:A1 I *D sg13g2_a22oi_1
*I *1965:A I *D sg13g2_nand2_1
*I *2285:X O *D sg13g2_buf_1
*CAP
1 *2284:A 0.000878882
2 *2275:A 0.000734701
3 *1902:A1 0.000393318
4 *2279:A 1.10054e-05
5 *1869:A1 5.84456e-05
6 *1965:A 3.98416e-05
7 *2285:X 0.000400559
8 *391:60 0.000830213
9 *391:54 0.0017425
10 *391:37 0.00106561
11 *391:20 0.000721474
12 *391:16 0.00235503
13 *391:10 0.00269532
*RES
1 *2285:X *391:10 44.1303 
2 *391:10 *391:16 15.8517 
3 *391:16 *391:20 22.0806 
4 *391:20 *1965:A 20.3193 
5 *391:20 *391:37 25.1088 
6 *391:37 *1869:A1 40.3193 
7 *391:37 *391:54 25.6856 
8 *391:54 *391:60 48.755 
9 *391:60 *2279:A 20 
10 *391:54 *1902:A1 24.2333 
11 *391:16 *2275:A 47.8074 
12 *391:10 *2284:A 49.4039 
*END

*D_NET *392 0.00421142
*CONN
*I *2233:A I *D sg13g2_buf_1
*I *2234:A I *D sg13g2_buf_1
*I *2235:X O *D sg13g2_buf_1
*CAP
1 *2233:A 1.10054e-05
2 *2234:A 2.96094e-05
3 *2235:X 0.000209009
4 *392:20 0.00177965
5 *392:16 0.00186709
6 *392:12 0.000315052
*RES
1 *2235:X *392:12 42.0085 
2 *392:12 *392:16 20.9682 
3 *392:16 *392:20 39.3846 
4 *392:20 *2234:A 40 
5 *392:16 *2233:A 20 
*END

*D_NET *393 0.00421079
*CONN
*I *1963:A2 I *D sg13g2_a22oi_1
*I *1951:B I *D sg13g2_nand2_1
*I *2236:X O *D sg13g2_buf_1
*CAP
1 *1963:A2 0.000553089
2 *1951:B 5.84456e-05
3 *2236:X 0.00082226
4 *393:14 0.00128314
5 *393:12 0.00149386
*RES
1 *2236:X *393:12 48.8683 
2 *393:12 *393:14 7.519 
3 *393:14 *1951:B 40.3193 
4 *393:14 *1963:A2 45.8607 
*END

*D_NET *394 0.0143892
*CONN
*I *2053:B I *D sg13g2_and3_1
*I *1923:A2 I *D sg13g2_a22oi_1
*I *2052:A2 I *D sg13g2_a21oi_1
*I *2237:X O *D sg13g2_buf_1
*CAP
1 *2053:B 2.96094e-05
2 *1923:A2 0.000488047
3 *2052:A2 5.84456e-05
4 *2237:X 8.29694e-05
5 *394:29 0.000732016
6 *394:16 0.00213305
7 *394:12 0.00630278
8 *394:10 0.00446094
9 *394:8 0.000101369
*RES
1 *2237:X *394:8 40.5974 
2 *394:8 *394:10 20 
3 *394:10 *394:12 49.852 
4 *394:12 *394:16 40.6206 
5 *394:16 *2052:A2 40.3193 
6 *394:16 *394:29 2.3999 
7 *394:29 *1923:A2 45.0882 
8 *394:29 *2053:B 40 
*END

*D_NET *395 0.0122137
*CONN
*I *1920:A2 I *D sg13g2_a22oi_1
*I *2048:A2 I *D sg13g2_a21oi_1
*I *2049:B I *D sg13g2_and3_1
*I *2238:X O *D sg13g2_buf_1
*CAP
1 *1920:A2 0.000150874
2 *2048:A2 0.000393754
3 *2049:B 1.10054e-05
4 *2238:X 0.00255417
5 *395:37 0.000865547
6 *395:28 0.000388613
7 *395:22 0.00299705
8 *395:12 0.0048527
*RES
1 *2238:X *395:12 48.1602 
2 *395:12 *395:22 25.4513 
3 *395:22 *395:28 43.811 
4 *395:28 *2049:B 20 
5 *395:22 *395:37 23.3475 
6 *395:37 *2048:A2 44.0685 
7 *395:37 *1920:A2 41.3493 
*END

*D_NET *396 0.0110893
*CONN
*I *1917:A2 I *D sg13g2_a22oi_1
*I *2044:A2 I *D sg13g2_a21oi_1
*I *2045:B I *D sg13g2_and3_1
*I *2239:X O *D sg13g2_buf_1
*CAP
1 *1917:A2 1.10054e-05
2 *2044:A2 1.10054e-05
3 *2045:B 0.000128676
4 *2239:X 2.96094e-05
5 *396:48 0.000602559
6 *396:33 0.000896988
7 *396:14 0.000826064
8 *396:10 0.00445999
9 *396:8 0.00407543
10 *396:6 4.80094e-05
*RES
1 *2239:X *396:6 40 
2 *396:6 *396:8 20 
3 *396:8 *396:10 45.526 
4 *396:10 *396:14 24.3054 
5 *396:14 *2045:B 41.097 
6 *396:14 *396:33 23.0797 
7 *396:33 *2044:A2 20 
8 *396:33 *396:48 46.18 
9 *396:48 *1917:A2 20 
*END

*D_NET *397 0.0140274
*CONN
*I *1914:A2 I *D sg13g2_a22oi_1
*I *2040:A2 I *D sg13g2_a21oi_1
*I *2041:B I *D sg13g2_and3_1
*I *2240:X O *D sg13g2_buf_1
*CAP
1 *1914:A2 0.0005067
2 *2040:A2 7.79798e-05
3 *2041:B 6.12362e-05
4 *2240:X 2.96094e-05
5 *397:35 0.00084964
6 *397:20 0.00257018
7 *397:14 0.00467645
8 *397:10 0.00382924
9 *397:6 0.00142637
*RES
1 *2240:X *397:6 40 
2 *397:6 *397:10 35.4294 
3 *397:10 *397:14 26.9345 
4 *397:14 *397:20 44.6479 
5 *397:20 *2041:B 40.3502 
6 *397:20 *397:35 2.9664 
7 *397:35 *2040:A2 40.5356 
8 *397:35 *1914:A2 45.3354 
*END

*D_NET *398 0.0149685
*CONN
*I *2037:B I *D sg13g2_and3_1
*I *2036:A2 I *D sg13g2_a21oi_1
*I *1911:A2 I *D sg13g2_a22oi_1
*I *2241:X O *D sg13g2_buf_1
*CAP
1 *2037:B 2.96094e-05
2 *2036:A2 0.000136676
3 *1911:A2 1.10054e-05
4 *2241:X 5.81294e-05
5 *398:49 0.00111166
6 *398:32 0.00159305
7 *398:18 0.00393516
8 *398:12 0.00566677
9 *398:8 0.00242641
*RES
1 *2241:X *398:8 40.3193 
2 *398:8 *398:12 46.3062 
3 *398:12 *398:18 36.5238 
4 *398:18 *398:32 46.6641 
5 *398:32 *1911:A2 20 
6 *398:32 *398:49 30.2794 
7 *398:49 *2036:A2 41.1948 
8 *398:49 *2037:B 40 
*END

*D_NET *399 0.00999524
*CONN
*I *1908:A2 I *D sg13g2_a22oi_1
*I *2033:B I *D sg13g2_and3_1
*I *2032:A2 I *D sg13g2_a21oi_1
*I *2242:X O *D sg13g2_buf_1
*CAP
1 *1908:A2 0.000200126
2 *2033:B 1.10054e-05
3 *2032:A2 1.10054e-05
4 *2242:X 2.96094e-05
5 *399:38 0.00054758
6 *399:26 0.000670144
7 *399:20 0.00209813
8 *399:14 0.00408673
9 *399:6 0.00234091
*RES
1 *2242:X *399:6 40 
2 *399:6 *399:14 45.5234 
3 *399:14 *399:20 39.4567 
4 *399:20 *399:26 21.1639 
5 *399:26 *399:38 45.5414 
6 *399:38 *2032:A2 20 
7 *399:26 *2033:B 20 
8 *399:20 *1908:A2 41.9055 
*END

*D_NET *400 0.0105104
*CONN
*I *1905:A2 I *D sg13g2_a22oi_1
*I *2029:B I *D sg13g2_and3_1
*I *2028:A2 I *D sg13g2_a21oi_1
*I *2243:X O *D sg13g2_buf_1
*CAP
1 *1905:A2 0.000247276
2 *2029:B 0.000309693
3 *2028:A2 2.96094e-05
4 *2243:X 7.79798e-05
5 *400:30 0.000543747
6 *400:26 0.00341906
7 *400:12 0.00438618
8 *400:8 0.00149682
*RES
1 *2243:X *400:8 40.5356 
2 *400:8 *400:12 35.6766 
3 *400:12 *400:26 32.857 
4 *400:26 *400:30 22.0806 
5 *400:30 *2028:A2 40 
6 *400:30 *2029:B 43.1106 
7 *400:26 *1905:A2 22.6162 
*END

*D_NET *401 0.00832824
*CONN
*I *2025:B I *D sg13g2_and3_1
*I *1902:A2 I *D sg13g2_a22oi_1
*I *2024:A2 I *D sg13g2_a21oi_1
*I *2244:X O *D sg13g2_buf_1
*CAP
1 *2025:B 5.12366e-05
2 *1902:A2 0.000509246
3 *2024:A2 2.96094e-05
4 *2244:X 0.00258115
5 *401:31 0.000774842
6 *401:20 0.00102249
7 *401:16 0.00335967
*RES
1 *2244:X *401:16 48.4589 
2 *401:16 *401:20 28.5078 
3 *401:20 *2024:A2 40 
4 *401:20 *401:31 2.3999 
5 *401:31 *1902:A2 45.3663 
6 *401:31 *2025:B 40.2395 
*END

*D_NET *402 0.00771782
*CONN
*I *2021:B I *D sg13g2_and3_1
*I *2020:A2 I *D sg13g2_a21oi_1
*I *1899:A2 I *D sg13g2_a22oi_1
*I *2245:X O *D sg13g2_buf_1
*CAP
1 *2021:B 0.000249137
2 *2020:A2 1.10054e-05
3 *1899:A2 0.000458329
4 *2245:X 0.00161467
5 *402:23 0.000278746
6 *402:12 0.0019841
7 *402:8 0.00312183
*RES
1 *2245:X *402:8 37.7572 
2 *402:8 *402:12 36.6654 
3 *402:12 *1899:A2 44.7998 
4 *402:12 *402:23 20 
5 *402:23 *2020:A2 20 
6 *402:23 *2021:B 22.6368 
*END

*D_NET *403 0.00700801
*CONN
*I *2016:A2 I *D sg13g2_a21oi_1
*I *2017:B I *D sg13g2_and3_1
*I *1896:A2 I *D sg13g2_a22oi_1
*I *2246:X O *D sg13g2_buf_1
*CAP
1 *2016:A2 0.000442173
2 *2017:B 0.000149209
3 *1896:A2 0.000133886
4 *2246:X 0.000561684
5 *403:29 0.00116532
6 *403:12 0.00235094
7 *403:10 0.0022048
*RES
1 *2246:X *403:10 45.8916 
2 *403:10 *403:12 18.3958 
3 *403:12 *1896:A2 41.1639 
4 *403:12 *403:29 45.9431 
5 *403:29 *2017:B 41.339 
6 *403:29 *2016:A2 44.5938 
*END

*D_NET *404 0.00464106
*CONN
*I *1960:A2 I *D sg13g2_a22oi_1
*I *1866:A2 I *D sg13g2_a21oi_1
*I *1867:B I *D sg13g2_and3_1
*I *2247:X O *D sg13g2_buf_1
*CAP
1 *1960:A2 0.000435177
2 *1866:A2 1.10054e-05
3 *1867:B 2.96094e-05
4 *2247:X 0.000344017
5 *404:25 0.000650626
6 *404:14 0.00153033
7 *404:10 0.0016403
*RES
1 *2247:X *404:10 43.4814 
2 *404:10 *404:14 14.5127 
3 *404:14 *1867:B 40 
4 *404:14 *404:25 22.0806 
5 *404:25 *1866:A2 20 
6 *404:25 *1960:A2 24.6968 
*END

*D_NET *405 0.00747063
*CONN
*I *2012:A2 I *D sg13g2_a21oi_1
*I *2013:B I *D sg13g2_and3_1
*I *1893:A2 I *D sg13g2_a22oi_1
*I *2248:X O *D sg13g2_buf_1
*CAP
1 *2012:A2 0.000214719
2 *2013:B 5.84456e-05
3 *1893:A2 0.000354369
4 *2248:X 0.000351459
5 *405:12 0.000598655
6 *405:10 0.00297104
7 *405:8 0.00292194
*RES
1 *2248:X *405:8 43.5638 
2 *405:8 *405:10 28.7782 
3 *405:10 *405:12 2.0806 
4 *405:12 *1893:A2 43.6359 
5 *405:12 *2013:B 40.3193 
6 *405:10 *2012:A2 42.0497 
*END

*D_NET *406 0.0081561
*CONN
*I *1890:A2 I *D sg13g2_a22oi_1
*I *2009:B I *D sg13g2_and3_1
*I *2008:A2 I *D sg13g2_a21oi_1
*I *2249:X O *D sg13g2_buf_1
*CAP
1 *1890:A2 0.000352389
2 *2009:B 3.98416e-05
3 *2008:A2 5.84456e-05
4 *2249:X 0.00105097
5 *406:27 0.000644514
6 *406:12 0.00263485
7 *406:8 0.00337509
*RES
1 *2249:X *406:8 31.5154 
2 *406:8 *406:12 45.8118 
3 *406:12 *2008:A2 40.3193 
4 *406:12 *406:27 22.6162 
5 *406:27 *2009:B 20.3193 
6 *406:27 *1890:A2 23.7801 
*END

*D_NET *407 0.0101352
*CONN
*I *2005:B I *D sg13g2_and3_1
*I *1887:A2 I *D sg13g2_a22oi_1
*I *2004:A2 I *D sg13g2_a21oi_1
*I *2250:X O *D sg13g2_buf_1
*CAP
1 *2005:B 0.000117048
2 *1887:A2 0.000253637
3 *2004:A2 3.98416e-05
4 *2250:X 0.00173932
5 *407:29 0.000643033
6 *407:16 0.000330794
7 *407:14 0.00264541
8 *407:6 0.00436612
*RES
1 *2250:X *407:6 39.1374 
2 *407:6 *407:14 49.2005 
3 *407:14 *407:16 20 
4 *407:16 *2004:A2 20.3193 
5 *407:16 *407:29 22.8325 
6 *407:29 *1887:A2 42.4926 
7 *407:29 *2005:B 40.9682 
*END

*D_NET *408 0.0131643
*CONN
*I *1884:A2 I *D sg13g2_a22oi_1
*I *2001:B I *D sg13g2_and3_1
*I *2000:A2 I *D sg13g2_a21oi_1
*I *2251:X O *D sg13g2_buf_1
*CAP
1 *1884:A2 3.98416e-05
2 *2001:B 1.10054e-05
3 *2000:A2 1.10054e-05
4 *2251:X 0.000133792
5 *408:45 0.000352238
6 *408:28 0.00106749
7 *408:20 0.000822064
8 *408:16 0.00243526
9 *408:12 0.00526307
10 *408:10 0.00302857
*RES
1 *2251:X *408:10 21.3596 
2 *408:10 *408:12 32.0536 
3 *408:12 *408:16 46.3062 
4 *408:16 *408:20 20.5356 
5 *408:20 *408:28 47.5911 
6 *408:28 *2000:A2 20 
7 *408:28 *408:45 43.3784 
8 *408:45 *2001:B 20 
9 *408:20 *1884:A2 20.3193 
*END

*D_NET *409 0.0121178
*CONN
*I *1996:A2 I *D sg13g2_a21oi_1
*I *1997:B I *D sg13g2_and3_1
*I *1881:A2 I *D sg13g2_a22oi_1
*I *2252:X O *D sg13g2_buf_1
*CAP
1 *1996:A2 1.10054e-05
2 *1997:B 9.84442e-05
3 *1881:A2 1.10054e-05
4 *2252:X 2.96094e-05
5 *409:56 0.000415736
6 *409:39 0.000521779
7 *409:37 0.000937713
8 *409:24 0.001109
9 *409:18 0.00301507
10 *409:10 0.0043875
11 *409:6 0.00158093
*RES
1 *2252:X *409:6 40 
2 *409:6 *409:10 37.1598 
3 *409:10 *409:18 31.4047 
4 *409:18 *409:24 41.5862 
5 *409:24 *1881:A2 20 
6 *409:24 *409:37 30.0734 
7 *409:37 *409:39 20 
8 *409:39 *1997:B 20.9682 
9 *409:39 *409:56 44.0788 
10 *409:56 *1996:A2 20 
*END

*D_NET *410 0.00390775
*CONN
*I *1990:B I *D sg13g2_nand2_1
*I *1879:A2 I *D sg13g2_a22oi_1
*I *2253:X O *D sg13g2_buf_1
*CAP
1 *1990:B 0.00040355
2 *1879:A2 1.10054e-05
3 *2253:X 2.96094e-05
4 *410:12 0.00192427
5 *410:6 0.00153932
*RES
1 *2253:X *410:6 40 
2 *410:6 *410:12 36.6448 
3 *410:12 *1879:A2 20 
4 *410:12 *1990:B 24.3466 
*END

*D_NET *411 0.00248688
*CONN
*I *1985:B I *D sg13g2_nand2_1
*I *1877:A2 I *D sg13g2_a22oi_1
*I *2254:X O *D sg13g2_buf_1
*CAP
1 *1985:B 1.10054e-05
2 *1877:A2 1.10054e-05
3 *2254:X 0.000458329
4 *411:18 0.000101573
5 *411:12 0.000774108
6 *411:8 0.00113086
*RES
1 *2254:X *411:8 44.7998 
2 *411:8 *411:12 27.2409 
3 *411:12 *411:18 40.5974 
4 *411:18 *1877:A2 20 
5 *411:12 *1985:B 20 
*END

*D_NET *412 0.00132688
*CONN
*I *1980:B I *D sg13g2_nand2_1
*I *1875:A2 I *D sg13g2_a22oi_1
*I *2255:X O *D sg13g2_buf_1
*CAP
1 *1980:B 2.96094e-05
2 *1875:A2 0.000281689
3 *2255:X 0.00035214
4 *412:10 0.000663439
*RES
1 *2255:X *412:10 43.605 
2 *412:10 *1875:A2 42.8222 
3 *412:10 *1980:B 40 
*END

*D_NET *413 0.00243088
*CONN
*I *1975:B I *D sg13g2_nand2_1
*I *1873:A2 I *D sg13g2_a22oi_1
*I *2256:X O *D sg13g2_buf_1
*CAP
1 *1975:B 5.84456e-05
2 *1873:A2 0.000507581
3 *2256:X 0.000649412
4 *413:10 0.00121544
*RES
1 *2256:X *413:10 46.8804 
2 *413:10 *1873:A2 45.3045 
3 *413:10 *1975:B 40.3193 
*END

*D_NET *414 0.00225593
*CONN
*I *1871:A2 I *D sg13g2_a22oi_1
*I *1970:B I *D sg13g2_nand2_1
*I *2257:X O *D sg13g2_buf_1
*CAP
1 *1871:A2 3.98416e-05
2 *1970:B 1.10054e-05
3 *2257:X 0.000929113
4 *414:20 0.000159013
5 *414:10 0.00111696
*RES
1 *2257:X *414:10 30.1661 
2 *414:10 *414:20 41.2334 
3 *414:20 *1970:B 20 
4 *414:10 *1871:A2 20.3193 
*END

*D_NET *415 0.00628423
*CONN
*I *1863:B I *D sg13g2_and3_1
*I *1957:A2 I *D sg13g2_a22oi_1
*I *1862:A2 I *D sg13g2_a21oi_1
*I *2258:X O *D sg13g2_buf_1
*CAP
1 *1863:B 1.10054e-05
2 *1957:A2 0.000247276
3 *1862:A2 1.10054e-05
4 *2258:X 0.000195185
5 *415:32 0.00048133
6 *415:26 0.00268865
7 *415:8 0.00264978
*RES
1 *2258:X *415:8 41.8334 
2 *415:8 *415:26 47.1508 
3 *415:26 *415:32 42.0806 
4 *415:32 *1862:A2 20 
5 *415:32 *1957:A2 22.6162 
6 *415:26 *1863:B 20 
*END

*D_NET *416 0.00377487
*CONN
*I *1965:B I *D sg13g2_nand2_1
*I *1869:A2 I *D sg13g2_a22oi_1
*I *2259:X O *D sg13g2_buf_1
*CAP
1 *1965:B 0.000200126
2 *1869:A2 0.000214719
3 *2259:X 0.00122399
4 *416:12 0.000663449
5 *416:8 0.00147259
*RES
1 *2259:X *416:8 33.4312 
2 *416:8 *416:12 22.575 
3 *416:12 *1869:A2 42.0497 
4 *416:12 *1965:B 41.9055 
*END

*D_NET *417 0.00169847
*CONN
*I *1948:A2 I *D sg13g2_a21oi_1
*I *1947:B I *D sg13g2_and3_1
*I *2260:X O *D sg13g2_buf_1
*CAP
1 *1948:A2 3.98416e-05
2 *1947:B 1.10054e-05
3 *2260:X 0.00044046
4 *417:22 0.00026289
5 *417:14 0.000397769
6 *417:10 0.000546503
*RES
1 *2260:X *417:10 44.5938 
2 *417:10 *417:14 20.9682 
3 *417:14 *417:22 42.3999 
4 *417:22 *1947:B 20 
5 *417:14 *1948:A2 20.3193 
*END

*D_NET *418 0.0118157
*CONN
*I *1858:A2 I *D sg13g2_a21oi_1
*I *1944:A2 I *D sg13g2_a22oi_1
*I *1859:B I *D sg13g2_and3_1
*I *2261:X O *D sg13g2_buf_1
*CAP
1 *1858:A2 1.10054e-05
2 *1944:A2 0.000430925
3 *1859:B 0.000196417
4 *2261:X 0.000685569
5 *418:40 0.000743467
6 *418:36 0.0020666
7 *418:30 0.00425091
8 *418:22 0.00252834
9 *418:10 0.000902463
*RES
1 *2261:X *418:10 47.3439 
2 *418:10 *418:22 42.0188 
3 *418:22 *418:30 45.647 
4 *418:30 *418:36 21.4755 
5 *418:36 *418:40 21.0918 
6 *418:40 *1859:B 41.8617 
7 *418:40 *1944:A2 44.4496 
8 *418:36 *1858:A2 20 
*END

*D_NET *419 0.00522409
*CONN
*I *1855:B I *D sg13g2_and3_1
*I *1854:A2 I *D sg13g2_a21oi_1
*I *1941:A2 I *D sg13g2_a22oi_1
*I *2262:X O *D sg13g2_buf_1
*CAP
1 *1855:B 5.84456e-05
2 *1854:A2 1.10054e-05
3 *1941:A2 1.10054e-05
4 *2262:X 8.29694e-05
5 *419:30 0.000225486
6 *419:20 0.000370446
7 *419:14 0.000221806
8 *419:12 0.00208918
9 *419:8 0.00215375
*RES
1 *2262:X *419:8 40.5974 
2 *419:8 *419:12 43.0308 
3 *419:12 *419:14 20 
4 *419:14 *419:20 21.4111 
5 *419:20 *419:30 41.9776 
6 *419:30 *1941:A2 20 
7 *419:20 *1854:A2 20 
8 *419:14 *1855:B 40.3193 
*END

*D_NET *420 0.00842222
*CONN
*I *1851:B I *D sg13g2_and3_1
*I *1850:A2 I *D sg13g2_a21oi_1
*I *1938:A2 I *D sg13g2_a22oi_1
*I *2263:X O *D sg13g2_buf_1
*CAP
1 *1851:B 0.000291926
2 *1850:A2 1.10054e-05
3 *1938:A2 0.000117048
4 *2263:X 0.00151979
5 *420:35 0.000661054
6 *420:20 0.00238839
7 *420:14 0.00343301
*RES
1 *2263:X *420:14 36.7066 
2 *420:14 *420:20 41.0017 
3 *420:20 *1938:A2 40.9682 
4 *420:20 *420:35 23.7904 
5 *420:35 *1850:A2 20 
6 *420:35 *1851:B 23.1106 
*END

*D_NET *421 0.00954621
*CONN
*I *1935:A2 I *D sg13g2_a22oi_1
*I *1846:A2 I *D sg13g2_a21oi_1
*I *1847:B I *D sg13g2_and3_1
*I *2264:X O *D sg13g2_buf_1
*CAP
1 *1935:A2 0.000278903
2 *1846:A2 1.10054e-05
3 *1847:B 1.10054e-05
4 *2264:X 0.0013291
5 *421:37 0.000348664
6 *421:29 0.000845391
7 *421:18 0.00243883
8 *421:12 0.0025766
9 *421:6 0.00170671
*RES
1 *2264:X *421:6 34.5951 
2 *421:6 *421:12 43.811 
3 *421:12 *421:18 24.3492 
4 *421:18 *1847:B 20 
5 *421:18 *421:29 2.5338 
6 *421:29 *421:37 43.3578 
7 *421:37 *1846:A2 20 
8 *421:29 *1935:A2 22.9664 
*END

*D_NET *422 0.00929563
*CONN
*I *1842:A2 I *D sg13g2_a21oi_1
*I *1843:B I *D sg13g2_and3_1
*I *1932:A2 I *D sg13g2_a22oi_1
*I *2265:X O *D sg13g2_buf_1
*CAP
1 *1842:A2 2.96094e-05
2 *1843:B 0.000234253
3 *1932:A2 0.000237529
4 *2265:X 0.00031053
5 *422:20 0.000569303
6 *422:18 0.000574453
7 *422:14 0.00373837
8 *422:12 0.00360158
*RES
1 *2265:X *422:12 23.3166 
2 *422:12 *422:14 36.4414 
3 *422:14 *422:18 24.7998 
4 *422:18 *422:20 1.0918 
5 *422:20 *1932:A2 42.3278 
6 *422:20 *1843:B 42.266 
7 *422:18 *1842:A2 40 
*END

*D_NET *423 0.0139312
*CONN
*I *2060:A2 I *D sg13g2_a21oi_1
*I *2061:B I *D sg13g2_and3_1
*I *1929:A2 I *D sg13g2_a22oi_1
*I *2266:X O *D sg13g2_buf_1
*CAP
1 *2060:A2 0.000256578
2 *2061:B 1.10054e-05
3 *1929:A2 1.10054e-05
4 *2266:X 2.96094e-05
5 *423:33 0.000688324
6 *423:18 0.000596391
7 *423:14 0.00264313
8 *423:10 0.00605362
9 *423:8 0.00359354
10 *423:6 4.80094e-05
*RES
1 *2266:X *423:6 40 
2 *423:6 *423:8 20 
3 *423:8 *423:10 40.1185 
4 *423:10 *423:14 47.5422 
5 *423:14 *423:18 21.6171 
6 *423:18 *1929:A2 20 
7 *423:18 *423:33 44.2642 
8 *423:33 *2061:B 20 
9 *423:33 *2060:A2 22.7192 
*END

*D_NET *424 0.0129479
*CONN
*I *2057:B I *D sg13g2_and3_1
*I *1926:A2 I *D sg13g2_a22oi_1
*I *2056:A2 I *D sg13g2_a21oi_1
*I *2267:X O *D sg13g2_buf_1
*CAP
1 *2057:B 5.84456e-05
2 *1926:A2 0.000397328
3 *2056:A2 1.10054e-05
4 *2267:X 1.10054e-05
5 *424:33 0.000689054
6 *424:22 0.000350328
7 *424:18 0.00152489
8 *424:14 0.00565683
9 *424:4 0.004249
*RES
1 *2267:X *424:4 20 
2 *424:4 *424:14 46.9268 
3 *424:14 *424:18 35.6766 
4 *424:18 *424:22 20.9682 
5 *424:22 *2056:A2 20 
6 *424:22 *424:33 22.3999 
7 *424:33 *1926:A2 44.0891 
8 *424:33 *2057:B 40.3193 
*END

*D_NET *425 0.000293316
*CONN
*I *1950:B_N I *D sg13g2_nor2b_1
*I *2268:X O *D sg13g2_buf_1
*CAP
1 *1950:B_N 0.000146658
2 *2268:X 0.000146658
*RES
1 *2268:X *1950:B_N 41.3802 
*END

*D_NET *426 0.0118133
*CONN
*I *1898:A I *D sg13g2_nor3_1
*I *2014:A I *D sg13g2_nor3_1
*I *2018:A I *D sg13g2_nor3_1
*I *1901:A I *D sg13g2_nor3_1
*I *1892:A I *D sg13g2_nor3_1
*I *2010:A I *D sg13g2_nor3_1
*I *1889:A I *D sg13g2_nor3_1
*I *1895:A I *D sg13g2_nor3_1
*I *2225:X O *D sg13g2_buf_1
*CAP
1 *1898:A 1.10054e-05
2 *2014:A 1.10054e-05
3 *2018:A 1.10054e-05
4 *1901:A 1.10054e-05
5 *1892:A 2.96094e-05
6 *2010:A 0.000422154
7 *1889:A 1.10054e-05
8 *1895:A 0.000647699
9 *2225:X 0.000105049
10 *426:104 0.000636389
11 *426:92 0.000781501
12 *426:78 0.00106744
13 *426:43 0.00144243
14 *426:31 0.00190694
15 *426:29 0.000710409
16 *426:27 0.00170248
17 *426:25 0.000643541
18 *426:10 0.00133707
19 *426:8 0.000325601
*RES
1 *2225:X *426:8 40.8446 
2 *426:8 *426:10 0.8446 
3 *426:10 *1895:A 46.8804 
4 *426:10 *426:25 26.592 
5 *426:25 *426:27 20 
6 *426:27 *426:29 7.0246 
7 *426:29 *426:31 0.5974 
8 *426:31 *426:43 35.656 
9 *426:43 *1889:A 20 
10 *426:31 *2010:A 44.3466 
11 *426:29 *1892:A 40 
12 *426:27 *426:78 31.5154 
13 *426:78 *1901:A 20 
14 *426:25 *2018:A 20 
15 *426:8 *426:92 21.4008 
16 *426:92 *426:104 46.5302 
17 *426:104 *2014:A 20 
18 *426:92 *1898:A 20 
*END

*D_NET *427 0.0159216
*CONN
*I *1984:A I *D sg13g2_nor2_1
*I *1904:A I *D sg13g2_nor3_1
*I *1878:A I *D sg13g2_nor3_1
*I *1989:A I *D sg13g2_nor2_1
*I *1880:A I *D sg13g2_nor3_1
*I *2006:A I *D sg13g2_nor3_1
*I *2225:A I *D sg13g2_buf_1
*I *1876:A I *D sg13g2_nor3_1
*I *2226:X O *D sg13g2_buf_1
*CAP
1 *1984:A 7.79798e-05
2 *1904:A 1.10054e-05
3 *1878:A 9.7514e-05
4 *1989:A 1.10054e-05
5 *1880:A 2.96094e-05
6 *2006:A 0.000136582
7 *2225:A 0.000227742
8 *1876:A 0.000747915
9 *2226:X 0.000171289
10 *427:106 0.0015522
11 *427:91 0.00186689
12 *427:80 0.000796384
13 *427:56 0.00229621
14 *427:37 0.00296717
15 *427:33 0.00133161
16 *427:29 0.0017555
17 *427:10 0.00140987
18 *427:8 0.000435109
*RES
1 *2226:X *427:8 41.5862 
2 *427:8 *427:10 2.0806 
3 *427:10 *1876:A 47.9928 
4 *427:10 *427:29 44.8719 
5 *427:29 *427:33 8.0855 
6 *427:33 *427:37 26.283 
7 *427:37 *2225:A 22.3999 
8 *427:37 *427:56 43.8033 
9 *427:56 *2006:A 41.1845 
10 *427:33 *1880:A 40 
11 *427:29 *427:80 25.9637 
12 *427:80 *1989:A 20 
13 *427:80 *427:91 22.3381 
14 *427:91 *1878:A 40.7519 
15 *427:91 *427:106 36.9229 
16 *427:106 *1904:A 20 
17 *427:8 *1984:A 40.5356 
*END

*D_NET *428 0.010679
*CONN
*I *2062:A I *D sg13g2_nor3_1
*I *2058:A I *D sg13g2_nor3_1
*I *1928:A I *D sg13g2_nor3_1
*I *1931:A I *D sg13g2_nor3_1
*I *1998:A I *D sg13g2_nor3_1
*I *1886:A I *D sg13g2_nor3_1
*I *2002:A I *D sg13g2_nor3_1
*I *1883:A I *D sg13g2_nor3_1
*I *2227:X O *D sg13g2_buf_1
*CAP
1 *2062:A 9.7514e-05
2 *2058:A 0.000180302
3 *1928:A 1.10054e-05
4 *1931:A 1.10054e-05
5 *1998:A 0.000155966
6 *1886:A 5.84456e-05
7 *2002:A 0.000648531
8 *1883:A 0.000400602
9 *2227:X 0.0012105
10 *428:88 0.000442908
11 *428:78 0.00152752
12 *428:67 0.000994227
13 *428:34 0.0011357
14 *428:32 0.00123769
15 *428:28 0.00119031
16 *428:24 0.00137681
*RES
1 *2227:X *1883:A 44.1921 
2 *2227:X *428:24 48.7035 
3 *428:24 *428:28 25.047 
4 *428:28 *428:32 27.0246 
5 *428:32 *428:34 4.7998 
6 *428:34 *2002:A 46.9113 
7 *428:34 *1886:A 40.3193 
8 *428:32 *1998:A 41.4111 
9 *428:28 *428:67 0.7519 
10 *428:67 *1931:A 20 
11 *428:67 *428:78 10.1352 
12 *428:78 *428:88 44.3878 
13 *428:88 *1928:A 20 
14 *428:78 *2058:A 21.8746 
15 *428:24 *2062:A 40.7519 
*END

*D_NET *429 0.00814386
*CONN
*I *2050:A I *D sg13g2_nor3_1
*I *1922:A I *D sg13g2_nor3_1
*I *1925:A I *D sg13g2_nor3_1
*I *2054:A I *D sg13g2_nor3_1
*I *1934:A I *D sg13g2_nor3_1
*I *1940:A I *D sg13g2_nor3_1
*I *2228:X O *D sg13g2_buf_1
*CAP
1 *2050:A 1.10054e-05
2 *1922:A 1.10054e-05
3 *1925:A 0.000479826
4 *2054:A 1.10054e-05
5 *1934:A 1.10054e-05
6 *1940:A 7.891e-05
7 *2228:X 0.000193369
8 *429:72 0.000167813
9 *429:66 0.00115
10 *429:42 0.00100097
11 *429:36 0.00212579
12 *429:27 0.000712376
13 *429:25 0.000974601
14 *429:10 0.00100421
15 *429:8 0.000211973
*RES
1 *2228:X *429:8 41.8334 
2 *429:8 *429:10 20 
3 *429:10 *1940:A 20.7519 
4 *429:10 *429:25 49.6614 
5 *429:25 *429:27 0.7519 
6 *429:27 *1934:A 20 
7 *429:27 *429:36 26.8083 
8 *429:36 *429:42 25.4899 
9 *429:42 *2054:A 20 
10 *429:42 *1925:A 25.1912 
11 *429:36 *429:66 30.7223 
12 *429:66 *429:72 41.339 
13 *429:72 *1922:A 20 
14 *429:66 *2050:A 20 
*END

*D_NET *430 0.00931919
*CONN
*I *2226:A I *D sg13g2_buf_1
*I *2227:A I *D sg13g2_buf_1
*I *2228:A I *D sg13g2_buf_1
*I *2022:A I *D sg13g2_nor3_1
*I *1994:A I *D sg13g2_nor2_1
*I *2229:X O *D sg13g2_buf_1
*CAP
1 *2226:A 0.000362621
2 *2227:A 0.000230533
3 *2228:A 1.10054e-05
4 *2022:A 1.10054e-05
5 *1994:A 1.10054e-05
6 *2229:X 1.10054e-05
7 *430:46 0.000808133
8 *430:40 0.0021746
9 *430:29 0.00135514
10 *430:20 0.000255648
11 *430:16 0.00188115
12 *430:4 0.00220734
*RES
1 *2229:X *430:4 20 
2 *430:4 *430:16 40.1674 
3 *430:16 *430:20 20.3193 
4 *430:20 *1994:A 20 
5 *430:20 *430:29 2.1836 
6 *430:29 *2022:A 20 
7 *430:29 *430:40 12.6999 
8 *430:40 *430:46 48.5078 
9 *430:46 *2228:A 20 
10 *430:40 *2227:A 22.4308 
11 *430:4 *2226:A 23.8934 
*END

*D_NET *431 0.0106857
*CONN
*I *1907:A I *D sg13g2_nor3_1
*I *2038:A I *D sg13g2_nor3_1
*I *1919:A I *D sg13g2_nor3_1
*I *1916:A I *D sg13g2_nor3_1
*I *1913:A I *D sg13g2_nor3_1
*I *2034:A I *D sg13g2_nor3_1
*I *1910:A I *D sg13g2_nor3_1
*I *2030:A I *D sg13g2_nor3_1
*I *2230:X O *D sg13g2_buf_1
*CAP
1 *1907:A 1.10054e-05
2 *2038:A 4.26322e-05
3 *1919:A 9.7514e-05
4 *1916:A 1.10054e-05
5 *1913:A 1.10054e-05
6 *2034:A 1.10054e-05
7 *1910:A 1.10054e-05
8 *2030:A 7.891e-05
9 *2230:X 1.10054e-05
10 *431:107 0.000459064
11 *431:83 0.00114266
12 *431:72 0.00183546
13 *431:64 0.00135401
14 *431:49 0.00117748
15 *431:36 0.000947717
16 *431:29 0.000727402
17 *431:19 0.00155088
18 *431:6 0.000678983
19 *431:4 0.000526968
*RES
1 *2230:X *431:4 20 
2 *431:4 *431:6 0.7519 
3 *431:6 *2030:A 20.7519 
4 *431:6 *431:19 45.5414 
5 *431:19 *431:29 47.5705 
6 *431:29 *1910:A 20 
7 *431:19 *431:36 3.3475 
8 *431:36 *2034:A 20 
9 *431:36 *431:49 7.0246 
10 *431:49 *1913:A 20 
11 *431:49 *431:64 5.8916 
12 *431:64 *431:72 48.24 
13 *431:72 *1916:A 20 
14 *431:72 *431:83 31.4845 
15 *431:83 *1919:A 40.7519 
16 *431:64 *2038:A 20.3502 
17 *431:4 *431:107 44.5938 
18 *431:107 *1907:A 20 
*END

*D_NET *432 0.0136016
*CONN
*I *2042:A I *D sg13g2_nor3_1
*I *1937:A I *D sg13g2_nor3_1
*I *2046:A I *D sg13g2_nor3_1
*I *2026:A I *D sg13g2_nor3_1
*I *1852:A I *D sg13g2_nor3_1
*I *1844:A I *D sg13g2_nor3_1
*I *1848:A I *D sg13g2_nor3_1
*I *2230:A I *D sg13g2_buf_1
*I *2231:X O *D sg13g2_buf_1
*CAP
1 *2042:A 0.000508662
2 *1937:A 7.79798e-05
3 *2046:A 0.000898416
4 *2026:A 5.84456e-05
5 *1852:A 0.000234253
6 *1844:A 0.000754721
7 *1848:A 5.93758e-05
8 *2230:A 5.93758e-05
9 *2231:X 0.000171289
10 *432:86 0.000925241
11 *432:58 0.00126313
12 *432:56 0.00127916
13 *432:45 0.00069347
14 *432:35 0.00182303
15 *432:33 0.000578664
16 *432:29 0.000855482
17 *432:21 0.00219261
18 *432:10 0.000978413
19 *432:8 0.000189893
*RES
1 *2231:X *432:8 41.5862 
2 *432:8 *432:10 20 
3 *432:10 *2230:A 20.5356 
4 *432:10 *432:21 9.9704 
5 *432:21 *432:29 48.3327 
6 *432:29 *432:33 20.5974 
7 *432:33 *432:35 4.7998 
8 *432:35 *432:45 25.2942 
9 *432:45 *1848:A 20.5356 
10 *432:45 *432:56 21.339 
11 *432:56 *432:58 3.0694 
12 *432:58 *1844:A 48.0546 
13 *432:58 *1852:A 42.266 
14 *432:56 *432:86 49.1979 
15 *432:86 *2026:A 40.3193 
16 *432:35 *2046:A 49.6202 
17 *432:33 *1937:A 40.5356 
18 *432:21 *2042:A 25.5105 
*END

*D_NET *433 0.0113933
*CONN
*I *2231:A I *D sg13g2_buf_1
*I *1946:A I *D sg13g2_nor3_1
*I *1860:A I *D sg13g2_nor3_1
*I *1856:A I *D sg13g2_nor3_1
*I *1943:A I *D sg13g2_nor3_1
*I *1870:A I *D sg13g2_nor3_1
*I *1969:A I *D sg13g2_nor2_1
*I *2232:X O *D sg13g2_buf_1
*CAP
1 *2231:A 0.00106585
2 *1946:A 0.000200126
3 *1860:A 0.000370993
4 *1856:A 0.000330994
5 *1943:A 1.10054e-05
6 *1870:A 1.10054e-05
7 *1969:A 0.000330994
8 *2232:X 1.10054e-05
9 *433:80 0.00125026
10 *433:74 0.00203428
11 *433:41 0.000829332
12 *433:24 0.00187595
13 *433:16 0.00140742
14 *433:10 0.00118227
15 *433:4 0.000481776
*RES
1 *2232:X *433:4 20 
2 *433:4 *433:10 21.8128 
3 *433:10 *433:16 27.2821 
4 *433:16 *433:24 47.6838 
5 *433:24 *1969:A 23.5432 
6 *433:24 *433:41 48.7344 
7 *433:41 *1870:A 20 
8 *433:16 *1943:A 20 
9 *433:10 *1856:A 43.3372 
10 *433:4 *433:74 42.8222 
11 *433:74 *433:80 27.3748 
12 *433:80 *1860:A 43.7801 
13 *433:80 *1946:A 41.9055 
14 *433:74 *2231:A 31.6802 
*END

*D_NET *434 0.0101692
*CONN
*I *1864:A I *D sg13g2_nor3_1
*I *1872:A I *D sg13g2_nor3_1
*I *2269:A I *D sg13g2_buf_8
*I *1950:A I *D sg13g2_nor2b_1
*I *1979:A I *D sg13g2_nor2_1
*I *1874:A I *D sg13g2_nor3_1
*I *1949:A I *D sg13g2_nor3_1
*I *1956:A I *D sg13g2_nor2b_1
*I *2233:X O *D sg13g2_buf_1
*CAP
1 *1864:A 1.10054e-05
2 *1872:A 0.000393754
3 *2269:A 1.10054e-05
4 *1950:A 0.000157047
5 *1979:A 5.84456e-05
6 *1874:A 0.000606566
7 *1949:A 1.10054e-05
8 *1956:A 1.10054e-05
9 *2233:X 0.000237529
10 *434:107 0.00103407
11 *434:90 0.00208936
12 *434:81 0.00137365
13 *434:66 0.0013828
14 *434:53 0.00066953
15 *434:31 0.000740452
16 *434:25 0.00059892
17 *434:12 0.00047858
18 *434:8 0.000304504
*RES
1 *2233:X *434:8 42.3278 
2 *434:8 *434:12 20.5356 
3 *434:12 *1956:A 20 
4 *434:12 *434:25 24.2333 
5 *434:25 *434:31 21.1639 
6 *434:31 *1949:A 20 
7 *434:31 *1874:A 26.5946 
8 *434:25 *434:53 0.8446 
9 *434:53 *1979:A 40.3193 
10 *434:53 *434:66 25.7886 
11 *434:66 *1950:A 21.6171 
12 *434:66 *434:81 47.2821 
13 *434:81 *2269:A 20 
14 *434:81 *434:90 27.2409 
15 *434:90 *1872:A 44.0685 
16 *434:90 *434:107 31.2373 
17 *434:107 *1864:A 20 
*END

*D_NET *435 0.00749649
*CONN
*I *1974:A I *D sg13g2_nor2_1
*I *1959:A I *D sg13g2_nor3_1
*I *1962:A I *D sg13g2_nor3_1
*I *1868:A I *D sg13g2_nor3_1
*I *1964:A I *D sg13g2_nor3_1
*I *1955:A I *D sg13g2_nor2_1
*I *2234:X O *D sg13g2_buf_1
*CAP
1 *1974:A 1.10054e-05
2 *1959:A 1.10054e-05
3 *1962:A 1.10054e-05
4 *1868:A 1.10054e-05
5 *1964:A 0.000412852
6 *1955:A 1.10054e-05
7 *2234:X 0.000202627
8 *435:81 0.000372457
9 *435:68 0.000949671
10 *435:45 0.000968275
11 *435:27 0.0007139
12 *435:19 0.00106509
13 *435:15 0.00183043
14 *435:8 0.000926165
*RES
1 *2234:X *435:8 22.1218 
2 *435:8 *1955:A 20 
3 *435:8 *435:15 7.8898 
4 *435:15 *435:19 28.2606 
5 *435:19 *435:27 23.0282 
6 *435:27 *1964:A 24.4496 
7 *435:27 *1868:A 20 
8 *435:19 *435:45 20 
9 *435:45 *1962:A 20 
10 *435:45 *435:68 49.991 
11 *435:68 *1959:A 20 
12 *435:15 *435:81 43.605 
13 *435:81 *1974:A 20 
*END

*D_NET *2 0.00357546
*CONN
*P p O
*I *2063:Q O *D sg13g2_dfrbpq_1
*CAP
1 p 0.00104559
2 *2063:Q 0.000742143
3 *2:8 0.00178773
*RES
1 *2063:Q *2:8 47.8898 
2 *2:8 p 31.4948 
*END

*D_NET *3 0.00210458
*CONN
*P rst I
*I *2235:A I *D sg13g2_buf_1
*CAP
1 rst 0.000445953
2 *2235:A 0.000606333
3 *3:11 0.00105229
*RES
1 rst *3:11 44.5732 
2 *3:11 *2235:A 26.592 
*END

*D_NET *436 0.00366754
*CONN
*I *1963:B2 I *D sg13g2_a22oi_1
*I *1952:B I *D sg13g2_nor2_1
*I *1953:B I *D sg13g2_xnor2_1
*I *2064:Q O *D sg13g2_dfrbpq_1
*CAP
1 *1963:B2 5.93758e-05
2 *1952:B 0.000188674
3 *1953:B 0.000261274
4 *2064:Q 0.000214719
5 *436:23 0.000266653
6 *436:10 0.001371
7 *436:8 0.00130584
*RES
1 *2064:Q *436:8 42.0497 
2 *436:8 *436:10 12.2158 
3 *436:10 *1953:B 42.5853 
4 *436:10 *436:23 20 
5 *436:23 *1952:B 21.9673 
6 *436:23 *1963:B2 20.5356 
*END

*D_NET *437 0.00355796
*CONN
*I *2051:B I *D sg13g2_xor2_1
*I *1923:B2 I *D sg13g2_a22oi_1
*I *1924:B I *D sg13g2_nor2_1
*I *2074:Q O *D sg13g2_dfrbpq_1
*CAP
1 *2051:B 0.000117048
2 *1923:B2 0.000136582
3 *1924:B 0.000236648
4 *2074:Q 7.79798e-05
5 *437:12 0.000514911
6 *437:10 0.00132777
7 *437:8 0.00114702
*RES
1 *2074:Q *437:8 40.5356 
2 *437:8 *437:10 11.9686 
3 *437:10 *437:12 1.5862 
4 *437:12 *1924:B 42.3072 
5 *437:12 *1923:B2 41.1845 
6 *437:10 *2051:B 40.9682 
*END

*D_NET *438 0.00349953
*CONN
*I *2047:B I *D sg13g2_xor2_1
*I *1920:B2 I *D sg13g2_a22oi_1
*I *1921:B I *D sg13g2_nor2_1
*I *2075:Q O *D sg13g2_dfrbpq_1
*CAP
1 *2047:B 0.000372808
2 *1920:B2 0.000117048
3 *1921:B 5.84456e-05
4 *2075:Q 0.000877849
5 *438:33 0.000336701
6 *438:21 0.000696421
7 *438:8 0.00104026
*RES
1 *2075:Q *438:8 49.4966 
2 *438:8 *1921:B 40.3193 
3 *438:8 *438:21 1.1639 
4 *438:21 *438:33 42.0497 
5 *438:33 *1920:B2 40.9682 
6 *438:21 *2047:B 43.8316 
*END

*D_NET *439 0.00350655
*CONN
*I *1918:B I *D sg13g2_nor2_1
*I *1917:B2 I *D sg13g2_a22oi_1
*I *2043:B I *D sg13g2_xor2_1
*I *2076:Q O *D sg13g2_dfrbpq_1
*CAP
1 *1918:B 0.000416573
2 *1917:B2 9.7514e-05
3 *2043:B 0.00026382
4 *2076:Q 0.000811609
5 *439:10 0.000525094
6 *439:8 0.00139194
*RES
1 *2076:Q *439:8 48.755 
2 *439:8 *439:10 1.8334 
3 *439:10 *2043:B 42.6162 
4 *439:10 *1917:B2 40.7519 
5 *439:8 *1918:B 44.2848 
*END

*D_NET *440 0.00293024
*CONN
*I *2039:B I *D sg13g2_xor2_1
*I *1914:B2 I *D sg13g2_a22oi_1
*I *1915:B I *D sg13g2_nor2_1
*I *2077:Q O *D sg13g2_dfrbpq_1
*CAP
1 *2039:B 7.79798e-05
2 *1914:B2 0.000329228
3 *1915:B 2.96094e-05
4 *2077:Q 0.000838781
5 *440:21 0.000596727
6 *440:10 0.00105791
*RES
1 *2077:Q *440:10 49.0125 
2 *440:10 *1915:B 40 
3 *440:10 *440:21 2.1218 
4 *440:21 *1914:B2 43.3269 
5 *440:21 *2039:B 40.5356 
*END

*D_NET *441 0.00193186
*CONN
*I *2035:B I *D sg13g2_xor2_1
*I *1911:B2 I *D sg13g2_a22oi_1
*I *1912:B I *D sg13g2_nor2_1
*I *2078:Q O *D sg13g2_dfrbpq_1
*CAP
1 *2035:B 2.96094e-05
2 *1911:B2 1.10054e-05
3 *1912:B 1.10054e-05
4 *2078:Q 0.000149209
5 *441:40 0.000327367
6 *441:22 0.00019665
7 *441:14 0.000478349
8 *441:8 0.000728667
*RES
1 *2078:Q *441:8 41.339 
2 *441:8 *441:14 22.9252 
3 *441:14 *441:22 41.6583 
4 *441:22 *1912:B 20 
5 *441:14 *1911:B2 20 
6 *441:8 *441:40 42.8943 
7 *441:40 *2035:B 40 
*END

*D_NET *442 0.0015987
*CONN
*I *2031:B I *D sg13g2_xor2_1
*I *1908:B2 I *D sg13g2_a22oi_1
*I *1909:B I *D sg13g2_nor2_1
*I *2079:Q O *D sg13g2_dfrbpq_1
*CAP
1 *2031:B 0.000172954
2 *1908:B2 1.10054e-05
3 *1909:B 0.000259369
4 *2079:Q 0.000149209
5 *442:16 0.000477189
6 *442:8 0.000528978
*RES
1 *2079:Q *442:8 41.339 
2 *442:8 *442:16 22.1012 
3 *442:16 *1909:B 22.7501 
4 *442:16 *1908:B2 20 
5 *442:8 *2031:B 41.5965 
*END

*D_NET *443 0.00152813
*CONN
*I *1906:B I *D sg13g2_nor2_1
*I *2027:B I *D sg13g2_xor2_1
*I *1905:B2 I *D sg13g2_a22oi_1
*I *2080:Q O *D sg13g2_dfrbpq_1
*CAP
1 *1906:B 0.000279611
2 *2027:B 2.96094e-05
3 *1905:B2 1.10054e-05
4 *2080:Q 0.000254718
5 *443:23 0.00049834
6 *443:12 0.000454843
*RES
1 *2080:Q *443:12 22.6986 
2 *443:12 *1905:B2 20 
3 *443:12 *443:23 21.9055 
4 *443:23 *2027:B 40 
5 *443:23 *1906:B 42.781 
*END

*D_NET *444 0.00248857
*CONN
*I *2023:B I *D sg13g2_xor2_1
*I *1902:B2 I *D sg13g2_a22oi_1
*I *1903:B I *D sg13g2_nor2_1
*I *2081:Q O *D sg13g2_dfrbpq_1
*CAP
1 *2023:B 1.10054e-05
2 *1902:B2 1.10054e-05
3 *1903:B 0.000175651
4 *2081:Q 0.000407729
5 *444:40 0.000485403
6 *444:27 0.000649898
7 *444:12 0.000747875
*RES
1 *2081:Q *444:12 44.2333 
2 *444:12 *1903:B 41.6171 
3 *444:12 *444:27 21.6274 
4 *444:27 *1902:B2 20 
5 *444:27 *444:40 44.8719 
6 *444:40 *2023:B 20 
*END

*D_NET *445 0.00296695
*CONN
*I *1900:B I *D sg13g2_nor2_1
*I *2019:B I *D sg13g2_xor2_1
*I *1899:B2 I *D sg13g2_a22oi_1
*I *2082:Q O *D sg13g2_dfrbpq_1
*CAP
1 *1900:B 0.000288205
2 *2019:B 1.10054e-05
3 *1899:B2 1.10054e-05
4 *2082:Q 0.000654704
5 *445:21 0.000344453
6 *445:15 0.000806763
7 *445:8 0.000850819
*RES
1 *2082:Q *445:8 27.1276 
2 *445:8 *1899:B2 20 
3 *445:8 *445:15 2.0497 
4 *445:15 *445:21 43.3166 
5 *445:21 *2019:B 20 
6 *445:15 *1900:B 23.0694 
*END

*D_NET *446 0.00258812
*CONN
*I *2015:B I *D sg13g2_xor2_1
*I *1897:B I *D sg13g2_nor2_1
*I *1896:B2 I *D sg13g2_a22oi_1
*I *2083:Q O *D sg13g2_dfrbpq_1
*CAP
1 *2015:B 0.000215649
2 *1897:B 4.26322e-05
3 *1896:B2 1.10054e-05
4 *2083:Q 0.000714089
5 *446:23 0.000443391
6 *446:16 0.000321692
7 *446:12 0.000839666
*RES
1 *2083:Q *446:12 47.6632 
2 *446:12 *446:16 21.1845 
3 *446:16 *1896:B2 20 
4 *446:16 *446:23 2.0497 
5 *446:23 *1897:B 20.3502 
6 *446:23 *2015:B 22.266 
*END

*D_NET *447 0.00295509
*CONN
*I *1961:B I *D sg13g2_nor2_1
*I *1960:B2 I *D sg13g2_a22oi_1
*I *1865:B I *D sg13g2_xor2_1
*I *2065:Q O *D sg13g2_dfrbpq_1
*CAP
1 *1961:B 1.10054e-05
2 *1960:B2 1.10054e-05
3 *1865:B 1.10054e-05
4 *2065:Q 0.000833053
5 *447:39 0.00028918
6 *447:24 0.000603877
7 *447:14 0.000344307
8 *447:12 0.000851657
*RES
1 *2065:Q *447:12 48.9301 
2 *447:12 *447:14 20 
3 *447:14 *447:24 43.09 
4 *447:24 *1865:B 20 
5 *447:24 *447:39 42.6883 
6 *447:39 *1960:B2 20 
7 *447:14 *1961:B 20 
*END

*D_NET *448 0.00191474
*CONN
*I *2011:B I *D sg13g2_xor2_1
*I *1893:B2 I *D sg13g2_a22oi_1
*I *1894:B I *D sg13g2_nor2_1
*I *2084:Q O *D sg13g2_dfrbpq_1
*CAP
1 *2011:B 0.000239194
2 *1893:B2 1.10054e-05
3 *1894:B 0.000227742
4 *2084:Q 0.000412456
5 *448:14 0.000305722
6 *448:10 0.000718624
*RES
1 *2084:Q *448:10 44.2539 
2 *448:10 *448:14 20.5356 
3 *448:14 *1894:B 22.3999 
4 *448:14 *1893:B2 20 
5 *448:10 *2011:B 42.3381 
*END

*D_NET *449 0.00269689
*CONN
*I *1891:B I *D sg13g2_nor2_1
*I *2007:B I *D sg13g2_xor2_1
*I *1890:B2 I *D sg13g2_a22oi_1
*I *2085:Q O *D sg13g2_dfrbpq_1
*CAP
1 *1891:B 7.79798e-05
2 *2007:B 7.79798e-05
3 *1890:B2 0.000222206
4 *2085:Q 0.000828598
5 *449:12 0.000441865
6 *449:10 0.00104826
*RES
1 *2085:Q *449:10 48.8889 
2 *449:10 *449:12 1.5862 
3 *449:12 *1890:B2 42.1527 
4 *449:12 *2007:B 40.5356 
5 *449:10 *1891:B 40.5356 
*END

*D_NET *450 0.00303608
*CONN
*I *2003:B I *D sg13g2_xor2_1
*I *1888:B I *D sg13g2_nor2_1
*I *1887:B2 I *D sg13g2_a22oi_1
*I *2086:Q O *D sg13g2_dfrbpq_1
*CAP
1 *2003:B 1.10054e-05
2 *1888:B 1.10054e-05
3 *1887:B2 1.10054e-05
4 *2086:Q 0.000859348
5 *450:28 0.00019665
6 *450:20 0.000425479
7 *450:14 0.000451035
8 *450:8 0.00107055
*RES
1 *2086:Q *450:8 49.1876 
2 *450:8 *450:14 22.1527 
3 *450:14 *450:20 2.5338 
4 *450:20 *450:28 41.6583 
5 *450:28 *1887:B2 20 
6 *450:20 *1888:B 20 
7 *450:14 *2003:B 20 
*END

*D_NET *451 0.00348786
*CONN
*I *1884:B2 I *D sg13g2_a22oi_1
*I *1885:B I *D sg13g2_nor2_1
*I *1999:B I *D sg13g2_xor2_1
*I *2087:Q O *D sg13g2_dfrbpq_1
*CAP
1 *1884:B2 0.000117048
2 *1885:B 0.000444479
3 *1999:B 1.10054e-05
4 *2087:Q 0.00088206
5 *451:16 0.000744821
6 *451:10 0.00128845
*RES
1 *2087:Q *451:10 49.5378 
2 *451:10 *451:16 23.0179 
3 *451:16 *1999:B 20 
4 *451:16 *1885:B 24.7998 
5 *451:10 *1884:B2 40.9682 
*END

*D_NET *452 0.00268876
*CONN
*I *1881:B2 I *D sg13g2_a22oi_1
*I *1995:B I *D sg13g2_xor2_1
*I *1882:B I *D sg13g2_nor2_1
*I *2088:Q O *D sg13g2_dfrbpq_1
*CAP
1 *1881:B2 0.000214719
2 *1995:B 1.10054e-05
3 *1882:B 1.10054e-05
4 *2088:Q 0.000691222
5 *452:29 0.000289229
6 *452:16 0.000427433
7 *452:12 0.00104415
*RES
1 *2088:Q *452:12 47.3542 
2 *452:12 *452:16 21.339 
3 *452:16 *1882:B 20 
4 *452:16 *452:29 42.678 
5 *452:29 *1995:B 20 
6 *452:12 *1881:B2 42.0497 
*END

*D_NET *453 0.00226254
*CONN
*I *1879:B2 I *D sg13g2_a22oi_1
*I *1992:B I *D sg13g2_xnor2_1
*I *1991:B I *D sg13g2_nor2_1
*I *2089:Q O *D sg13g2_dfrbpq_1
*CAP
1 *1879:B2 0.000426648
2 *1992:B 0.000437653
3 *1991:B 0.000109607
4 *2089:Q 0.000584009
5 *453:12 0.000704621
*RES
1 *2089:Q *453:12 26.3448 
2 *453:12 *1991:B 21.0918 
3 *453:12 *1992:B 20 
4 *1992:B *1879:B2 44.4805 
*END

*D_NET *454 0.00245895
*CONN
*I *1986:B I *D sg13g2_nor2_1
*I *1987:B I *D sg13g2_xnor2_1
*I *1877:B2 I *D sg13g2_a22oi_1
*I *2090:Q O *D sg13g2_dfrbpq_1
*CAP
1 *1986:B 1.10054e-05
2 *1987:B 1.10054e-05
3 *1877:B2 1.10054e-05
4 *2090:Q 0.000171289
5 *454:31 0.000234053
6 *454:25 0.000419163
7 *454:18 0.000189893
8 *454:12 0.000802122
9 *454:8 0.000609414
*RES
1 *2090:Q *454:8 41.5862 
2 *454:8 *454:12 24.6453 
3 *454:12 *454:18 41.5862 
4 *454:18 *1877:B2 20 
5 *454:12 *454:25 2.0497 
6 *454:25 *454:31 42.0806 
7 *454:31 *1987:B 20 
8 *454:25 *1986:B 20 
*END

*D_NET *455 0.00587852
*CONN
*I *1982:B I *D sg13g2_xnor2_1
*I *1875:B2 I *D sg13g2_a22oi_1
*I *1981:B I *D sg13g2_nor2_1
*I *2091:Q O *D sg13g2_dfrbpq_1
*CAP
1 *1982:B 1.10054e-05
2 *1875:B2 1.10054e-05
3 *1981:B 7.79798e-05
4 *2091:Q 5.81294e-05
5 *455:47 0.000337234
6 *455:35 0.000471797
7 *455:20 0.000534406
8 *455:10 0.00245491
9 *455:8 0.00192205
*RES
1 *2091:Q *455:8 40.3193 
2 *455:8 *455:10 20.8678 
3 *455:10 *455:20 44.6659 
4 *455:20 *1981:B 40.5356 
5 *455:10 *455:35 21.2875 
6 *455:35 *455:47 43.2239 
7 *455:47 *1875:B2 20 
8 *455:35 *1982:B 20 
*END

*D_NET *456 0.00447366
*CONN
*I *1977:B I *D sg13g2_xnor2_1
*I *1873:B2 I *D sg13g2_a22oi_1
*I *1976:B I *D sg13g2_nor2_1
*I *2092:Q O *D sg13g2_dfrbpq_1
*CAP
1 *1977:B 7.79798e-05
2 *1873:B2 0.000314981
3 *1976:B 5.93758e-05
4 *2092:Q 2.96094e-05
5 *456:23 0.000553245
6 *456:12 0.00181426
7 *456:6 0.00162421
*RES
1 *2092:Q *456:6 40 
2 *456:6 *456:12 37.6336 
3 *456:12 *1976:B 20.5356 
4 *456:12 *456:23 21.5862 
5 *456:23 *1873:B2 43.1827 
6 *456:23 *1977:B 40.5356 
*END

*D_NET *457 0.00283887
*CONN
*I *1971:B I *D sg13g2_nor2_1
*I *1972:B I *D sg13g2_xnor2_1
*I *1871:B2 I *D sg13g2_a22oi_1
*I *2093:Q O *D sg13g2_dfrbpq_1
*CAP
1 *1971:B 1.10054e-05
2 *1972:B 1.10054e-05
3 *1871:B2 1.10054e-05
4 *2093:Q 0.000252857
5 *457:44 0.000313855
6 *457:26 0.000352923
7 *457:18 0.000841715
8 *457:8 0.0010445
*RES
1 *2093:Q *457:8 22.678 
2 *457:8 *457:18 45.0367 
3 *457:18 *457:26 43.3887 
4 *457:26 *1871:B2 20 
5 *457:18 *1972:B 20 
6 *457:8 *457:44 42.9561 
7 *457:44 *1971:B 20 
*END

*D_NET *458 0.00347919
*CONN
*I *1958:B I *D sg13g2_nor2_1
*I *1861:B I *D sg13g2_xor2_1
*I *1957:B2 I *D sg13g2_a22oi_1
*I *2066:Q O *D sg13g2_dfrbpq_1
*CAP
1 *1958:B 9.7514e-05
2 *1861:B 1.10054e-05
3 *1957:B2 1.10054e-05
4 *2066:Q 0.000897384
5 *458:30 0.000505501
6 *458:16 0.000733689
7 *458:10 0.00122309
*RES
1 *2066:Q *458:10 49.6614 
2 *458:10 *458:16 22.3381 
3 *458:16 *458:30 45.0728 
4 *458:30 *1957:B2 20 
5 *458:16 *1861:B 20 
6 *458:10 *1958:B 40.7519 
*END

*D_NET *459 0.00281126
*CONN
*I *1869:B2 I *D sg13g2_a22oi_1
*I *1966:B I *D sg13g2_nor2_1
*I *1967:B I *D sg13g2_xnor2_1
*I *2094:Q O *D sg13g2_dfrbpq_1
*CAP
1 *1869:B2 1.10054e-05
2 *1966:B 0.000196115
3 *1967:B 3.98416e-05
4 *2094:Q 0.000679129
5 *459:31 0.000668055
6 *459:10 0.00051938
7 *459:8 0.000697733
*RES
1 *2094:Q *459:8 47.2718 
2 *459:8 *459:10 20 
3 *459:10 *1967:B 20.3193 
4 *459:10 *459:31 44.7174 
5 *459:31 *1966:B 22.0497 
6 *459:31 *1869:B2 20 
*END

*D_NET *460 0.00152157
*CONN
*I *1945:B I *D sg13g2_nor2_1
*I *1944:B2 I *D sg13g2_a22oi_1
*I *1857:B I *D sg13g2_xor2_1
*I *2067:Q O *D sg13g2_dfrbpq_1
*CAP
1 *1945:B 0.000206566
2 *1944:B2 3.98416e-05
3 *1857:B 0.00021751
4 *2067:Q 0.000278262
5 *460:12 0.000275955
6 *460:10 0.000503432
*RES
1 *2067:Q *460:10 42.7707 
2 *460:10 *460:12 20 
3 *460:12 *1857:B 22.2866 
4 *460:12 *1944:B2 20.3193 
5 *460:10 *1945:B 41.9776 
*END

*D_NET *461 0.00427367
*CONN
*I *1853:B I *D sg13g2_xor2_1
*I *1941:B2 I *D sg13g2_a22oi_1
*I *1942:B I *D sg13g2_nor2_1
*I *2068:Q O *D sg13g2_dfrbpq_1
*CAP
1 *1853:B 1.10054e-05
2 *1941:B2 3.98416e-05
3 *1942:B 5.84456e-05
4 *2068:Q 0.000193369
5 *461:52 0.000364771
6 *461:35 0.000582411
7 *461:20 0.000473774
8 *461:16 0.0012916
9 *461:8 0.00125845
*RES
1 *2068:Q *461:8 41.8334 
2 *461:8 *461:16 31.5875 
3 *461:16 *461:20 22.3278 
4 *461:20 *1942:B 40.3193 
5 *461:20 *461:35 21.9055 
6 *461:35 *1941:B2 20.3193 
7 *461:35 *461:52 43.5226 
8 *461:52 *1853:B 20 
*END

*D_NET *462 0.00495279
*CONN
*I *1939:B I *D sg13g2_nor2_1
*I *1849:B I *D sg13g2_xor2_1
*I *1938:B2 I *D sg13g2_a22oi_1
*I *2069:Q O *D sg13g2_dfrbpq_1
*CAP
1 *1939:B 1.10054e-05
2 *1849:B 1.10054e-05
3 *1938:B2 0.000381025
4 *2069:Q 0.000351459
5 *462:42 0.000461863
6 *462:25 0.000509303
7 *462:10 0.00165207
8 *462:8 0.00157506
*RES
1 *2069:Q *462:8 43.5638 
2 *462:8 *462:10 13.699 
3 *462:10 *1938:B2 43.914 
4 *462:10 *462:25 20.3193 
5 *462:25 *1849:B 20 
6 *462:25 *462:42 44.6144 
7 *462:42 *1939:B 20 
*END

*D_NET *463 0.00200483
*CONN
*I *1936:B I *D sg13g2_nor2_1
*I *1845:B I *D sg13g2_xor2_1
*I *1935:B2 I *D sg13g2_a22oi_1
*I *2070:Q O *D sg13g2_dfrbpq_1
*CAP
1 *1936:B 1.10054e-05
2 *1845:B 1.10054e-05
3 *1935:B2 5.93758e-05
4 *2070:Q 0.000149605
5 *463:42 0.00032913
6 *463:29 0.000257798
7 *463:14 0.000512673
8 *463:8 0.000674234
*RES
1 *2070:Q *463:8 21.5347 
2 *463:8 *463:14 2.2866 
3 *463:14 *1935:B2 20.5356 
4 *463:14 *463:29 42.3381 
5 *463:29 *1845:B 20 
6 *463:8 *463:42 43.1415 
7 *463:42 *1936:B 20 
*END

*D_NET *464 0.00208723
*CONN
*I *1841:B I *D sg13g2_xor2_1
*I *1932:B2 I *D sg13g2_a22oi_1
*I *1933:B I *D sg13g2_nor2_1
*I *2071:Q O *D sg13g2_dfrbpq_1
*CAP
1 *1841:B 0.000237044
2 *1932:B2 1.10054e-05
3 *1933:B 7.79798e-05
4 *2071:Q 0.000325849
5 *464:25 0.000639784
6 *464:8 0.000795564
*RES
1 *2071:Q *464:8 43.3166 
2 *464:8 *1933:B 40.5356 
3 *464:8 *464:25 24.1715 
4 *464:25 *1932:B2 20 
5 *464:25 *1841:B 22.5029 
*END

*D_NET *465 0.00177543
*CONN
*I *1930:B I *D sg13g2_nor2_1
*I *2059:B I *D sg13g2_xor2_1
*I *1929:B2 I *D sg13g2_a22oi_1
*I *2072:Q O *D sg13g2_dfrbpq_1
*CAP
1 *1930:B 1.10054e-05
2 *2059:B 0.000135652
3 *1929:B2 0.000157047
4 *2072:Q 0.000200766
5 *465:18 0.000675941
6 *465:10 0.000595014
*RES
1 *2072:Q *465:10 22.1012 
2 *465:10 *465:18 4.2436 
3 *465:18 *1929:B2 21.6171 
4 *465:18 *2059:B 21.3802 
5 *465:10 *1930:B 20 
*END

*D_NET *466 0.00379742
*CONN
*I *2055:B I *D sg13g2_xor2_1
*I *1926:B2 I *D sg13g2_a22oi_1
*I *1927:B I *D sg13g2_nor2_1
*I *2073:Q O *D sg13g2_dfrbpq_1
*CAP
1 *2055:B 1.10054e-05
2 *1926:B2 3.98416e-05
3 *1927:B 0.000208208
4 *2073:Q 5.81294e-05
5 *466:22 0.000475308
6 *466:14 0.00159253
7 *466:8 0.0014124
*RES
1 *2073:Q *466:8 40.3193 
2 *466:8 *466:14 34.9453 
3 *466:14 *466:22 42.1218 
4 *466:22 *1927:B 22.1836 
5 *466:22 *1926:B2 20.3193 
6 *466:14 *2055:B 20 
*END

*D_NET *4 0.00215216
*CONN
*P x[0] I
*I *2236:A I *D sg13g2_buf_1
*CAP
1 x[0] 0.000978566
2 *2236:A 9.7514e-05
3 *4:9 0.00107608
*RES
1 x[0] *4:9 30.6605 
2 *4:9 *2236:A 40.7519 
*END

*D_NET *5 0.00161079
*CONN
*P x[10] I
*I *2237:A I *D sg13g2_buf_1
*CAP
1 x[10] 0.000805396
2 *2237:A 0.000805396
*RES
1 x[10] *2237:A 28.7962 
*END

*D_NET *6 0.00210458
*CONN
*P x[11] I
*I *2238:A I *D sg13g2_buf_1
*CAP
1 x[11] 0.000465487
2 *2238:A 0.000586799
3 *6:11 0.00105229
*RES
1 x[11] *6:11 44.7895 
2 *6:11 *2238:A 26.3757 
*END

*D_NET *7 0.00207218
*CONN
*P x[12] I
*I *2239:A I *D sg13g2_buf_1
*CAP
1 x[12] 0.00103609
2 *2239:A 0.00103609
*RES
1 x[12] *2239:A 31.3506 
*END

*D_NET *8 0.00183961
*CONN
*P x[13] I
*I *2240:A I *D sg13g2_buf_1
*CAP
1 x[13] 0.000908801
2 *2240:A 1.10054e-05
3 *8:13 0.000919807
*RES
1 x[13] *8:13 49.682 
2 *8:13 *2240:A 20 
*END

*D_NET *9 0.00214227
*CONN
*P x[14] I
*I *2241:A I *D sg13g2_buf_1
*CAP
1 x[14] 0.00050387
2 *2241:A 0.000567265
3 *9:15 0.00107114
*RES
1 x[14] *9:15 45.2118 
2 *9:15 *2241:A 26.1594 
*END

*D_NET *10 0.00178899
*CONN
*P x[15] I
*I *2242:A I *D sg13g2_buf_1
*CAP
1 x[15] 0.00088349
2 *2242:A 1.10054e-05
3 *10:17 0.000894495
*RES
1 x[15] *10:17 49.3936 
2 *10:17 *2242:A 20 
*END

*D_NET *11 0.00209852
*CONN
*P x[16] I
*I *2243:A I *D sg13g2_buf_1
*CAP
1 x[16] 0.000504556
2 *2243:A 0.000544708
3 *11:11 0.00104926
*RES
1 x[16] *11:11 45.2221 
2 *11:11 *2243:A 25.9096 
*END

*D_NET *12 0.00187731
*CONN
*P x[17] I
*I *2244:A I *D sg13g2_buf_1
*CAP
1 x[17] 0.00092765
2 *2244:A 1.10054e-05
3 *12:17 0.000938655
*RES
1 x[17] *12:17 49.888 
2 *12:17 *2244:A 20 
*END

*D_NET *13 0.00223588
*CONN
*P x[18] I
*I *2245:A I *D sg13g2_buf_1
*CAP
1 x[18] 0.00111794
2 *2245:A 0.00111794
*RES
1 x[18] *2245:A 32.257 
*END

*D_NET *14 0.0021883
*CONN
*P x[19] I
*I *2246:A I *D sg13g2_buf_1
*CAP
1 x[19] 0.000565949
2 *2246:A 0.000528197
3 *14:19 0.00109415
*RES
1 x[19] *14:19 45.9019 
2 *14:19 *2246:A 25.7268 
*END

*D_NET *15 0.00175129
*CONN
*P x[1] I
*I *2247:A I *D sg13g2_buf_1
*CAP
1 x[1] 0.000864641
2 *2247:A 1.10054e-05
3 *15:13 0.000875647
*RES
1 x[1] *15:13 49.1876 
2 *15:13 *2247:A 20 
*END

*D_NET *16 0.00132429
*CONN
*P x[20] I
*I *2248:A I *D sg13g2_buf_1
*CAP
1 x[20] 0.000662145
2 *2248:A 0.000662145
*RES
1 x[20] *2248:A 27.21 
*END

*D_NET *17 0.00210458
*CONN
*P x[21] I
*I *2249:A I *D sg13g2_buf_1
*CAP
1 x[21] 0.000445953
2 *2249:A 0.000606333
3 *17:11 0.00105229
*RES
1 x[21] *17:11 44.5732 
2 *17:11 *2249:A 26.592 
*END

*D_NET *18 0.00207218
*CONN
*P x[22] I
*I *2250:A I *D sg13g2_buf_1
*CAP
1 x[22] 0.00103609
2 *2250:A 0.00103609
*RES
1 x[22] *2250:A 31.3506 
*END

*D_NET *19 0.00201626
*CONN
*P x[23] I
*I *2251:A I *D sg13g2_buf_1
*CAP
1 x[23] 0.00047993
2 *2251:A 0.000528197
3 *19:11 0.00100813
*RES
1 x[23] *19:11 44.944 
2 *19:11 *2251:A 25.7268 
*END

*D_NET *20 0.00132429
*CONN
*P x[24] I
*I *2252:A I *D sg13g2_buf_1
*CAP
1 x[24] 0.000662145
2 *2252:A 0.000662145
*RES
1 x[24] *2252:A 27.21 
*END

*D_NET *21 0.00207218
*CONN
*P x[25] I
*I *2253:A I *D sg13g2_buf_1
*CAP
1 x[25] 0.00103609
2 *2253:A 0.00103609
*RES
1 x[25] *2253:A 31.3506 
*END

*D_NET *22 0.00207218
*CONN
*P x[26] I
*I *2254:A I *D sg13g2_buf_1
*CAP
1 x[26] 0.00103609
2 *2254:A 0.00103609
*RES
1 x[26] *2254:A 31.3506 
*END

*D_NET *23 0.00201968
*CONN
*P x[27] I
*I *2255:A I *D sg13g2_buf_1
*CAP
1 x[27] 0.00055978
2 *2255:A 0.00045006
3 *23:11 0.00100984
*RES
1 x[27] *23:11 45.8092 
2 *23:11 *2255:A 24.8616 
*END

*D_NET *24 0.00161079
*CONN
*P x[28] I
*I *2256:A I *D sg13g2_buf_1
*CAP
1 x[28] 0.000805396
2 *2256:A 0.000805396
*RES
1 x[28] *2256:A 28.7962 
*END

*D_NET *25 0.0019249
*CONN
*P x[29] I
*I *2257:A I *D sg13g2_buf_1
*CAP
1 x[29] 0.000830518
2 *2257:A 0.000131931
3 *25:15 0.000962449
*RES
1 x[29] *25:15 48.7962 
2 *25:15 *2257:A 21.339 
*END

*D_NET *26 0.00174474
*CONN
*P x[2] I
*I *2258:A I *D sg13g2_buf_1
*CAP
1 x[2] 0.000872371
2 *2258:A 0.000872371
*RES
1 x[2] *2258:A 29.5378 
*END

*D_NET *27 0.00194566
*CONN
*P x[30] I
*I *2259:A I *D sg13g2_buf_1
*CAP
1 x[30] 0.000972832
2 *2259:A 0.000972832
*RES
1 x[30] *2259:A 30.6502 
*END

*D_NET *28 0.00157465
*CONN
*P x[31] I
*I *2260:A I *D sg13g2_buf_1
*CAP
1 x[31] 0.000776321
2 *2260:A 1.10054e-05
3 *28:13 0.000787327
*RES
1 x[31] *28:13 48.1988 
2 *28:13 *2260:A 20 
*END

*D_NET *29 0.00223902
*CONN
*P x[3] I
*I *2261:A I *D sg13g2_buf_1
*CAP
1 x[3] 0.000493638
2 *2261:A 0.000625868
3 *29:17 0.00111951
*RES
1 x[3] *29:17 45.0985 
2 *29:17 *2261:A 26.8083 
*END

*D_NET *30 0.00183961
*CONN
*P x[4] I
*I *2262:A I *D sg13g2_buf_1
*CAP
1 x[4] 0.000908801
2 *2262:A 1.10054e-05
3 *30:13 0.000919807
*RES
1 x[4] *30:13 49.682 
2 *30:13 *2262:A 20 
*END

*D_NET *31 0.00201626
*CONN
*P x[5] I
*I *2263:A I *D sg13g2_buf_1
*CAP
1 x[5] 0.000421327
2 *2263:A 0.000586799
3 *31:11 0.00100813
*RES
1 x[5] *31:11 44.2951 
2 *31:11 *2263:A 26.3757 
*END

*D_NET *32 0.00166297
*CONN
*P x[6] I
*I *2264:A I *D sg13g2_buf_1
*CAP
1 x[6] 0.000820481
2 *2264:A 1.10054e-05
3 *32:13 0.000831487
*RES
1 x[6] *32:13 48.6932 
2 *32:13 *2264:A 20 
*END

*D_NET *33 0.00207218
*CONN
*P x[7] I
*I *2265:A I *D sg13g2_buf_1
*CAP
1 x[7] 0.00103609
2 *2265:A 0.00103609
*RES
1 x[7] *2265:A 31.3506 
*END

*D_NET *34 0.00141359
*CONN
*P x[8] I
*I *2266:A I *D sg13g2_buf_1
*CAP
1 x[8] 0.000706795
2 *2266:A 0.000706795
*RES
1 x[8] *2266:A 27.7044 
*END

*D_NET *35 0.00232518
*CONN
*P x[9] I
*I *2267:A I *D sg13g2_buf_1
*CAP
1 x[9] 0.00116259
2 *2267:A 0.00116259
*RES
1 x[9] *2267:A 32.7514 
*END

*D_NET *36 0.00163684
*CONN
*P y I
*I *2268:A I *D sg13g2_buf_1
*CAP
1 y 0.000818419
2 *2268:A 0.000818419
*RES
1 y *2268:A 28.9404 
*END

*D_NET *468 0.00658441
*CONN
*I *1960:A1 I *D sg13g2_a22oi_1
*I *1862:A1 I *D sg13g2_a21oi_1
*I *1863:A I *D sg13g2_and3_1
*I *1957:A1 I *D sg13g2_a22oi_1
*I *2285:A I *D sg13g2_buf_1
*I *2272:A I *D sg13g2_buf_1
*I *2095:Q O *D sg13g2_dfrbpq_1
*CAP
1 *1960:A1 5.93758e-05
2 *1862:A1 0.00013134
3 *1863:A 0.000149209
4 *1957:A1 1.10054e-05
5 *2285:A 0.000893369
6 *2272:A 1.10054e-05
7 *2095:Q 0.000452357
8 *468:61 0.000298949
9 *468:59 0.000305449
10 *468:46 0.000651531
11 *468:42 0.00109662
12 *468:21 0.00180038
13 *468:12 0.000252857
14 *468:10 0.000470961
*RES
1 *2095:Q *468:10 44.7174 
2 *468:10 *468:12 20 
3 *468:12 *2272:A 20 
4 *468:12 *468:21 22.266 
5 *468:21 *2285:A 49.579 
6 *468:21 *468:42 27.4469 
7 *468:42 *468:46 3.914 
8 *468:46 *1957:A1 20 
9 *468:46 *468:59 42.8016 
10 *468:59 *468:61 20 
11 *468:61 *1863:A 41.339 
12 *468:61 *1862:A1 41.133 
13 *468:42 *1960:A1 20.5356 
*END
