*SPEF "ieee 1481-1999"
*DESIGN "spm"
*DATE "01:49:45 Friday July 24, 2026"
*VENDOR "The OpenROAD Project"
*PROGRAM "OpenROAD"
*VERSION "26Q3-155-g1bade74e72"
*DESIGN_FLOW "NAME_SCOPE LOCAL" "PIN_CAP NONE"
*DIVIDER /
*DELIMITER :
*BUS_DELIMITER []
*T_UNIT 1 NS
*C_UNIT 1 PF
*R_UNIT 1 OHM
*L_UNIT 1 HENRY

*NAME_MAP
*39 _000_
*40 _001_
*41 _002_
*42 _003_
*43 _004_
*44 _005_
*45 _006_
*46 _007_
*47 _008_
*48 _009_
*49 _010_
*50 _011_
*51 _012_
*52 _013_
*53 _014_
*54 _015_
*55 _016_
*56 _017_
*57 _018_
*58 _019_
*59 _020_
*60 _021_
*61 _022_
*62 _023_
*63 _024_
*64 _025_
*65 _026_
*66 _027_
*67 _028_
*68 _029_
*69 _030_
*70 _031_
*71 _032_
*72 _033_
*73 _034_
*74 _035_
*75 _036_
*76 _037_
*77 _038_
*78 _039_
*79 _040_
*80 _041_
*81 _042_
*82 _043_
*83 _044_
*84 _045_
*85 _046_
*86 _047_
*87 _048_
*88 _049_
*89 _050_
*90 _051_
*91 _052_
*92 _053_
*93 _054_
*94 _055_
*95 _056_
*96 _057_
*97 _058_
*98 _059_
*99 _060_
*100 _061_
*101 _062_
*102 _063_
*103 _064_
*104 _065_
*105 _066_
*106 _067_
*107 _068_
*108 _069_
*109 _070_
*110 _071_
*111 _072_
*112 _073_
*113 _074_
*114 _075_
*115 _076_
*116 _077_
*117 _078_
*118 _079_
*119 _080_
*120 _081_
*121 _082_
*122 _083_
*123 _084_
*124 _085_
*125 _086_
*126 _087_
*127 _088_
*128 _089_
*129 _090_
*130 _091_
*131 _092_
*132 _093_
*133 _094_
*134 _095_
*135 _096_
*136 _097_
*137 _098_
*138 _099_
*139 _100_
*140 _101_
*141 _102_
*142 _103_
*143 _104_
*144 _105_
*145 _106_
*146 _107_
*147 _108_
*148 _109_
*149 _110_
*150 _111_
*151 _112_
*152 _113_
*153 _114_
*154 _115_
*155 _116_
*156 _117_
*157 _118_
*158 _119_
*159 _120_
*160 _121_
*161 _122_
*162 _123_
*163 _124_
*164 _125_
*165 _126_
*166 _127_
*167 _128_
*168 _129_
*169 _130_
*170 _131_
*171 _132_
*172 _133_
*173 _134_
*174 _135_
*175 _136_
*176 _137_
*177 _138_
*178 _139_
*179 _140_
*180 _141_
*181 _142_
*182 _143_
*183 _144_
*184 _145_
*185 _146_
*186 _147_
*187 _148_
*188 _149_
*189 _150_
*190 _151_
*191 _152_
*192 _153_
*193 _154_
*194 _155_
*195 _156_
*196 _157_
*197 _158_
*198 _159_
*199 _160_
*200 _161_
*201 _162_
*202 _163_
*203 _164_
*204 _165_
*205 _166_
*206 _167_
*207 _168_
*208 _169_
*209 _170_
*210 _171_
*211 _172_
*212 _173_
*213 _174_
*214 _175_
*215 _176_
*216 _177_
*217 _178_
*218 _179_
*219 _180_
*220 _181_
*221 _182_
*222 _183_
*223 _184_
*224 _185_
*225 _186_
*226 _187_
*227 _188_
*228 _189_
*229 _190_
*230 _191_
*231 _192_
*232 _193_
*233 _194_
*234 _195_
*235 _196_
*236 _197_
*237 _198_
*238 _199_
*239 _200_
*240 _201_
*241 _202_
*242 _203_
*243 _204_
*244 _205_
*245 _206_
*246 _207_
*247 _208_
*248 _209_
*249 _210_
*250 _211_
*251 _212_
*252 _213_
*253 _214_
*254 _215_
*255 _216_
*256 _217_
*257 _218_
*258 _219_
*259 _220_
*260 _221_
*261 c[0]
*262 c[10]
*263 c[11]
*264 c[12]
*265 c[13]
*266 c[14]
*267 c[15]
*268 c[16]
*269 c[17]
*270 c[18]
*271 c[19]
*272 c[1]
*273 c[20]
*274 c[21]
*275 c[22]
*276 c[23]
*277 c[24]
*278 c[25]
*279 c[26]
*280 c[27]
*281 c[28]
*282 c[29]
*283 c[2]
*284 c[30]
*285 c[31]
*286 c[3]
*287 c[4]
*288 c[5]
*289 c[6]
*290 c[7]
*291 c[8]
*292 c[9]
*1 clk
*293 clknet_0_clk
*294 clknet_3_0__leaf_clk
*295 clknet_3_1__leaf_clk
*296 clknet_3_2__leaf_clk
*297 clknet_3_3__leaf_clk
*298 clknet_3_4__leaf_clk
*299 clknet_3_5__leaf_clk
*300 clknet_3_6__leaf_clk
*301 clknet_3_7__leaf_clk
*302 net10
*303 net11
*304 net12
*305 net13
*306 net14
*307 net15
*308 net16
*309 net17
*310 net18
*311 net19
*312 net20
*313 net21
*314 net22
*315 net23
*316 net24
*317 net25
*318 net26
*319 net27
*320 net28
*321 net29
*322 net3
*323 net30
*324 net31
*325 net32
*326 net33
*327 net34
*328 net35
*329 net36
*330 net37
*331 net4
*332 net5
*333 net6
*334 net7
*335 net8
*336 net9
*2 p_reg
*3 rst
*337 s[0]
*338 s[10]
*339 s[11]
*340 s[12]
*341 s[13]
*342 s[14]
*343 s[15]
*344 s[16]
*345 s[17]
*346 s[18]
*347 s[19]
*348 s[1]
*349 s[20]
*350 s[21]
*351 s[22]
*352 s[23]
*353 s[24]
*354 s[25]
*355 s[26]
*356 s[27]
*357 s[28]
*358 s[29]
*359 s[2]
*360 s[30]
*361 s[3]
*362 s[4]
*363 s[5]
*364 s[6]
*365 s[7]
*366 s[8]
*367 s[9]
*368 spare_tielo
*4 x[0]
*5 x[10]
*6 x[11]
*7 x[12]
*8 x[13]
*9 x[14]
*10 x[15]
*11 x[16]
*12 x[17]
*13 x[18]
*14 x[19]
*15 x[1]
*16 x[20]
*17 x[21]
*18 x[22]
*19 x[23]
*20 x[24]
*21 x[25]
*22 x[26]
*23 x[27]
*24 x[28]
*25 x[29]
*26 x[2]
*27 x[30]
*28 x[31]
*29 x[3]
*30 x[4]
*31 x[5]
*32 x[6]
*33 x[7]
*34 x[8]
*35 x[9]
*36 y
*369 y_rep[0]
*370 FILLER_0_121
*371 FILLER_0_126
*372 FILLER_0_13
*373 FILLER_0_31
*374 FILLER_0_42
*375 FILLER_0_61
*376 FILLER_10_117
*377 FILLER_10_134
*378 FILLER_10_16
*379 FILLER_10_27
*380 FILLER_10_31
*381 FILLER_10_35
*382 FILLER_10_60
*383 FILLER_11_0
*384 FILLER_11_134
*385 FILLER_11_97
*386 FILLER_12_0
*387 FILLER_12_112
*388 FILLER_12_35
*389 FILLER_12_56
*390 FILLER_12_62
*391 FILLER_12_91
*392 FILLER_13_0
*393 FILLER_13_128
*394 FILLER_13_15
*395 FILLER_13_67
*396 FILLER_13_73
*397 FILLER_13_84
*398 FILLER_13_98
*399 FILLER_14_111
*400 FILLER_14_28
*401 FILLER_14_51
*402 FILLER_14_68
*403 FILLER_14_74
*404 FILLER_14_81
*405 FILLER_14_89
*406 FILLER_14_91
*407 FILLER_14_97
*408 FILLER_15_0
*409 FILLER_15_109
*410 FILLER_15_19
*411 FILLER_15_26
*412 FILLER_15_33
*413 FILLER_15_51
*414 FILLER_15_55
*415 FILLER_15_61
*416 FILLER_15_7
*417 FILLER_15_70
*418 FILLER_15_84
*419 FILLER_16_110
*420 FILLER_16_16
*421 FILLER_16_23
*422 FILLER_16_35
*423 FILLER_16_45
*424 FILLER_16_55
*425 FILLER_16_72
*426 FILLER_16_84
*427 FILLER_16_91
*428 FILLER_16_99
*429 FILLER_17_16
*430 FILLER_17_28
*431 FILLER_17_36
*432 FILLER_17_48
*433 FILLER_17_54
*434 FILLER_17_61
*435 FILLER_18_0
*436 FILLER_18_100
*437 FILLER_18_27
*438 FILLER_18_72
*439 FILLER_18_78
*440 FILLER_18_8
*441 FILLER_19_134
*442 FILLER_19_16
*443 FILLER_19_37
*444 FILLER_19_45
*445 FILLER_19_53
*446 FILLER_19_57
*447 FILLER_19_61
*448 FILLER_19_67
*449 FILLER_1_135
*450 FILLER_1_19
*451 FILLER_1_46
*452 FILLER_1_59
*453 FILLER_1_61
*454 FILLER_1_79
*455 FILLER_20_113
*456 FILLER_20_23
*457 FILLER_20_31
*458 FILLER_20_44
*459 FILLER_20_70
*460 FILLER_20_87
*461 FILLER_21_0
*462 FILLER_21_131
*463 FILLER_21_31
*464 FILLER_21_40
*465 FILLER_21_58
*466 FILLER_21_6
*467 FILLER_21_61
*468 FILLER_21_65
*469 FILLER_21_70
*470 FILLER_21_76
*471 FILLER_21_81
*472 FILLER_21_89
*473 FILLER_21_91
*474 FILLER_21_95
*475 FILLER_2_0
*476 FILLER_2_11
*477 FILLER_2_66
*478 FILLER_3_0
*479 FILLER_3_100
*480 FILLER_3_118
*481 FILLER_3_12
*482 FILLER_3_121
*483 FILLER_3_47
*484 FILLER_3_57
*485 FILLER_3_61
*486 FILLER_3_67
*487 FILLER_3_72
*488 FILLER_4_102
*489 FILLER_4_125
*490 FILLER_4_16
*491 FILLER_4_28
*492 FILLER_4_31
*493 FILLER_4_48
*494 FILLER_4_79
*495 FILLER_4_91
*496 FILLER_5_100
*497 FILLER_5_118
*498 FILLER_5_121
*499 FILLER_5_134
*500 FILLER_5_16
*501 FILLER_5_59
*502 FILLER_5_69
*503 FILLER_5_81
*504 FILLER_6_107
*505 FILLER_6_13
*506 FILLER_6_31
*507 FILLER_6_51
*508 FILLER_6_77
*509 FILLER_7_0
*510 FILLER_7_118
*511 FILLER_7_12
*512 FILLER_7_121
*513 FILLER_7_132
*514 FILLER_7_18
*515 FILLER_7_41
*516 FILLER_7_45
*517 FILLER_7_53
*518 FILLER_7_57
*519 FILLER_7_61
*520 FILLER_7_76
*521 FILLER_8_0
*522 FILLER_8_13
*523 FILLER_8_17
*524 FILLER_8_28
*525 FILLER_8_37
*526 FILLER_8_47
*527 FILLER_8_54
*528 FILLER_8_69
*529 FILLER_8_78
*530 FILLER_8_82
*531 FILLER_8_91
*532 FILLER_9_0
*533 FILLER_9_119
*534 FILLER_9_22
*535 FILLER_9_43
*536 FILLER_9_58
*537 FILLER_9_77
*538 TAP_TAPCELL_ROW_0_0
*539 TAP_TAPCELL_ROW_0_1
*540 TAP_TAPCELL_ROW_0_2
*541 TAP_TAPCELL_ROW_0_3
*542 TAP_TAPCELL_ROW_10_22
*543 TAP_TAPCELL_ROW_10_23
*544 TAP_TAPCELL_ROW_11_24
*545 TAP_TAPCELL_ROW_11_25
*546 TAP_TAPCELL_ROW_12_26
*547 TAP_TAPCELL_ROW_12_27
*548 TAP_TAPCELL_ROW_13_28
*549 TAP_TAPCELL_ROW_13_29
*550 TAP_TAPCELL_ROW_14_30
*551 TAP_TAPCELL_ROW_14_31
*552 TAP_TAPCELL_ROW_15_32
*553 TAP_TAPCELL_ROW_15_33
*554 TAP_TAPCELL_ROW_16_34
*555 TAP_TAPCELL_ROW_16_35
*556 TAP_TAPCELL_ROW_17_36
*557 TAP_TAPCELL_ROW_17_37
*558 TAP_TAPCELL_ROW_18_38
*559 TAP_TAPCELL_ROW_18_39
*560 TAP_TAPCELL_ROW_19_40
*561 TAP_TAPCELL_ROW_19_41
*562 TAP_TAPCELL_ROW_1_4
*563 TAP_TAPCELL_ROW_1_5
*564 TAP_TAPCELL_ROW_20_42
*565 TAP_TAPCELL_ROW_20_43
*566 TAP_TAPCELL_ROW_21_44
*567 TAP_TAPCELL_ROW_21_45
*568 TAP_TAPCELL_ROW_21_46
*569 TAP_TAPCELL_ROW_21_47
*570 TAP_TAPCELL_ROW_2_6
*571 TAP_TAPCELL_ROW_2_7
*572 TAP_TAPCELL_ROW_3_8
*573 TAP_TAPCELL_ROW_3_9
*574 TAP_TAPCELL_ROW_4_10
*575 TAP_TAPCELL_ROW_4_11
*576 TAP_TAPCELL_ROW_5_12
*577 TAP_TAPCELL_ROW_5_13
*578 TAP_TAPCELL_ROW_6_14
*579 TAP_TAPCELL_ROW_6_15
*580 TAP_TAPCELL_ROW_7_16
*581 TAP_TAPCELL_ROW_7_17
*582 TAP_TAPCELL_ROW_8_18
*583 TAP_TAPCELL_ROW_8_19
*584 TAP_TAPCELL_ROW_9_20
*585 TAP_TAPCELL_ROW_9_21
*586 _222_
*587 _223_
*588 _224_
*589 _225_
*590 _226_
*591 _227_
*592 _228_
*593 _229_
*594 _230_
*595 _231_
*596 _232_
*597 _233_
*598 _234_
*599 _235_
*600 _236_
*601 _237_
*602 _238_
*603 _239_
*604 _240_
*605 _241_
*606 _242_
*607 _243_
*608 _244_
*609 _245_
*610 _246_
*611 _247_
*612 _248_
*613 _249_
*614 _250_
*615 _251_
*616 _252_
*617 _253_
*618 _254_
*619 _255_
*620 _256_
*621 _257_
*622 _258_
*623 _259_
*624 _260_
*625 _261_
*626 _262_
*627 _263_
*628 _264_
*629 _265_
*630 _266_
*631 _267_
*632 _268_
*633 _269_
*634 _270_
*635 _271_
*636 _272_
*637 _273_
*638 _274_
*639 _275_
*640 _276_
*641 _277_
*642 _278_
*643 _279_
*644 _280_
*645 _281_
*646 _282_
*647 _283_
*648 _284_
*649 _285_
*650 _286_
*651 _287_
*652 _288_
*653 _289_
*654 _290_
*655 _291_
*656 _292_
*657 _293_
*658 _294_
*659 _295_
*660 _296_
*661 _297_
*662 _298_
*663 _299_
*664 _300_
*665 _301_
*666 _302_
*667 _303_
*668 _304_
*669 _305_
*670 _306_
*671 _307_
*672 _308_
*673 _309_
*674 _310_
*675 _311_
*676 _312_
*677 _313_
*678 _314_
*679 _315_
*680 _316_
*681 _317_
*682 _318_
*683 _319_
*684 _320_
*685 _321_
*686 _322_
*687 _323_
*688 _324_
*689 _325_
*690 _326_
*691 _327_
*692 _328_
*693 _329_
*694 _330_
*695 _331_
*696 _332_
*697 _333_
*698 _334_
*699 _335_
*700 _336_
*701 _337_
*702 _338_
*703 _339_
*704 _340_
*705 _341_
*706 _342_
*707 _343_
*708 _344_
*709 _345_
*710 _346_
*711 _347_
*712 _348_
*713 _349_
*714 _350_
*715 _351_
*716 _352_
*717 _353_
*718 _354_
*719 _355_
*720 _356_
*721 _357_
*722 _358_
*723 _359_
*724 _360_
*725 _361_
*726 _362_
*727 _363_
*728 _364_
*729 _365_
*730 _366_
*731 _367_
*732 _368_
*733 _369_
*734 _370_
*735 _371_
*736 _372_
*737 _373_
*738 _374_
*739 _375_
*740 _376_
*741 _377_
*742 _378_
*743 _379_
*744 _380_
*745 _381_
*746 _382_
*747 _383_
*748 _384_
*749 _385_
*750 _386_
*751 _387_
*752 _388_
*753 _389_
*754 _390_
*755 _391_
*756 _392_
*757 _393_
*758 _394_
*759 _395_
*760 _396_
*761 _397_
*762 _398_
*763 _399_
*764 _400_
*765 _401_
*766 _402_
*767 _403_
*768 _404_
*769 _405_
*770 _406_
*771 _407_
*772 _408_
*773 _409_
*774 _410_
*775 _411_
*776 _412_
*777 _413_
*778 _414_
*779 _415_
*780 _416_
*781 _417_
*782 _418_
*783 _419_
*784 _420_
*785 _421_
*786 _422_
*787 _423_
*788 _424_
*789 _425_
*790 _426_
*791 _427_
*792 _428_
*793 _429_
*794 _430_
*795 _431_
*796 _432_
*797 _433_
*798 _434_
*799 _435_
*800 _436_
*801 _437_
*802 _438_
*803 _439_
*804 _440_
*805 _441_
*806 _442_
*807 _443_
*808 _444_
*809 _445_
*810 _446_
*811 _447_
*812 _448_
*813 _449_
*814 _450_
*815 _451_
*816 _452_
*817 _453_
*818 _454_
*819 _455_
*820 _456_
*821 _457_
*822 _458_
*823 _459_
*824 _460_
*825 _461_
*826 _462_
*827 _463_
*828 _464_
*829 _465_
*830 _466_
*831 _467_
*832 _468_
*833 _469_
*834 _470_
*835 _471_
*836 _472_
*837 _473_
*838 _474_
*839 _475_
*840 _476_
*841 _477_
*842 _478_
*843 _479_
*844 _480_
*845 _481_
*846 _482_
*847 _483_
*848 _484_
*849 _485_
*850 _486_
*851 _487_
*852 _488_
*853 _489_
*854 _490_
*855 _491_
*856 _492_
*857 _493_
*858 _494_
*859 _495_
*860 _496_
*861 _497_
*862 _498_
*863 _499_
*864 _500_
*865 _501_
*866 _502_
*867 _503_
*868 _504_
*869 _505_
*870 _506_
*871 _507_
*872 _508_
*873 clkbuf_0_clk
*874 clkbuf_3_0__f_clk
*875 clkbuf_3_1__f_clk
*876 clkbuf_3_2__f_clk
*877 clkbuf_3_3__f_clk
*878 clkbuf_3_4__f_clk
*879 clkbuf_3_5__f_clk
*880 clkbuf_3_6__f_clk
*881 clkbuf_3_7__f_clk
*882 clkload0
*883 clkload1
*884 clkload2
*885 clkload3
*886 input10
*887 input11
*888 input12
*889 input13
*890 input14
*891 input15
*892 input16
*893 input17
*894 input18
*895 input19
*896 input20
*897 input21
*898 input22
*899 input23
*900 input24
*901 input25
*902 input26
*903 input27
*904 input28
*905 input29
*906 input30
*907 input31
*908 input32
*909 input33
*910 input34
*911 input35
*912 input36
*913 input37
*914 input4
*915 input5
*916 input6
*917 input7
*918 input8
*919 input9
*920 place3
*921 spare_aoi_0
*922 spare_dff_0
*923 spare_inverter_0
*924 spare_mux2_0
*925 spare_nand2_0
*926 spare_nor2_0
*927 spare_tielo_drv

*PORTS
clk I
p O
rst I
x[0] I
x[10] I
x[11] I
x[12] I
x[13] I
x[14] I
x[15] I
x[16] I
x[17] I
x[18] I
x[19] I
x[1] I
x[20] I
x[21] I
x[22] I
x[23] I
x[24] I
x[25] I
x[26] I
x[27] I
x[28] I
x[29] I
x[2] I
x[30] I
x[31] I
x[3] I
x[4] I
x[5] I
x[6] I
x[7] I
x[8] I
x[9] I
y I

*D_NET *39 0.00290486
*CONN
*I *865:D I *D sky130_fd_sc_hd__dfxtp_1
*I *628:Y O *D sky130_fd_sc_hd__nor3_1
*CAP
1 *865:D 0.00132692
2 *628:Y 0.00132692
3 *865:D *637:A 0.000251021
*RES
1 *628:Y *865:D 25.8736 
*END

*D_NET *40 0.00104202
*CONN
*I *864:D I *D sky130_fd_sc_hd__dfxtp_1
*I *631:Y O *D sky130_fd_sc_hd__nor3_1
*CAP
1 *864:D 0.000256817
2 *631:Y 0.000256817
3 *864:D *631:B 0.000374799
4 *864:D *864:CLK 0
5 *864:D *331:589 0.000153584
*RES
1 *631:Y *864:D 31.194 
*END

*D_NET *41 0.000674007
*CONN
*I *863:D I *D sky130_fd_sc_hd__dfxtp_1
*I *634:Y O *D sky130_fd_sc_hd__nor3_1
*CAP
1 *863:D 0.000237152
2 *634:Y 0.000237152
3 *863:D *634:A 0.000187856
4 *863:D *634:B 8.6526e-06
5 *863:D *634:C 3.19481e-06
*RES
1 *634:Y *863:D 29.9674 
*END

*D_NET *42 0.00105457
*CONN
*I *862:D I *D sky130_fd_sc_hd__dfxtp_1
*I *637:Y O *D sky130_fd_sc_hd__nor3_1
*CAP
1 *862:D 0.000254932
2 *637:Y 0.000254932
3 *862:D *637:B 0.000544708
4 *862:D *299:57 0
5 *862:D *299:59 0
*RES
1 *637:Y *862:D 31.3924 
*END

*D_NET *43 0.00270879
*CONN
*I *861:D I *D sky130_fd_sc_hd__dfxtp_1
*I *640:Y O *D sky130_fd_sc_hd__nor3_1
*CAP
1 *861:D 0.000129187
2 *640:Y 0.000129187
3 *861:D *631:B 3.47126e-05
4 *861:D *631:C 0.000544708
5 *861:D *639:B 0.000118431
6 *861:D *851:CLK 0.00103964
7 *861:D *74:14 0
8 *861:D *174:20 0.000212654
9 *861:D *331:678 0.00050027
*RES
1 *640:Y *861:D 34.2604 
*END

*D_NET *44 0.000756236
*CONN
*I *860:D I *D sky130_fd_sc_hd__dfxtp_1
*I *643:Y O *D sky130_fd_sc_hd__nor3_1
*CAP
1 *860:D 0.000189703
2 *643:Y 0.000189703
3 *860:D *691:A 0.000222569
4 *860:D *331:324 1.3692e-05
5 *860:D *347:12 0.00014057
*RES
1 *643:Y *860:D 30.2741 
*END

*D_NET *45 0.00195532
*CONN
*I *859:D I *D sky130_fd_sc_hd__dfxtp_1
*I *646:Y O *D sky130_fd_sc_hd__nor3_1
*CAP
1 *859:D 3.86185e-05
2 *646:Y 3.86185e-05
3 *859:D *646:B 0.000544708
4 *859:D *859:CLK 0.000654745
5 *859:D *305:38 0.000133925
6 *859:D *322:255 0.000544708
*RES
1 *646:Y *859:D 30.9775 
*END

*D_NET *46 0.0056937
*CONN
*I *858:D I *D sky130_fd_sc_hd__dfxtp_1
*I *649:Y O *D sky130_fd_sc_hd__nor3_1
*CAP
1 *858:D 0.00031426
2 *649:Y 0.00031426
3 *858:D *648:B 0
4 *858:D *649:C 0.000118431
5 *858:D *843:CLK 0.000251021
6 *858:D *269:10 0.00102082
7 *858:D *299:33 0.000459753
8 *858:D *299:45 0.00321516
*RES
1 *649:Y *858:D 36.7856 
*END

*D_NET *47 0.000749763
*CONN
*I *857:D I *D sky130_fd_sc_hd__dfxtp_1
*I *652:Y O *D sky130_fd_sc_hd__nor3_1
*CAP
1 *857:D 0.000287634
2 *652:Y 0.000287634
3 *857:D *652:C 8.28042e-05
4 *857:D *778:B 1.42934e-05
5 *857:D *857:CLK 7.7398e-05
6 *857:D *338:10 0
*RES
1 *652:Y *857:D 30.2741 
*END

*D_NET *48 0.00116922
*CONN
*I *856:D I *D sky130_fd_sc_hd__dfxtp_1
*I *655:Y O *D sky130_fd_sc_hd__nor3_1
*CAP
1 *856:D 0.000138703
2 *655:Y 0.000138703
3 *856:D *655:B 0.000374549
4 *856:D *852:CLK 3.49812e-05
5 *856:D *293:124 1.99893e-05
6 *856:D *300:18 0.000462296
7 *856:D *300:63 0
*RES
1 *655:Y *856:D 29.9494 
*END

*D_NET *49 0.000503906
*CONN
*I *855:D I *D sky130_fd_sc_hd__dfxtp_1
*I *658:Y O *D sky130_fd_sc_hd__nor3_1
*CAP
1 *855:D 9.90533e-05
2 *658:Y 9.90533e-05
3 *855:D *789:C 0.000153144
4 *855:D *266:12 5.59329e-05
5 *855:D *302:23 9.67224e-05
*RES
1 *658:Y *855:D 29.769 
*END

*D_NET *50 0.00156284
*CONN
*I *854:D I *D sky130_fd_sc_hd__dfxtp_1
*I *661:Y O *D sky130_fd_sc_hd__nor3_1
*CAP
1 *854:D 0.000205875
2 *661:Y 0.000205875
3 *854:D *661:A 0.000212386
4 *854:D *661:B 0.000502499
5 *854:D *326:10 0.000104138
6 *854:D *331:216 0.000332072
*RES
1 *661:Y *854:D 32.2221 
*END

*D_NET *51 0.00202441
*CONN
*I *853:D I *D sky130_fd_sc_hd__dfxtp_1
*I *664:Y O *D sky130_fd_sc_hd__nor3_1
*CAP
1 *853:D 0.000237876
2 *664:Y 0.000237876
3 *853:D *663:A 0.000544458
4 *853:D *664:B 0.000289345
5 *853:D *264:8 8.28043e-05
6 *853:D *301:14 0.000269847
7 *853:D *305:32 8.28042e-05
8 *853:D *305:38 0.000279403
*RES
1 *664:Y *853:D 33.0518 
*END

*D_NET *52 0.00339237
*CONN
*I *852:D I *D sky130_fd_sc_hd__dfxtp_1
*I *667:Y O *D sky130_fd_sc_hd__nor3_1
*CAP
1 *852:D 0.000499401
2 *667:Y 0.000499401
3 *852:D *667:A 0.000107646
4 *852:D *667:C 9.15845e-05
5 *852:D *331:290 0.00219434
*RES
1 *667:Y *852:D 24.593 
*END

*D_NET *53 0.00192604
*CONN
*I *851:D I *D sky130_fd_sc_hd__dfxtp_1
*I *670:Y O *D sky130_fd_sc_hd__nor3_1
*CAP
1 *851:D 0.000337374
2 *670:Y 0.000337374
3 *851:D *669:A 0.000251021
4 *851:D *669:B 0.000459753
5 *851:D *753:A 0.000209771
6 *851:D *174:20 0.000330748
7 *851:D *331:538 0
*RES
1 *670:Y *851:D 34.0259 
*END

*D_NET *54 0.00151711
*CONN
*I *850:D I *D sky130_fd_sc_hd__dfxtp_1
*I *673:Y O *D sky130_fd_sc_hd__nor3_1
*CAP
1 *850:D 0.000158954
2 *673:Y 0.000158954
3 *850:D *672:B 0
4 *850:D *673:B 0.000544458
5 *850:D *296:52 0.000654745
*RES
1 *673:Y *850:D 30.9775 
*END

*D_NET *55 0.00170167
*CONN
*I *849:D I *D sky130_fd_sc_hd__dfxtp_1
*I *676:Y O *D sky130_fd_sc_hd__nor3_1
*CAP
1 *849:D 0.000341754
2 *676:Y 0.000341754
3 *849:D *588:B 0.00021964
4 *849:D *291:18 0.00044347
5 *849:D *331:774 0.000222569
6 *849:D *331:780 0.000132487
*RES
1 *676:Y *849:D 31.3879 
*END

*D_NET *56 0.00156088
*CONN
*I *848:D I *D sky130_fd_sc_hd__dfxtp_1
*I *679:Y O *D sky130_fd_sc_hd__nor3_1
*CAP
1 *848:D 0.000198508
2 *679:Y 0.000198508
3 *848:D *679:B 0.000374799
4 *848:D *681:B 0.000153144
5 *848:D *290:8 0.000635919
*RES
1 *679:Y *848:D 31.194 
*END

*D_NET *57 0.00239936
*CONN
*I *847:D I *D sky130_fd_sc_hd__dfxtp_1
*I *682:Y O *D sky130_fd_sc_hd__nor3_1
*CAP
1 *847:D 8.33241e-05
2 *682:Y 8.33241e-05
3 *847:D *728:B 0.000374799
4 *847:D *326:10 0.000374799
5 *16:21 *847:D 0.00103964
6 *35:23 *847:D 0.00044347
*RES
1 *682:Y *847:D 31.194 
*END

*D_NET *58 0.00234624
*CONN
*I *846:D I *D sky130_fd_sc_hd__dfxtp_1
*I *685:Y O *D sky130_fd_sc_hd__nor3_1
*CAP
1 *846:D 0.000178581
2 *685:Y 0.000178581
3 *846:D *587:A 0.000291994
4 *846:D *684:B 2.843e-05
5 *846:D *685:C 0.000570436
6 *846:D *296:16 7.7398e-05
7 *846:D *317:22 0.00102082
8 *846:D *369:128 0
9 *846:D *369:154 0
*RES
1 *685:Y *846:D 32.5468 
*END

*D_NET *59 0.00172028
*CONN
*I *845:D I *D sky130_fd_sc_hd__dfxtp_1
*I *688:Y O *D sky130_fd_sc_hd__nor3_1
*CAP
1 *845:D 0.000589435
2 *688:Y 0.000589435
3 *845:D *688:B 3.93646e-05
4 *845:D *688:C 5.85715e-05
5 *845:D *287:10 0.00044347
*RES
1 *688:Y *845:D 24.593 
*END

*D_NET *60 0.00212963
*CONN
*I *844:D I *D sky130_fd_sc_hd__dfxtp_1
*I *691:Y O *D sky130_fd_sc_hd__nor3_1
*CAP
1 *844:D 0.000615544
2 *691:Y 0.000615544
3 *844:D *689:B1 5.13451e-05
4 *844:D *844:CLK 0.000847195
*RES
1 *691:Y *844:D 24.593 
*END

*D_NET *61 0.00203464
*CONN
*I *839:D I *D sky130_fd_sc_hd__dfxtp_1
*I *694:Y O *D sky130_fd_sc_hd__nor3_1
*CAP
1 *839:D 0.000404271
2 *694:Y 0.000404271
3 *839:D *694:B 0
4 *839:D *838:D 0.000654745
5 *839:D *360:12 0.000571349
*RES
1 *694:Y *839:D 34.7113 
*END

*D_NET *62 0.00561658
*CONN
*I *840:D I *D sky130_fd_sc_hd__dfxtp_4
*I *695:Y O *D sky130_fd_sc_hd__nor2b_1
*CAP
1 *840:D 0.000847756
2 *695:Y 0.000847756
3 *840:D *317:22 0.000273254
4 *840:D *331:107 0.00324387
5 *840:D *331:116 0.000154807
6 *840:D *363:12 3.93646e-05
7 *840:D *369:8 0.000209771
*RES
1 *695:Y *840:D 28.719 
*END

*D_NET *63 0.00301688
*CONN
*I *808:D I *D sky130_fd_sc_hd__dfxtp_1
*I *701:Y O *D sky130_fd_sc_hd__nor2_1
*CAP
1 *808:D 0.000169477
2 *701:Y 0.000169477
3 *808:D *324:16 0.000295733
4 *891:A *808:D 0.000187856
5 *917:A *808:D 0.00219434
*RES
1 *701:Y *808:D 33.9898 
*END

*D_NET *64 0.0021736
*CONN
*I *872:D I *D sky130_fd_sc_hd__dfxtp_1
*I *702:Y O *D sky130_fd_sc_hd__nor2b_1
*CAP
1 *872:D 0.000198398
2 *702:Y 0.000198398
3 *872:D *620:B1 0
4 *872:D *620:C1 0.00123209
5 *872:D *702:A 0.000544708
*RES
1 *702:Y *872:D 32.2221 
*END

*D_NET *65 0.000610911
*CONN
*I *843:D I *D sky130_fd_sc_hd__dfxtp_1
*I *705:Y O *D sky130_fd_sc_hd__nor3_1
*CAP
1 *843:D 0.000238493
2 *705:Y 0.000238493
3 *843:D *269:21 0
4 *843:D *283:10 0
5 *843:D *310:42 0.000133925
*RES
1 *705:Y *843:D 30.9775 
*END

*D_NET *66 0.00304957
*CONN
*I *842:D I *D sky130_fd_sc_hd__dfxtp_1
*I *708:Y O *D sky130_fd_sc_hd__nor3_1
*CAP
1 *842:D 0.000111321
2 *708:Y 0.000111321
3 *842:D *708:B 0.000374799
4 *842:D *708:C 0.00095597
5 *842:D *297:14 0.000571072
6 *842:D *297:18 0.000828368
7 *842:D *309:18 9.67224e-05
*RES
1 *708:Y *842:D 31.8433 
*END

*D_NET *67 0.0010858
*CONN
*I *841:D I *D sky130_fd_sc_hd__dfxtp_1
*I *709:Y O *D sky130_fd_sc_hd__a211oi_1
*CAP
1 *841:D 6.83728e-05
2 *709:Y 6.83728e-05
3 *841:D *709:A1 0.00044347
4 *841:D *709:A2 0.000505589
*RES
1 *709:Y *841:D 20.2459 
*END

*D_NET *68 0.0054515
*CONN
*I *838:D I *D sky130_fd_sc_hd__dfxtp_1
*I *715:Y O *D sky130_fd_sc_hd__nor2_1
*CAP
1 *838:D 0.001295
2 *715:Y 0.001295
3 *838:D *620:A1 0
4 *838:D *715:B 0
5 *838:D *838:CLK 0.00180944
6 *838:D *839:CLK 0.000146288
7 *838:D *360:12 0.000251021
8 *839:D *838:D 0.000654745
*RES
1 *715:Y *838:D 41.2409 
*END

*D_NET *69 0.00300047
*CONN
*I *837:D I *D sky130_fd_sc_hd__dfxtp_1
*I *721:Y O *D sky130_fd_sc_hd__nor2_1
*CAP
1 *837:D 0.00084259
2 *721:Y 0.00084259
3 *837:D *622:C1 0
4 *837:D *721:B 0.000965387
5 *837:D *726:B 0
6 *837:D *837:CLK 0.000133925
7 *837:D *838:CLK 0
8 *837:D *331:601 0
9 *837:D *357:6 0.000215981
*RES
1 *721:Y *837:D 38.878 
*END

*D_NET *70 0.000269561
*CONN
*I *836:D I *D sky130_fd_sc_hd__dfxtp_1
*I *727:Y O *D sky130_fd_sc_hd__nor2_1
*CAP
1 *836:D 8.64192e-05
2 *727:Y 8.64192e-05
3 *836:D *294:74 9.67224e-05
4 *836:D *331:601 0
*RES
1 *727:Y *836:D 29.1197 
*END

*D_NET *71 0.00076789
*CONN
*I *835:D I *D sky130_fd_sc_hd__dfxtp_1
*I *733:Y O *D sky130_fd_sc_hd__nor2_1
*CAP
1 *835:D 0.000377099
2 *733:Y 0.000377099
3 *835:D *733:B 1.3692e-05
4 *835:D *295:90 0
*RES
1 *733:Y *835:D 30.973 
*END

*D_NET *72 0.00281536
*CONN
*I *834:D I *D sky130_fd_sc_hd__dfxtp_1
*I *739:Y O *D sky130_fd_sc_hd__nor2_1
*CAP
1 *834:D 0.000659032
2 *739:Y 0.000659032
3 *834:D *739:B 0.00018781
4 *834:D *867:D 0
5 *834:D *298:16 0.000654745
6 *834:D *354:12 0.000654745
*RES
1 *739:Y *834:D 34.1882 
*END

*D_NET *73 0.00044172
*CONN
*I *833:D I *D sky130_fd_sc_hd__dfxtp_1
*I *745:Y O *D sky130_fd_sc_hd__nor2_1
*CAP
1 *833:D 0.00022086
2 *745:Y 0.00022086
3 *833:D *863:CLK 0
*RES
1 *745:Y *833:D 29.9494 
*END

*D_NET *74 0.00682589
*CONN
*I *832:D I *D sky130_fd_sc_hd__dfxtp_1
*I *749:Y O *D sky130_fd_sc_hd__nor3_1
*CAP
1 *832:D 0
2 *749:Y 0.00122807
3 *74:14 0.00122807
4 *74:14 *631:B 0
5 *74:14 *639:B 0
6 *74:14 *747:A2 0.000714616
7 *74:14 *749:B 6.93231e-05
8 *74:14 *755:A1 0.00020489
9 *74:14 *765:C 0.000326707
10 *74:14 *825:D 0
11 *74:14 *828:D 0
12 *74:14 *832:CLK 0.000629662
13 *74:14 *77:10 0
14 *74:14 *164:14 2.55313e-05
15 *74:14 *279:16 0
16 *74:14 *293:42 0.000533859
17 *74:14 *293:52 0.000548093
18 *74:14 *293:86 0.00121494
19 *74:14 *313:18 8.28042e-05
20 *74:14 *313:24 1.9321e-05
21 *74:14 *331:407 0
22 *861:D *74:14 0
*RES
1 *749:Y *74:14 46.7316 
2 *74:14 *832:D 9.3 
*END

*D_NET *75 0.0166132
*CONN
*I *831:D I *D sky130_fd_sc_hd__dfxtp_1
*I *753:Y O *D sky130_fd_sc_hd__nor3_2
*CAP
1 *831:D 0.00141972
2 *753:Y 0.0010802
3 *75:12 0.00249991
4 *831:D *625:B1 0.00200189
5 *831:D *828:D 0.00155633
6 *831:D *867:D 0.00136388
7 *831:D *300:31 0.000251021
8 *831:D *351:18 0.00164438
9 *75:12 *629:A2 0.00113939
10 *75:12 *763:A1 0.000289844
11 *75:12 *763:A2 8.98444e-05
12 *75:12 *819:CLK 0.000799321
13 *75:12 *819:D 0
14 *75:12 *164:14 0.000828368
15 *75:12 *184:24 6.57712e-05
16 *75:12 *309:33 6.94252e-05
17 *75:12 *344:14 0.00122434
18 *75:12 *347:12 0.000289595
19 *75:12 *369:202 0
20 *75:12 *369:204 0
21 *75:12 *369:219 0
*RES
1 *753:Y *75:12 34.624 
2 *75:12 *831:D 27.306 
*END

*D_NET *76 0.00564183
*CONN
*I *830:D I *D sky130_fd_sc_hd__dfxtp_1
*I *757:Y O *D sky130_fd_sc_hd__nor3_1
*CAP
1 *830:D 0.00128046
2 *757:Y 0.00128046
3 *830:D *635:B1 0.000118646
4 *830:D *635:B2 0.000251021
5 *830:D *757:C 8.28042e-05
6 *830:D *759:B1 0.000459253
7 *830:D *761:B 0.000138748
8 *830:D *879:A 0.000241512
9 *830:D *189:10 0
10 *830:D *198:10 0.000679385
11 *830:D *293:86 0.000158708
12 *830:D *322:84 0.000153144
13 *830:D *322:99 0.000289844
14 *830:D *322:156 0.000374799
15 *830:D *350:28 0.000133041
*RES
1 *757:Y *830:D 46.1832 
*END

*D_NET *77 0.00993697
*CONN
*I *829:D I *D sky130_fd_sc_hd__dfxtp_1
*I *761:Y O *D sky130_fd_sc_hd__nor3_1
*CAP
1 *829:D 1.5455e-05
2 *761:Y 0.00114966
3 *77:10 0.00116512
4 *829:D *295:72 1.14338e-05
5 *77:10 *624:B1 0.000153144
6 *77:10 *625:B1 0.000131542
7 *77:10 *625:C1 0.001394
8 *77:10 *747:B1 0.000459753
9 *77:10 *755:A1 0
10 *77:10 *755:A2 0.000242988
11 *77:10 *757:C 3.47126e-05
12 *77:10 *759:A2 0.000798571
13 *77:10 *761:B 9.8997e-05
14 *77:10 *761:C 0.000396132
15 *77:10 *867:CLK 0.00063912
16 *77:10 *867:D 0
17 *77:10 *189:10 0.000714616
18 *77:10 *293:42 0.000493284
19 *77:10 *293:52 6.57712e-05
20 *77:10 *293:86 0
21 *77:10 *295:25 0.000594681
22 *77:10 *295:27 0.000459753
23 *77:10 *299:10 0.00014057
24 *77:10 *299:33 0
25 *77:10 *322:99 0
26 *77:10 *331:355 0.000257282
27 *77:10 *331:407 0.000520383
28 *77:10 *345:18 0
29 *74:14 *77:10 0
*RES
1 *761:Y *77:10 45.546 
2 *77:10 *829:D 13.9668 
*END

*D_NET *78 0.00369211
*CONN
*I *828:D I *D sky130_fd_sc_hd__dfxtp_1
*I *765:Y O *D sky130_fd_sc_hd__nor3_1
*CAP
1 *828:D 0.000539658
2 *765:Y 0.000539658
3 *828:D *739:A 2.843e-05
4 *828:D *765:B 0.00044347
5 *828:D *825:D 0
6 *828:D *279:16 0.00058457
7 *831:D *828:D 0.00155633
8 *74:14 *828:D 0
*RES
1 *765:Y *828:D 34.2919 
*END

*D_NET *79 0.00127186
*CONN
*I *827:D I *D sky130_fd_sc_hd__dfxtp_1
*I *769:Y O *D sky130_fd_sc_hd__nor3_1
*CAP
1 *827:D 0.00010552
2 *769:Y 0.00010552
3 *827:D *615:A 4.38475e-05
4 *827:D *768:B 6.57067e-05
5 *827:D *768:C 0.000459253
6 *827:D *769:B 0.000222161
7 *827:D *827:CLK 0.000269847
*RES
1 *769:Y *827:D 30.7611 
*END

*D_NET *80 0.0136726
*CONN
*I *826:D I *D sky130_fd_sc_hd__dfxtp_1
*I *773:Y O *D sky130_fd_sc_hd__nor3_1
*CAP
1 *826:D 0.00371065
2 *773:Y 0.00371065
3 *826:D *768:A 0.000170955
4 *826:D *768:C 0.000203859
5 *826:D *769:B 5.13451e-05
6 *826:D *769:C 0.000244707
7 *826:D *770:A 3.93646e-05
8 *826:D *770:B 8.28042e-05
9 *826:D *772:B 0.00044347
10 *826:D *772:C 1.35969e-05
11 *826:D *773:B 0.00180441
12 *826:D *811:CLK 0.00257924
13 *826:D *811:D 7.7398e-05
14 *826:D *207:8 8.28042e-05
15 *826:D *322:229 3.87941e-05
16 *826:D *331:298 9.39425e-05
17 *826:D *346:18 0.000273254
18 *826:D *359:10 5.13451e-05
*RES
1 *773:Y *826:D 46.7791 
*END

*D_NET *81 0.00469339
*CONN
*I *825:D I *D sky130_fd_sc_hd__dfxtp_1
*I *777:Y O *D sky130_fd_sc_hd__nor3_1
*CAP
1 *825:D 0.000706849
2 *777:Y 0.000706849
3 *825:D *689:B2 8.37187e-05
4 *825:D *691:B 0
5 *825:D *755:A1 0
6 *825:D *765:B 1.58314e-05
7 *825:D *777:B 0.000119936
8 *825:D *777:C 0.000289844
9 *825:D *825:CLK 0.000792014
10 *825:D *844:CLK 0
11 *825:D *252:12 0
12 *825:D *279:16 0.000162429
13 *825:D *286:10 2.19237e-05
14 *825:D *293:86 0
15 *825:D *298:40 0.000509726
16 *825:D *298:66 0.000679635
17 *825:D *322:76 9.67224e-05
18 *825:D *322:135 5.67438e-05
19 *825:D *361:23 0.000451162
20 *828:D *825:D 0
21 *74:14 *825:D 0
*RES
1 *777:Y *825:D 43.5316 
*END

*D_NET *82 0.00138269
*CONN
*I *824:D I *D sky130_fd_sc_hd__dfxtp_1
*I *781:Y O *D sky130_fd_sc_hd__nor3_1
*CAP
1 *824:D 6.84571e-05
2 *781:Y 6.84571e-05
3 *824:D *781:B 0.000104138
4 *824:D *781:C 0.000289844
5 *824:D *297:48 0.000434519
6 *824:D *331:79 0.000417276
*RES
1 *781:Y *824:D 30.4319 
*END

*D_NET *83 0.00203013
*CONN
*I *823:D I *D sky130_fd_sc_hd__dfxtp_1
*I *785:Y O *D sky130_fd_sc_hd__nor3_1
*CAP
1 *823:D 0.000385403
2 *785:Y 0.000385403
3 *823:D *331:65 0.000629662
4 *823:D *348:18 0.000629662
*RES
1 *785:Y *823:D 32.9436 
*END

*D_NET *84 0.00299779
*CONN
*I *822:D I *D sky130_fd_sc_hd__dfxtp_1
*I *789:Y O *D sky130_fd_sc_hd__nor3_1
*CAP
1 *822:D 0.00018023
2 *789:Y 0.00018023
3 *822:D *789:B 0.00096948
4 *822:D *789:C 0.000430845
5 *822:D *822:CLK 0
6 *822:D *222:18 0.000462296
7 *822:D *326:10 0.000312414
8 *918:A *822:D 0.000462296
*RES
1 *789:Y *822:D 34.8556 
*END

*D_NET *85 0.00854715
*CONN
*I *821:D I *D sky130_fd_sc_hd__dfxtp_1
*I *793:Y O *D sky130_fd_sc_hd__nor3_1
*CAP
1 *821:D 0.00305097
2 *793:Y 0.00305097
3 *821:D *644:A2 0
4 *821:D *662:A2 0.000710774
5 *821:D *791:B1 0.000211236
6 *821:D *821:CLK 0.000267848
7 *821:D *881:A 0.000223571
8 *821:D *293:177 6.90035e-05
9 *821:D *301:14 0.000389367
10 *821:D *310:30 7.72085e-05
11 *821:D *322:422 0.000374799
12 *821:D *331:261 0.000121392
*RES
1 *793:Y *821:D 43.4415 
*END

*D_NET *86 0.00178662
*CONN
*I *820:D I *D sky130_fd_sc_hd__dfxtp_1
*I *797:Y O *D sky130_fd_sc_hd__nor3_1
*CAP
1 *820:D 0.000378102
2 *797:Y 0.000378102
3 *820:D *797:B 0.000374799
4 *820:D *797:C 0.000374049
5 *820:D *348:18 0.000281566
*RES
1 *797:Y *820:D 32.8534 
*END

*D_NET *87 0.0041135
*CONN
*I *819:D I *D sky130_fd_sc_hd__dfxtp_1
*I *801:Y O *D sky130_fd_sc_hd__nor3_1
*CAP
1 *819:D 0.00136278
2 *801:Y 0.00136278
3 *819:D *650:B2 0.000847195
4 *819:D *652:B 0
5 *819:D *687:A 0.000118094
6 *819:D *687:B 0.000273254
7 *819:D *801:C 1.9321e-05
8 *819:D *812:D 0.000130074
9 *819:D *287:10 0
10 *819:D *293:23 0
11 *819:D *362:10 0
12 *1:18 *819:D 0
13 *75:12 *819:D 0
*RES
1 *801:Y *819:D 43.7842 
*END

*D_NET *88 0.000928321
*CONN
*I *818:D I *D sky130_fd_sc_hd__dfxtp_1
*I *805:Y O *D sky130_fd_sc_hd__nor3_1
*CAP
1 *818:D 0.000108079
2 *805:Y 0.000108079
3 *818:D *317:22 0.000462296
4 *818:D *331:559 0.000153144
5 *818:D *369:386 9.67224e-05
*RES
1 *805:Y *818:D 29.9494 
*END

*D_NET *89 0.00214052
*CONN
*I *817:D I *D sky130_fd_sc_hd__dfxtp_1
*I *587:Y O *D sky130_fd_sc_hd__nor3_1
*CAP
1 *817:D 0.000136912
2 *587:Y 0.000136912
3 *817:D *586:B 3.47126e-05
4 *817:D *586:C 0.000289844
5 *817:D *672:A 0.000651584
6 *817:D *849:CLK 0.000133925
7 *817:D *331:780 0.000126967
8 *817:D *333:34 0.000629662
9 *817:D *366:14 0
*RES
1 *587:Y *817:D 33.4306 
*END

*D_NET *90 0.000463276
*CONN
*I *816:D I *D sky130_fd_sc_hd__dfxtp_1
*I *591:Y O *D sky130_fd_sc_hd__nor3_1
*CAP
1 *816:D 0.000175448
2 *591:Y 0.000175448
3 *816:D *588:A 0
4 *816:D *591:B 0
5 *816:D *710:B 0
6 *816:D *816:CLK 3.49812e-05
7 *816:D *237:8 7.7398e-05
8 *816:D *291:10 0
*RES
1 *591:Y *816:D 29.7329 
*END

*D_NET *91 0.00557104
*CONN
*I *815:D I *D sky130_fd_sc_hd__dfxtp_1
*I *595:Y O *D sky130_fd_sc_hd__nor3_1
*CAP
1 *815:D 0.000170268
2 *595:Y 0.000170268
3 *815:D *681:A 0.000544708
4 *815:D *174:14 0.00195135
5 *815:D *289:12 0.000544458
6 *815:D *327:34 0.000654745
7 *815:D *364:8 0.000828368
8 *898:A *815:D 0.000671889
9 *33:27 *815:D 3.49812e-05
*RES
1 *595:Y *815:D 35.3065 
*END

*D_NET *92 0.00273545
*CONN
*I *814:D I *D sky130_fd_sc_hd__dfxtp_1
*I *599:Y O *D sky130_fd_sc_hd__nor3_1
*CAP
1 *814:D 0.000342566
2 *599:Y 0.000342566
3 *814:D *840:CLK 0.000208071
4 *814:D *328:16 0
5 *814:D *331:107 0.000499964
6 *814:D *369:106 0.000458754
7 *814:D *369:112 0.000883526
*RES
1 *599:Y *814:D 35.5771 
*END

*D_NET *93 0.000916403
*CONN
*I *813:D I *D sky130_fd_sc_hd__dfxtp_1
*I *603:Y O *D sky130_fd_sc_hd__nor3_1
*CAP
1 *813:D 2.79487e-05
2 *603:Y 2.79487e-05
3 *813:D *813:CLK 7.7398e-05
4 *813:D *314:20 0.000544708
5 *813:D *331:732 0.000222569
6 *813:D *362:10 1.58314e-05
*RES
1 *603:Y *813:D 29.7329 
*END

*D_NET *94 0.00824868
*CONN
*I *812:D I *D sky130_fd_sc_hd__dfxtp_1
*I *607:Y O *D sky130_fd_sc_hd__nor3_1
*CAP
1 *812:D 0.00163462
2 *607:Y 0.00163462
3 *812:D *686:B1 0
4 *812:D *686:B2 0
5 *812:D *689:A2 6.90307e-05
6 *812:D *689:B2 0.00044347
7 *812:D *755:A1 6.4847e-05
8 *812:D *920:A 0.00159816
9 *812:D *184:24 0.00182537
10 *812:D *249:10 0
11 *812:D *271:12 0
12 *812:D *322:10 0.000346447
13 *812:D *322:49 0.000251021
14 *812:D *361:8 0.000251021
15 *819:D *812:D 0.000130074
*RES
1 *607:Y *812:D 46.9227 
*END

*D_NET *95 0.000418546
*CONN
*I *811:D I *D sky130_fd_sc_hd__dfxtp_1
*I *611:Y O *D sky130_fd_sc_hd__nor3_1
*CAP
1 *811:D 4.58909e-05
2 *611:Y 4.58909e-05
3 *811:D *305:53 9.65289e-05
4 *811:D *331:449 0.000152838
5 *826:D *811:D 7.7398e-05
*RES
1 *611:Y *811:D 29.1197 
*END

*D_NET *96 0.00381967
*CONN
*I *810:D I *D sky130_fd_sc_hd__dfxtp_1
*I *615:Y O *D sky130_fd_sc_hd__nor3_1
*CAP
1 *810:D 0.000941493
2 *615:Y 0.000941493
3 *810:D *615:C 1.19805e-05
4 *810:D *644:A2 0.00103461
5 *810:D *645:A 7.87291e-05
6 *810:D *645:B 0.000635919
7 *810:D *821:CLK 9.80501e-05
8 *810:D *301:35 7.7398e-05
9 *810:D *322:242 0
10 *810:D *346:10 0
*RES
1 *615:Y *810:D 38.0843 
*END

*D_NET *97 0.0019021
*CONN
*I *809:D I *D sky130_fd_sc_hd__dfxtp_1
*I *619:Y O *D sky130_fd_sc_hd__nor3_1
*CAP
1 *809:D 0.000482135
2 *619:Y 0.000482135
3 *809:D *617:B1 0.000251021
4 *809:D *619:A 1.19805e-05
5 *809:D *734:A 4.9006e-05
6 *809:D *809:CLK 0.000251021
7 *809:D *302:10 0.000374799
8 *809:D *328:12 0
*RES
1 *619:Y *809:D 31.5547 
*END

*D_NET *98 0.00427018
*CONN
*I *871:D I *D sky130_fd_sc_hd__dfxtp_1
*I *620:Y O *D sky130_fd_sc_hd__a211oi_1
*CAP
1 *871:D 0.000499199
2 *620:Y 0.000499199
3 *871:D *620:A1 3.47126e-05
4 *871:D *620:B1 7.47986e-05
5 *871:D *711:B 0.000374799
6 *871:D *712:A 4.41623e-05
7 *871:D *714:B 0.00121327
8 *871:D *284:21 0.000635919
9 *871:D *294:53 0.000282113
10 *871:D *294:57 0.000125154
11 *871:D *360:12 3.09512e-05
12 *871:D *360:18 0.000455911
*RES
1 *620:Y *871:D 37.0922 
*END

*D_NET *99 0.00149319
*CONN
*I *870:D I *D sky130_fd_sc_hd__dfxtp_1
*I *621:Y O *D sky130_fd_sc_hd__a211oi_1
*CAP
1 *870:D 0.000428228
2 *621:Y 0.000428228
3 *870:D *174:20 0.000295733
4 *870:D *282:10 0.000153144
5 *870:D *293:52 0
6 *870:D *331:644 0.000187856
*RES
1 *621:Y *870:D 33.5749 
*END

*D_NET *100 0.00291522
*CONN
*I *869:D I *D sky130_fd_sc_hd__dfxtp_1
*I *622:Y O *D sky130_fd_sc_hd__a211oi_1
*CAP
1 *869:D 0.000217154
2 *622:Y 0.000217154
3 *869:D *622:A2 0
4 *869:D *622:B1 0.000596614
5 *869:D *726:B 0.000459753
6 *869:D *294:70 0.00142454
*RES
1 *622:Y *869:D 32.3303 
*END

*D_NET *101 0.0035698
*CONN
*I *868:D I *D sky130_fd_sc_hd__dfxtp_1
*I *623:Y O *D sky130_fd_sc_hd__a211oi_1
*CAP
1 *868:D 0.000400132
2 *623:Y 0.000400132
3 *868:D *623:A2 0.000126967
4 *868:D *623:B1 0.00131066
5 *868:D *733:A 0.00102082
6 *868:D *174:24 0
7 *868:D *280:12 0
8 *868:D *295:90 0.000118646
9 *868:D *331:646 0.000192449
10 *868:D *356:14 0
*RES
1 *623:Y *868:D 35.3246 
*END

*D_NET *102 0.005001
*CONN
*I *867:D I *D sky130_fd_sc_hd__dfxtp_1
*I *624:Y O *D sky130_fd_sc_hd__a211oi_1
*CAP
1 *867:D 0.000377509
2 *624:Y 0.000377509
3 *867:D *624:A1 0.000277701
4 *867:D *624:A2 0
5 *867:D *624:B1 0.000153144
6 *867:D *738:B 0.00122434
7 *867:D *867:CLK 0.00108259
8 *867:D *179:16 1.73563e-05
9 *867:D *351:18 0.000126967
10 *831:D *867:D 0.00136388
11 *834:D *867:D 0
12 *77:10 *867:D 0
*RES
1 *624:Y *867:D 40.1721 
*END

*D_NET *103 0.00590877
*CONN
*I *866:D I *D sky130_fd_sc_hd__dfxtp_1
*I *625:Y O *D sky130_fd_sc_hd__a211oi_1
*CAP
1 *866:D 0.00153874
2 *625:Y 0.00153874
3 *866:D *625:C1 5.85715e-05
4 *866:D *632:A2 0.000945511
5 *866:D *632:B1 0.000307799
6 *866:D *633:A 0.000544708
7 *866:D *634:B 0.00044347
8 *866:D *744:A 8.21521e-05
9 *866:D *831:CLK 0.000222569
10 *866:D *184:24 4.41623e-05
11 *866:D *278:14 0.000169439
12 *866:D *298:70 0
13 *866:D *351:18 1.28963e-05
*RES
1 *625:Y *866:D 45.2993 
*END

*D_NET *104 0.00283741
*CONN
*I *628:B I *D sky130_fd_sc_hd__nor3_1
*I *626:Y O *D sky130_fd_sc_hd__a22oi_1
*CAP
1 *628:B 0.000950621
2 *626:Y 0.000950621
3 *628:B *626:B1 7.87291e-05
4 *628:B *627:B 0.00017539
5 *628:B *637:A 0.000119936
6 *628:B *299:61 0
7 *628:B *299:63 0
8 *628:B *353:24 0.000562116
*RES
1 *626:Y *628:B 34.7429 
*END

*D_NET *105 0.000744036
*CONN
*I *628:C I *D sky130_fd_sc_hd__nor3_1
*I *627:Y O *D sky130_fd_sc_hd__nor2_1
*CAP
1 *628:C 5.57292e-05
2 *627:Y 5.57292e-05
3 *628:C *627:A 1.9321e-05
4 *628:C *637:A 0.000209771
5 *628:C *637:B 0.000336737
6 *628:C *331:407 6.67486e-05
*RES
1 *627:Y *628:C 21.2335 
*END

*D_NET *106 0.00514053
*CONN
*I *631:B I *D sky130_fd_sc_hd__nor3_1
*I *629:Y O *D sky130_fd_sc_hd__a22oi_1
*CAP
1 *631:B 0.000591554
2 *629:Y 0.000591554
3 *631:B *629:B2 0.000192449
4 *631:B *630:B 0.000828368
5 *631:B *631:C 0.00249866
6 *631:B *864:CLK 0
7 *631:B *293:52 0
8 *631:B *349:6 8.6526e-06
9 *631:B *349:27 1.97774e-05
10 *861:D *631:B 3.47126e-05
11 *864:D *631:B 0.000374799
12 *74:14 *631:B 0
*RES
1 *629:Y *631:B 39.5408 
*END

*D_NET *107 0.00443078
*CONN
*I *631:C I *D sky130_fd_sc_hd__nor3_1
*I *630:Y O *D sky130_fd_sc_hd__nor2_1
*CAP
1 *631:C 0.000230812
2 *630:Y 0.000230812
3 *631:C *715:B 0.00044347
4 *631:C *331:585 0.000206341
5 *631:C *331:678 0.000275981
6 *631:B *631:C 0.00249866
7 *861:D *631:C 0.000544708
*RES
1 *630:Y *631:C 38.3143 
*END

*D_NET *108 0.00230863
*CONN
*I *634:B I *D sky130_fd_sc_hd__nor3_1
*I *632:Y O *D sky130_fd_sc_hd__a22oi_1
*CAP
1 *634:B 0.000448398
2 *632:Y 0.000448398
3 *634:B *632:B1 0.000635919
4 *634:B *632:B2 0.000126967
5 *634:B *744:A 0.000196823
6 *863:D *634:B 8.6526e-06
7 *866:D *634:B 0.00044347
*RES
1 *632:Y *634:B 24.1195 
*END

*D_NET *109 0.00504076
*CONN
*I *634:C I *D sky130_fd_sc_hd__nor3_1
*I *633:Y O *D sky130_fd_sc_hd__nor2_1
*CAP
1 *634:C 0.00161823
2 *633:Y 0.00161823
3 *634:C *625:A2 0.00179061
4 *634:C *741:B 1.04972e-05
5 *863:D *634:C 3.19481e-06
*RES
1 *633:Y *634:C 27.1678 
*END

*D_NET *110 0.00486711
*CONN
*I *637:B I *D sky130_fd_sc_hd__nor3_1
*I *635:Y O *D sky130_fd_sc_hd__a22oi_1
*CAP
1 *637:B 0.00104964
2 *635:Y 0.00104964
3 *637:B *627:A 2.843e-05
4 *637:B *637:A 0.00184745
5 *637:B *299:57 0
6 *637:B *299:59 0
7 *637:B *299:61 0
8 *637:B *331:407 1.04972e-05
9 *628:C *637:B 0.000336737
10 *862:D *637:B 0.000544708
*RES
1 *635:Y *637:B 37.6108 
*END

*D_NET *111 0.000714925
*CONN
*I *637:C I *D sky130_fd_sc_hd__nor3_1
*I *636:Y O *D sky130_fd_sc_hd__nor2_1
*CAP
1 *637:C 0.000221602
2 *636:Y 0.000221602
3 *637:C *637:A 8.28042e-05
4 *637:C *299:45 0
5 *637:C *299:57 0.000188917
*RES
1 *636:Y *637:C 21.2335 
*END

*D_NET *112 0.00103313
*CONN
*I *640:B I *D sky130_fd_sc_hd__nor3_1
*I *638:Y O *D sky130_fd_sc_hd__a22oi_1
*CAP
1 *640:B 0.000102381
2 *638:Y 0.000102381
3 *640:B *639:A 0.000828368
*RES
1 *638:Y *640:B 20.3857 
*END

*D_NET *113 0.000377929
*CONN
*I *640:C I *D sky130_fd_sc_hd__nor3_1
*I *639:Y O *D sky130_fd_sc_hd__nor2_1
*CAP
1 *640:C 8.52637e-05
2 *639:Y 8.52637e-05
3 *640:C *639:A 0.00014883
4 *640:C *639:B 5.85715e-05
*RES
1 *639:Y *640:C 19.9889 
*END

*D_NET *114 0.00210837
*CONN
*I *643:B I *D sky130_fd_sc_hd__nor3_1
*I *641:Y O *D sky130_fd_sc_hd__a22oi_1
*CAP
1 *643:B 0.00017766
2 *641:Y 0.00017766
3 *643:B *641:B2 0.000544208
4 *643:B *643:C 0
5 *643:B *768:B 9.02742e-06
6 *643:B *271:27 3.47126e-05
7 *643:B *331:320 0.00019045
8 *643:B *331:324 0.000146288
9 *643:B *347:16 0.000828368
*RES
1 *641:Y *643:B 32.3799 
*END

*D_NET *115 0.00181642
*CONN
*I *643:C I *D sky130_fd_sc_hd__nor3_1
*I *642:Y O *D sky130_fd_sc_hd__nor2_1
*CAP
1 *643:C 7.95902e-05
2 *642:Y 7.95902e-05
3 *643:C *642:B 0.000508302
4 *643:C *691:A 5.28749e-05
5 *643:C *313:18 0.000828368
6 *643:C *322:64 0.000118094
7 *643:C *331:337 0.000118646
8 *643:C *331:441 3.09512e-05
9 *643:B *643:C 0
*RES
1 *642:Y *643:C 31.9651 
*END

*D_NET *116 0.00236205
*CONN
*I *646:B I *D sky130_fd_sc_hd__nor3_1
*I *644:Y O *D sky130_fd_sc_hd__a22oi_1
*CAP
1 *646:B 0.000173636
2 *644:Y 0.000173636
3 *646:B *615:B 0
4 *646:B *615:C 0
5 *646:B *646:C 0.000272112
6 *646:B *770:A 0.00020489
7 *646:B *270:10 0.000339818
8 *646:B *310:30 0.00044347
9 *646:B *322:255 8.98444e-05
10 *646:B *346:18 0.000119936
11 *859:D *646:B 0.000544708
*RES
1 *644:Y *646:B 33.2818 
*END

*D_NET *117 0.0022114
*CONN
*I *646:C I *D sky130_fd_sc_hd__nor3_1
*I *645:Y O *D sky130_fd_sc_hd__nor2_1
*CAP
1 *646:C 0.000129671
2 *645:Y 0.000129671
3 *646:C *615:B 0
4 *646:C *615:C 7.47986e-05
5 *646:C *310:30 0.000570436
6 *646:C *319:16 0.000828368
7 *646:C *322:255 0
8 *646:C *322:276 0.000206341
9 *646:B *646:C 0.000272112
*RES
1 *645:Y *646:C 33.8049 
*END

*D_NET *118 0.000712353
*CONN
*I *649:B I *D sky130_fd_sc_hd__nor3_1
*I *647:Y O *D sky130_fd_sc_hd__a22oi_1
*CAP
1 *649:B 8.30748e-05
2 *647:Y 8.30748e-05
3 *649:B *649:C 0.000251021
4 *649:B *761:A 4.41623e-05
5 *649:B *331:455 0.000251021
*RES
1 *647:Y *649:B 19.9709 
*END

*D_NET *119 0.00155005
*CONN
*I *649:C I *D sky130_fd_sc_hd__nor3_1
*I *648:Y O *D sky130_fd_sc_hd__nor2_1
*CAP
1 *649:C 0.00018299
2 *648:Y 0.00018299
3 *649:C *648:B 0.000222569
4 *649:C *761:A 0.00044347
5 *649:C *843:CLK 8.28042e-05
6 *649:C *299:33 6.57712e-05
7 *649:B *649:C 0.000251021
8 *858:D *649:C 0.000118431
*RES
1 *648:Y *649:C 31.0632 
*END

*D_NET *120 0.00358031
*CONN
*I *652:B I *D sky130_fd_sc_hd__nor3_1
*I *650:Y O *D sky130_fd_sc_hd__a22oi_1
*CAP
1 *652:B 0.00026743
2 *650:Y 0.00026743
3 *652:B *650:B2 0.000336737
4 *652:B *651:A 0.00121327
5 *652:B *778:B 0.000400221
6 *652:B *338:10 0.000465557
7 *819:D *652:B 0
8 *1:18 *652:B 0.000629664
*RES
1 *650:Y *652:B 37.4485 
*END

*D_NET *121 0.00037096
*CONN
*I *652:C I *D sky130_fd_sc_hd__nor3_1
*I *651:Y O *D sky130_fd_sc_hd__nor2_1
*CAP
1 *652:C 4.99803e-05
2 *651:Y 4.99803e-05
3 *652:C *651:A 0.00014883
4 *652:C *309:18 3.93646e-05
5 *857:D *652:C 8.28042e-05
*RES
1 *651:Y *652:C 19.9889 
*END

*D_NET *122 0.00356353
*CONN
*I *655:B I *D sky130_fd_sc_hd__nor3_1
*I *653:Y O *D sky130_fd_sc_hd__a22oi_1
*CAP
1 *655:B 0.000558671
2 *653:Y 0.000558671
3 *655:B *655:C 0.00113914
4 *655:B *852:CLK 0.000104138
5 *655:B *293:177 0
6 *655:B *300:63 0
7 *655:B *362:10 0
8 *655:B *369:295 0.000828368
9 *856:D *655:B 0.000374549
*RES
1 *653:Y *655:B 33.8049 
*END

*D_NET *123 0.00202656
*CONN
*I *655:C I *D sky130_fd_sc_hd__nor3_1
*I *654:Y O *D sky130_fd_sc_hd__nor2_1
*CAP
1 *655:C 0.000243434
2 *654:Y 0.000243434
3 *655:C *688:A 0.000146288
4 *655:C *781:B 0
5 *655:C *267:16 0.000118582
6 *655:C *293:124 0.000135685
7 *655:C *293:148 0
8 *655:C *293:177 0
9 *655:B *655:C 0.00113914
*RES
1 *654:Y *655:C 33.5885 
*END

*D_NET *124 0.00184078
*CONN
*I *658:B I *D sky130_fd_sc_hd__nor3_1
*I *656:Y O *D sky130_fd_sc_hd__a22oi_1
*CAP
1 *658:B 6.12322e-05
2 *656:Y 6.12322e-05
3 *658:B *656:A2 6.90307e-05
4 *658:B *657:A 0.000251021
5 *658:B *658:C 0.000377449
6 *658:B *696:A 0.00102082
*RES
1 *656:Y *658:B 21.6303 
*END

*D_NET *125 0.00160243
*CONN
*I *658:C I *D sky130_fd_sc_hd__nor3_1
*I *657:Y O *D sky130_fd_sc_hd__nor2_1
*CAP
1 *658:C 0.000316875
2 *657:Y 0.000316875
3 *658:C *656:A2 6.90307e-05
4 *658:C *657:A 7.87291e-05
5 *658:C *657:B 0.00044347
6 *658:B *658:C 0.000377449
*RES
1 *657:Y *658:C 22.8929 
*END

*D_NET *126 0.0050592
*CONN
*I *661:B I *D sky130_fd_sc_hd__nor3_1
*I *659:Y O *D sky130_fd_sc_hd__a22oi_1
*CAP
1 *661:B 0.00150944
2 *659:Y 0.00150944
3 *661:B *659:B2 0.00121327
4 *661:B *661:A 3.47126e-05
5 *661:B *791:A2 0
6 *661:B *326:10 0.000289844
7 *854:D *661:B 0.000502499
*RES
1 *659:Y *661:B 34.8872 
*END

*D_NET *127 0.00388448
*CONN
*I *661:C I *D sky130_fd_sc_hd__nor3_1
*I *660:Y O *D sky130_fd_sc_hd__nor2_1
*CAP
1 *661:C 0.00044974
2 *660:Y 0.00044974
3 *661:C *661:A 0.000417026
4 *661:C *265:10 0.000251021
5 *661:C *265:16 0.000251021
6 *661:C *305:32 0.000570436
7 *661:C *331:216 0.000756844
8 *894:A *661:C 0.000635919
9 *909:A *661:C 0.000102734
*RES
1 *660:Y *661:C 34.7609 
*END

*D_NET *128 0.00202141
*CONN
*I *664:B I *D sky130_fd_sc_hd__nor3_1
*I *662:Y O *D sky130_fd_sc_hd__a22oi_1
*CAP
1 *664:B 0.000474413
2 *662:Y 0.000474413
3 *664:B *662:B1 7.30242e-06
4 *664:B *662:B2 8.6526e-06
5 *664:B *663:A 3.47126e-05
6 *664:B *305:32 0.000732577
7 *853:D *664:B 0.000289345
*RES
1 *662:Y *664:B 30.7385 
*END

*D_NET *129 0.000667107
*CONN
*I *664:C I *D sky130_fd_sc_hd__nor3_1
*I *663:Y O *D sky130_fd_sc_hd__nor2_1
*CAP
1 *664:C 3.86747e-05
2 *663:Y 3.86747e-05
3 *664:C *313:12 0.00044347
4 *664:C *319:16 0.000146288
*RES
1 *663:Y *664:C 19.9889 
*END

*D_NET *130 0.00108842
*CONN
*I *667:B I *D sky130_fd_sc_hd__nor3_1
*I *665:Y O *D sky130_fd_sc_hd__a22oi_1
*CAP
1 *667:B 0.000272988
2 *665:Y 0.000272988
3 *667:B *798:B 6.34833e-05
4 *667:B *228:14 0.000251021
5 *667:B *263:12 7.47986e-05
6 *667:B *307:12 0
7 *667:B *339:20 0.000153144
*RES
1 *665:Y *667:B 29.9088 
*END

*D_NET *131 0.000971212
*CONN
*I *667:C I *D sky130_fd_sc_hd__nor3_1
*I *666:Y O *D sky130_fd_sc_hd__nor2_1
*CAP
1 *667:C 0.000198318
2 *666:Y 0.000198318
3 *667:C *666:A 9.64854e-05
4 *667:C *667:A 0.000377987
5 *667:C *331:290 8.51948e-06
6 *852:D *667:C 9.15845e-05
*RES
1 *666:Y *667:C 21.3597 
*END

*D_NET *132 0.000589142
*CONN
*I *670:B I *D sky130_fd_sc_hd__nor3_1
*I *668:Y O *D sky130_fd_sc_hd__a22oi_1
*CAP
1 *670:B 0.000129696
2 *668:Y 0.000129696
3 *670:B *668:B1 7.87291e-05
4 *670:B *669:A 0.000251021
*RES
1 *668:Y *670:B 19.9709 
*END

*D_NET *133 0.000724702
*CONN
*I *670:C I *D sky130_fd_sc_hd__nor3_1
*I *669:Y O *D sky130_fd_sc_hd__nor2_1
*CAP
1 *670:C 2.60377e-05
2 *669:Y 2.60377e-05
3 *670:C *668:B1 4.62487e-05
4 *670:C *669:A 0.000115817
5 *670:C *669:B 5.85715e-05
6 *670:C *314:20 0.000451989
*RES
1 *669:Y *670:C 19.9889 
*END

*D_NET *134 0.00125711
*CONN
*I *673:B I *D sky130_fd_sc_hd__nor3_1
*I *671:Y O *D sky130_fd_sc_hd__a22oi_1
*CAP
1 *673:B 0.000296359
2 *671:Y 0.000296359
3 *673:B *671:B2 0.000119936
4 *673:B *672:B 0
5 *673:B *710:B 0
6 *673:B *285:16 0
7 *850:D *673:B 0.000544458
*RES
1 *671:Y *673:B 32.3258 
*END

*D_NET *135 0.000597362
*CONN
*I *673:C I *D sky130_fd_sc_hd__nor3_1
*I *672:Y O *D sky130_fd_sc_hd__nor2_1
*CAP
1 *673:C 0.000154431
2 *672:Y 0.000154431
3 *673:C *672:A 0
4 *673:C *331:780 7.87291e-05
5 *673:C *331:782 0.000209771
*RES
1 *672:Y *673:C 21.2335 
*END

*D_NET *136 0.00127391
*CONN
*I *676:B I *D sky130_fd_sc_hd__nor3_1
*I *674:Y O *D sky130_fd_sc_hd__a22oi_1
*CAP
1 *676:B 0.000211656
2 *674:Y 0.000211656
3 *676:B *586:A 0
4 *676:B *587:C 3.46105e-05
5 *676:B *674:B1 0.000374799
6 *676:B *676:C 0.000115817
7 *676:B *291:18 3.93646e-05
8 *676:B *329:22 0
9 *676:B *331:766 0
10 *676:B *333:28 0.000286002
11 *676:B *369:128 0
*RES
1 *674:Y *676:B 31.3879 
*END

*D_NET *137 0.000537323
*CONN
*I *676:C I *D sky130_fd_sc_hd__nor3_1
*I *675:Y O *D sky130_fd_sc_hd__nor2_1
*CAP
1 *676:C 5.35009e-05
2 *675:Y 5.35009e-05
3 *676:C *586:A 0
4 *676:C *291:18 0.000251021
5 *676:C *333:28 6.34833e-05
6 *676:B *676:C 0.000115817
*RES
1 *675:Y *676:C 19.9889 
*END

*D_NET *138 0.00409208
*CONN
*I *679:B I *D sky130_fd_sc_hd__nor3_1
*I *677:Y O *D sky130_fd_sc_hd__a22oi_1
*CAP
1 *679:B 0.000800813
2 *677:Y 0.000800813
3 *679:B *594:B 0.00031563
4 *679:B *679:C 3.49812e-05
5 *679:B *681:B 0.000497813
6 *679:B *141:14 0.00113939
7 *679:B *327:40 1.41199e-05
8 *679:B *369:36 9.39425e-05
9 *679:B *369:43 1.97774e-05
10 *848:D *679:B 0.000374799
*RES
1 *677:Y *679:B 34.7429 
*END

*D_NET *139 0.00260502
*CONN
*I *679:C I *D sky130_fd_sc_hd__nor3_1
*I *678:Y O *D sky130_fd_sc_hd__nor2_1
*CAP
1 *679:C 0.000559189
2 *678:Y 0.000559189
3 *679:C *681:B 0.000222569
4 *679:C *141:14 0.00122909
5 *679:B *679:C 3.49812e-05
*RES
1 *678:Y *679:C 31.7667 
*END

*D_NET *140 0.00140166
*CONN
*I *682:B I *D sky130_fd_sc_hd__nor3_1
*I *680:Y O *D sky130_fd_sc_hd__a22oi_1
*CAP
1 *682:B 5.55123e-05
2 *680:Y 5.55123e-05
3 *682:B *680:A2 6.90307e-05
4 *682:B *680:B2 0.000828368
5 *682:B *141:14 0.000251021
6 *892:A *682:B 6.34833e-05
7 *35:23 *682:B 7.87291e-05
*RES
1 *680:Y *682:B 20.8006 
*END

*D_NET *141 0.0153016
*CONN
*I *682:C I *D sky130_fd_sc_hd__nor3_1
*I *681:Y O *D sky130_fd_sc_hd__nor2_1
*CAP
1 *682:C 0
2 *681:Y 0.00057769
3 *141:14 0.00057769
4 *141:14 *591:B 0.000251021
5 *141:14 *591:C 0.000635919
6 *141:14 *681:A 0.00610081
7 *141:14 *681:B 0.000117228
8 *141:14 *682:A 1.9321e-05
9 *141:14 *728:B 0.00275302
10 *141:14 *289:12 0.00135902
11 *141:14 *312:18 0.000251021
12 *679:B *141:14 0.00113939
13 *679:C *141:14 0.00122909
14 *682:B *141:14 0.000251021
15 *892:A *141:14 3.93646e-05
*RES
1 *681:Y *141:14 43.0114 
2 *141:14 *682:C 9.3 
*END

*D_NET *142 0.000885176
*CONN
*I *685:B I *D sky130_fd_sc_hd__nor3_1
*I *683:Y O *D sky130_fd_sc_hd__a22oi_1
*CAP
1 *685:B 1.97431e-05
2 *683:Y 1.97431e-05
3 *685:B *684:A 0.000635919
4 *685:B *317:22 0.000209771
*RES
1 *683:Y *685:B 19.9709 
*END

*D_NET *143 0.00123127
*CONN
*I *685:C I *D sky130_fd_sc_hd__nor3_1
*I *684:Y O *D sky130_fd_sc_hd__nor2_1
*CAP
1 *685:C 3.64929e-05
2 *684:Y 3.64929e-05
3 *685:C *684:A 0.000548485
4 *685:C *684:B 3.93646e-05
5 *846:D *685:C 0.000570436
*RES
1 *684:Y *685:C 20.9449 
*END

*D_NET *144 0.00222585
*CONN
*I *688:B I *D sky130_fd_sc_hd__nor3_1
*I *686:Y O *D sky130_fd_sc_hd__a22oi_1
*CAP
1 *688:B 0.000167986
2 *686:Y 0.000167986
3 *688:B *686:B2 0.000799571
4 *688:B *688:C 0.000179527
5 *688:B *852:CLK 0
6 *688:B *249:10 0.000326707
7 *688:B *362:10 0.000544708
8 *845:D *688:B 3.93646e-05
*RES
1 *686:Y *688:B 33.2818 
*END

*D_NET *145 0.000605231
*CONN
*I *688:C I *D sky130_fd_sc_hd__nor3_1
*I *687:Y O *D sky130_fd_sc_hd__nor2_1
*CAP
1 *688:C 0.000173906
2 *687:Y 0.000173906
3 *688:C *852:CLK 0
4 *688:C *300:63 1.9321e-05
5 *688:C *362:10 0
6 *688:B *688:C 0.000179527
7 *845:D *688:C 5.85715e-05
*RES
1 *687:Y *688:C 30.5221 
*END

*D_NET *146 0.00097346
*CONN
*I *691:B I *D sky130_fd_sc_hd__nor3_1
*I *689:Y O *D sky130_fd_sc_hd__a22oi_1
*CAP
1 *691:B 5.58051e-05
2 *689:Y 5.58051e-05
3 *691:B *689:B1 0.000629662
4 *691:B *689:B2 5.28749e-05
5 *691:B *691:C 3.49812e-05
6 *691:B *755:A1 3.47126e-05
7 *691:B *361:23 0.000109619
8 *825:D *691:B 0
*RES
1 *689:Y *691:B 30.1794 
*END

*D_NET *147 0.00229898
*CONN
*I *691:C I *D sky130_fd_sc_hd__nor3_1
*I *690:Y O *D sky130_fd_sc_hd__nor2_1
*CAP
1 *691:C 0.000718867
2 *690:Y 0.000718867
3 *691:C *689:B1 6.94252e-05
4 *691:C *690:A 3.93646e-05
5 *691:C *690:B 0.000273254
6 *691:C *286:10 0.000374799
7 *691:C *323:31 0
8 *691:C *361:23 6.94252e-05
9 *691:B *691:C 3.49812e-05
*RES
1 *690:Y *691:C 32.1815 
*END

*D_NET *148 0.00397106
*CONN
*I *694:B I *D sky130_fd_sc_hd__nor3_1
*I *702:B_N I *D sky130_fd_sc_hd__nor2b_1
*I *692:X O *D sky130_fd_sc_hd__and3_1
*CAP
1 *694:B 0.000349518
2 *702:B_N 0.000469728
3 *692:X 0
4 *148:6 0.000819246
5 *694:B *694:C 0.000374549
6 *694:B *818:CLK 0
7 *694:B *285:16 0.000119686
8 *694:B *331:561 0.000384898
9 *694:B *331:565 0.00044347
10 *702:B_N *702:A 0.000635919
11 *702:B_N *285:16 0.000374049
12 *839:D *694:B 0
*RES
1 *692:X *148:6 13.8 
2 *148:6 *702:B_N 19.0128 
3 *148:6 *694:B 18.4717 
*END

*D_NET *149 0.00263496
*CONN
*I *694:C I *D sky130_fd_sc_hd__nor3_1
*I *693:Y O *D sky130_fd_sc_hd__a21oi_1
*CAP
1 *694:C 0.000465003
2 *693:Y 0.000465003
3 *694:C *692:B 0.00044347
4 *694:C *169:14 0
5 *694:C *331:561 0.000251021
6 *694:C *331:565 0.000635919
7 *694:B *694:C 0.000374549
*RES
1 *693:Y *694:C 32.3078 
*END

*D_NET *150 0.00636263
*CONN
*I *700:A I *D sky130_fd_sc_hd__xnor2_1
*I *709:A1 I *D sky130_fd_sc_hd__a211oi_1
*I *696:Y O *D sky130_fd_sc_hd__nand2_1
*CAP
1 *700:A 8.29995e-05
2 *709:A1 0.000737138
3 *696:Y 0.000374385
4 *150:10 0.00119452
5 *700:A *696:A 2.19237e-05
6 *700:A *700:B 0.000927002
7 *700:A *808:CLK 0.000162494
8 *700:A *841:CLK 5.28749e-05
9 *709:A1 *709:A2 2.7384e-05
10 *709:A1 *709:C1 6.34833e-05
11 *709:A1 *331:26 0.00044347
12 *150:10 *696:A 0.00035078
13 *150:10 *700:B 0.000247367
14 *150:10 *179:16 0.00050223
15 *150:10 *302:10 3.19481e-06
16 *150:10 *318:24 0.000155401
17 *150:10 *332:20 0.000251021
18 *841:D *709:A1 0.00044347
19 *886:A *150:10 0.000289844
20 *902:A *700:A 0
21 *902:A *709:A1 3.16497e-05
*RES
1 *696:Y *150:10 20.5551 
2 *150:10 *709:A1 17.651 
3 *150:10 *700:A 17.4526 
*END

*D_NET *151 0.00557287
*CONN
*I *709:A2 I *D sky130_fd_sc_hd__a211oi_1
*I *697:Y O *D sky130_fd_sc_hd__nand2_1
*CAP
1 *709:A2 0.000426399
2 *697:Y 0.000426399
3 *709:A2 *699:B 0.000459753
4 *709:A2 *709:B1 0.000457129
5 *709:A2 *709:C1 0.000251021
6 *709:A2 *734:B 0.00014057
7 *709:A2 *300:101 0.00122179
8 *709:A2 *323:16 0.000743258
9 *709:A2 *326:10 0
10 *709:A2 *331:26 0.000198969
11 *709:A2 *337:12 0.000714616
12 *709:A1 *709:A2 2.7384e-05
13 *841:D *709:A2 0.000505589
*RES
1 *697:Y *709:A2 42.3367 
*END

*D_NET *152 0.0086716
*CONN
*I *709:B1 I *D sky130_fd_sc_hd__a211oi_1
*I *698:Y O *D sky130_fd_sc_hd__nor2_1
*CAP
1 *709:B1 0.00192777
2 *698:Y 0.00192777
3 *709:B1 *261:8 0.000424772
4 *709:B1 *261:10 0.00122434
5 *709:B1 *300:101 0.000635919
6 *709:B1 *323:16 0.00207389
7 *709:A2 *709:B1 0.000457129
*RES
1 *698:Y *709:B1 42.2645 
*END

*D_NET *153 0.00476284
*CONN
*I *700:B I *D sky130_fd_sc_hd__xnor2_1
*I *699:Y O *D sky130_fd_sc_hd__xnor2_1
*CAP
1 *700:B 0.00100076
2 *699:Y 0.00100076
3 *700:B *696:A 0.000465557
4 *700:B *699:A 0.000273254
5 *700:B *734:B 0.000828368
6 *700:A *700:B 0.000927002
7 *887:A *700:B 1.97774e-05
8 *150:10 *700:B 0.000247367
*RES
1 *699:Y *700:B 35.5726 
*END

*D_NET *154 0.00115616
*CONN
*I *701:B I *D sky130_fd_sc_hd__nor2_1
*I *700:Y O *D sky130_fd_sc_hd__xnor2_1
*CAP
1 *701:B 0.000102501
2 *700:Y 0.000102501
3 *701:B *701:A 5.28538e-05
4 *701:B *307:12 0.000336737
5 *701:B *331:22 0.000118094
6 *891:A *701:B 0.00044347
*RES
1 *700:Y *701:B 22.0812 
*END

*D_NET *155 0.000848343
*CONN
*I *705:B I *D sky130_fd_sc_hd__nor3_1
*I *703:Y O *D sky130_fd_sc_hd__a22oi_1
*CAP
1 *705:B 9.71552e-06
2 *703:Y 9.71552e-06
3 *705:B *647:A1 2.7384e-05
4 *705:B *703:B2 1.9321e-05
5 *705:B *305:38 0.000635919
6 *705:B *331:455 0.000146288
*RES
1 *703:Y *705:B 19.9709 
*END

*D_NET *156 0.0027017
*CONN
*I *705:C I *D sky130_fd_sc_hd__nor3_1
*I *704:Y O *D sky130_fd_sc_hd__nor2_1
*CAP
1 *705:C 0.000869955
2 *704:Y 0.000869955
3 *705:C *703:B2 0.000251021
4 *705:C *704:A 0
5 *705:C *305:53 0.000459753
6 *705:C *359:14 0.000251021
*RES
1 *704:Y *705:C 32.2898 
*END

*D_NET *157 0.00416701
*CONN
*I *708:B I *D sky130_fd_sc_hd__nor3_1
*I *706:Y O *D sky130_fd_sc_hd__a22oi_1
*CAP
1 *708:B 0.000984792
2 *706:Y 0.000984792
3 *708:B *708:C 0.000374799
4 *708:B *174:20 0.000171129
5 *708:B *293:148 2.19237e-05
6 *708:B *293:154 0.00017539
7 *708:B *297:31 0
8 *708:B *309:18 0.000828368
9 *708:B *327:34 0.000251021
10 *842:D *708:B 0.000374799
*RES
1 *706:Y *708:B 35.1577 
*END

*D_NET *158 0.00819683
*CONN
*I *708:C I *D sky130_fd_sc_hd__nor3_1
*I *707:Y O *D sky130_fd_sc_hd__nor2_1
*CAP
1 *708:C 0.00208207
2 *707:Y 0.00208207
3 *708:C *706:B2 0.00140572
4 *708:C *707:A 3.93646e-05
5 *708:C *707:B 0.000828368
6 *708:C *708:A 0.000146288
7 *708:C *293:154 0.000153144
8 *708:C *297:14 0.000129037
9 *708:B *708:C 0.000374799
10 *842:D *708:C 0.00095597
*RES
1 *707:Y *708:C 38.3504 
*END

*D_NET *159 0.00557596
*CONN
*I *620:A1 I *D sky130_fd_sc_hd__a211oi_1
*I *714:A I *D sky130_fd_sc_hd__xnor2_1
*I *710:Y O *D sky130_fd_sc_hd__nand2_1
*CAP
1 *620:A1 0.000178264
2 *714:A 0.000213439
3 *710:Y 0.000892703
4 *159:12 0.00128441
5 *620:A1 *711:A 2.19237e-05
6 *620:A1 *711:B 0.000629662
7 *620:A1 *872:CLK 0.000448657
8 *620:A1 *294:28 3.15476e-05
9 *620:A1 *294:30 0.000361317
10 *620:A1 *360:12 0
11 *620:A1 *360:18 0.000169909
12 *714:A *714:B 0.000119936
13 *714:A *169:14 0.000160169
14 *714:A *294:28 1.09619e-05
15 *159:12 *818:CLK 7.74584e-05
16 *159:12 *169:14 0.000595021
17 *159:12 *312:18 4.77432e-05
18 *159:12 *321:18 0.000220667
19 *159:12 *369:386 7.74584e-05
20 *838:D *620:A1 0
21 *871:D *620:A1 3.47126e-05
*RES
1 *710:Y *159:12 19.4297 
2 *159:12 *714:A 18.2077 
3 *159:12 *620:A1 22.7024 
*END

*D_NET *160 0.000512465
*CONN
*I *620:A2 I *D sky130_fd_sc_hd__a211oi_1
*I *711:Y O *D sky130_fd_sc_hd__nand2_1
*CAP
1 *620:A2 3.44975e-05
2 *711:Y 3.44975e-05
3 *620:A2 *711:B 0.00044347
*RES
1 *711:Y *620:A2 19.556 
*END

*D_NET *161 0.00135684
*CONN
*I *620:B1 I *D sky130_fd_sc_hd__a211oi_1
*I *712:Y O *D sky130_fd_sc_hd__nor2_1
*CAP
1 *620:B1 0.000226836
2 *712:Y 0.000226836
3 *620:B1 *711:B 0
4 *620:B1 *872:CLK 0.000828368
5 *871:D *620:B1 7.47986e-05
6 *872:D *620:B1 0
*RES
1 *712:Y *620:B1 30.7385 
*END

*D_NET *162 0.00350177
*CONN
*I *714:B I *D sky130_fd_sc_hd__xnor2_1
*I *713:Y O *D sky130_fd_sc_hd__xnor2_1
*CAP
1 *714:B 0.000909569
2 *713:Y 0.000909569
3 *714:B *838:CLK 0
4 *714:B *294:30 0.000222467
5 *714:B *360:18 0.000126967
6 *714:A *714:B 0.000119936
7 *871:D *714:B 0.00121327
*RES
1 *713:Y *714:B 33.0113 
*END

*D_NET *163 0.00180035
*CONN
*I *715:B I *D sky130_fd_sc_hd__nor2_1
*I *714:Y O *D sky130_fd_sc_hd__xnor2_1
*CAP
1 *715:B 0.000442492
2 *714:Y 0.000442492
3 *715:B *631:A 5.13451e-05
4 *715:B *294:28 0.000374299
5 *715:B *331:565 4.62487e-05
6 *715:B *358:8 0
7 *631:C *715:B 0.00044347
8 *838:D *715:B 0
*RES
1 *714:Y *715:B 33.0293 
*END

*D_NET *164 0.0287779
*CONN
*I *621:A1 I *D sky130_fd_sc_hd__a211oi_1
*I *720:A I *D sky130_fd_sc_hd__xnor2_1
*I *716:Y O *D sky130_fd_sc_hd__nand2_1
*CAP
1 *621:A1 0
2 *720:A 0.000567487
3 *716:Y 0.00812078
4 *164:14 0.00868826
5 *720:A *719:A 0.000799571
6 *720:A *720:B 0.000520887
7 *720:A *721:B 0.000927811
8 *720:A *874:A 0.000137415
9 *720:A *331:644 6.94252e-05
10 *720:A *358:8 0
11 *164:14 *600:A 0.000635919
12 *164:14 *600:B 5.13451e-05
13 *164:14 *717:A 8.28042e-05
14 *164:14 *718:A 8.28042e-05
15 *164:14 *750:B 3.93646e-05
16 *164:14 *752:B 1.41294e-05
17 *164:14 *752:C 0.000297979
18 *164:14 *753:B 0.000122055
19 *164:14 *753:C 0.0003448
20 *164:14 *803:B1 0.000251021
21 *164:14 *804:C 0.000376531
22 *164:14 *832:CLK 0.00044347
23 *164:14 *192:6 7.87291e-05
24 *164:14 *246:20 5.13451e-05
25 *164:14 *276:12 0.000146288
26 *164:14 *282:18 0.000276519
27 *164:14 *314:20 0.000107539
28 *164:14 *318:24 0.000251021
29 *164:14 *369:158 0.00179061
30 *164:14 *369:162 0.000828368
31 *164:14 *369:171 0.000237372
32 *164:14 *369:173 0.000251021
33 *164:14 *369:181 0.00121327
34 *908:A *164:14 0.000118094
35 *74:14 *164:14 2.55313e-05
36 *75:12 *164:14 0.000828368
*RES
1 *716:Y *164:14 44.9782 
2 *164:14 *720:A 28.7437 
3 *164:14 *621:A1 9.3 
*END

*D_NET *165 0.000449251
*CONN
*I *621:A2 I *D sky130_fd_sc_hd__a211oi_1
*I *717:Y O *D sky130_fd_sc_hd__nand2_1
*CAP
1 *621:A2 7.94331e-05
2 *717:Y 7.94331e-05
3 *621:A2 *717:A 0.000251021
4 *621:A2 *717:B 3.93646e-05
*RES
1 *717:Y *621:A2 19.556 
*END

*D_NET *166 0.00129324
*CONN
*I *621:B1 I *D sky130_fd_sc_hd__a211oi_1
*I *718:Y O *D sky130_fd_sc_hd__nor2_1
*CAP
1 *621:B1 0.000328663
2 *718:Y 0.000328663
3 *621:B1 *717:B 0.000635919
*RES
1 *718:Y *621:B1 19.9709 
*END

*D_NET *167 0.00372862
*CONN
*I *720:B I *D sky130_fd_sc_hd__xnor2_1
*I *719:Y O *D sky130_fd_sc_hd__xnor2_1
*CAP
1 *720:B 0.00109006
2 *719:Y 0.00109006
3 *720:B *874:A 0.00065317
4 *720:B *293:52 0.000256003
5 *720:B *358:8 0.000118431
6 *720:A *720:B 0.000520887
*RES
1 *719:Y *720:B 34.5084 
*END

*D_NET *168 0.0031092
*CONN
*I *721:B I *D sky130_fd_sc_hd__nor2_1
*I *720:Y O *D sky130_fd_sc_hd__xnor2_1
*CAP
1 *721:B 0.000508429
2 *720:Y 0.000508429
3 *721:B *721:A 1.34892e-05
4 *721:B *331:595 3.93646e-05
5 *721:B *331:601 0.000146288
6 *721:B *358:8 0
7 *720:A *721:B 0.000927811
8 *837:D *721:B 0.000965387
*RES
1 *720:Y *721:B 33.6606 
*END

*D_NET *169 0.00603022
*CONN
*I *726:A I *D sky130_fd_sc_hd__xnor2_1
*I *622:A1 I *D sky130_fd_sc_hd__a211oi_1
*I *722:Y O *D sky130_fd_sc_hd__nand2_1
*CAP
1 *726:A 3.83119e-05
2 *622:A1 0.000181348
3 *722:Y 0.00208512
4 *169:14 0.00230478
5 *622:A1 *622:B1 3.49812e-05
6 *622:A1 *726:B 0
7 *622:A1 *294:74 0
8 *726:A *622:C1 0
9 *726:A *294:74 0
10 *169:14 *818:CLK 0.000239517
11 *169:14 *312:18 0.000390963
12 *694:C *169:14 0
13 *714:A *169:14 0.000160169
14 *159:12 *169:14 0.000595021
*RES
1 *722:Y *169:14 26.7178 
2 *169:14 *622:A1 16.226 
3 *169:14 *726:A 14.3862 
*END

*D_NET *170 0.00173396
*CONN
*I *622:A2 I *D sky130_fd_sc_hd__a211oi_1
*I *723:Y O *D sky130_fd_sc_hd__nand2_1
*CAP
1 *622:A2 0.000644591
2 *723:Y 0.000644591
3 *622:A2 *622:B1 9.67224e-05
4 *622:A2 *723:B 0.000273254
5 *622:A2 *726:B 0
6 *622:A2 *281:12 7.47986e-05
7 *622:A2 *294:74 0
8 *869:D *622:A2 0
*RES
1 *723:Y *622:A2 33.1916 
*END

*D_NET *171 0.00392311
*CONN
*I *622:B1 I *D sky130_fd_sc_hd__a211oi_1
*I *724:Y O *D sky130_fd_sc_hd__nor2_1
*CAP
1 *622:B1 0.000957722
2 *724:Y 0.000957722
3 *622:B1 *726:B 2.19237e-05
4 *622:B1 *294:70 0.00125743
5 *622:B1 *294:74 0
6 *622:A1 *622:B1 3.49812e-05
7 *622:A2 *622:B1 9.67224e-05
8 *869:D *622:B1 0.000596614
*RES
1 *724:Y *622:B1 33.1195 
*END

*D_NET *172 0.00231819
*CONN
*I *726:B I *D sky130_fd_sc_hd__xnor2_1
*I *725:Y O *D sky130_fd_sc_hd__xnor2_1
*CAP
1 *726:B 0.000388122
2 *725:Y 0.000388122
3 *726:B *622:C1 0.000629412
4 *726:B *724:B 0
5 *726:B *727:A 0.000209771
6 *726:B *727:B 0.000146288
7 *726:B *281:12 7.47986e-05
8 *622:A1 *726:B 0
9 *622:A2 *726:B 0
10 *622:B1 *726:B 2.19237e-05
11 *837:D *726:B 0
12 *869:D *726:B 0.000459753
*RES
1 *725:Y *726:B 35.5365 
*END

*D_NET *173 0.00145498
*CONN
*I *727:B I *D sky130_fd_sc_hd__nor2_1
*I *726:Y O *D sky130_fd_sc_hd__xnor2_1
*CAP
1 *727:B 0.000569943
2 *726:Y 0.000569943
3 *727:B *727:A 0.000168808
4 *726:B *727:B 0.000146288
*RES
1 *726:Y *727:B 23.3439 
*END

*D_NET *174 0.036334
*CONN
*I *732:A I *D sky130_fd_sc_hd__xnor2_1
*I *623:A1 I *D sky130_fd_sc_hd__a211oi_1
*I *728:Y O *D sky130_fd_sc_hd__nand2_1
*CAP
1 *732:A 0.000103481
2 *623:A1 0
3 *728:Y 0.000349214
4 *174:24 0.000253308
5 *174:20 0.00770708
6 *174:14 0.00790647
7 *732:A *732:B 0
8 *732:A *733:A 0.000153466
9 *174:14 *595:C 0.000187754
10 *174:14 *679:A 0.000799321
11 *174:14 *681:A 8.0602e-05
12 *174:14 *289:12 1.09619e-05
13 *174:14 *312:18 0.000162413
14 *174:14 *326:27 0.000236187
15 *174:14 *327:34 0.000288973
16 *174:14 *332:20 0.000520485
17 *174:14 *364:8 4.41623e-05
18 *174:20 *599:B 0.000828368
19 *174:20 *599:C 0.000107646
20 *174:20 *602:A 0.000146288
21 *174:20 *602:B 0.00159816
22 *174:20 *603:B 0.00179061
23 *174:20 *603:C 0.000106113
24 *174:20 *669:B 0.000126967
25 *174:20 *706:A1 8.83245e-05
26 *174:20 *706:A2 0.00138898
27 *174:20 *753:A 7.30242e-06
28 *174:20 *802:A 0.000635919
29 *174:20 *851:CLK 0.000386586
30 *174:20 *262:12 0.000251021
31 *174:20 *295:33 0.000273254
32 *174:20 *295:50 0.000146288
33 *174:20 *295:90 0.000826369
34 *174:20 *308:6 0.00134714
35 *174:20 *309:18 0.00106498
36 *174:20 *325:16 2.7384e-05
37 *174:20 *326:27 0.000126967
38 *174:20 *327:34 0.00133684
39 *174:24 *732:B 0
40 *174:24 *733:A 3.09512e-05
41 *174:24 *295:90 0
42 *708:B *174:20 0.000171129
43 *815:D *174:14 0.00195135
44 *851:D *174:20 0.000330748
45 *861:D *174:20 0.000212654
46 *868:D *174:24 0
47 *870:D *174:20 0.000295733
48 *892:A *174:20 0.00044347
49 *893:A *174:20 0.000482215
50 *898:A *174:14 0.000671889
51 *33:27 *174:14 0.000328479
*RES
1 *728:Y *174:14 31.738 
2 *174:14 *174:20 47.8716 
3 *174:20 *174:24 6.46609 
4 *174:24 *623:A1 13.8 
5 *174:24 *732:A 16.0727 
*END

*D_NET *175 0.00171321
*CONN
*I *623:A2 I *D sky130_fd_sc_hd__a211oi_1
*I *729:Y O *D sky130_fd_sc_hd__nand2_1
*CAP
1 *623:A2 0.0005421
2 *729:Y 0.0005421
3 *623:A2 *733:A 0.000251021
4 *623:A2 *295:90 0.000251021
5 *868:D *623:A2 0.000126967
*RES
1 *729:Y *623:A2 24.5524 
*END

*D_NET *176 0.00298576
*CONN
*I *623:B1 I *D sky130_fd_sc_hd__a211oi_1
*I *730:Y O *D sky130_fd_sc_hd__nor2_1
*CAP
1 *623:B1 0.000712037
2 *730:Y 0.000712037
3 *623:B1 *295:90 0.000251021
4 *868:D *623:B1 0.00131066
*RES
1 *730:Y *623:B1 31.3879 
*END

*D_NET *177 0.00112143
*CONN
*I *732:B I *D sky130_fd_sc_hd__xnor2_1
*I *731:Y O *D sky130_fd_sc_hd__xnor2_1
*CAP
1 *732:B 0.000401749
2 *731:Y 0.000401749
3 *732:B *624:A2 0
4 *732:B *733:B 0.000130074
5 *732:B *295:80 0.000187856
6 *732:A *732:B 0
7 *174:24 *732:B 0
*RES
1 *731:Y *732:B 33.6967 
*END

*D_NET *178 0.00224174
*CONN
*I *733:B I *D sky130_fd_sc_hd__nor2_1
*I *732:Y O *D sky130_fd_sc_hd__xnor2_1
*CAP
1 *733:B 0.00104899
2 *732:Y 0.00104899
3 *732:B *733:B 0.000130074
4 *835:D *733:B 1.3692e-05
*RES
1 *732:Y *733:B 23.1996 
*END

*D_NET *179 0.0117136
*CONN
*I *738:A I *D sky130_fd_sc_hd__xnor2_1
*I *624:A1 I *D sky130_fd_sc_hd__a211oi_1
*I *734:Y O *D sky130_fd_sc_hd__nand2_1
*CAP
1 *738:A 0
2 *624:A1 0.000375122
3 *734:Y 0.00349152
4 *179:16 0.00386664
5 *624:A1 *624:A2 0.000227597
6 *624:A1 *624:B1 1.9321e-05
7 *624:A1 *735:A 0.000714616
8 *624:A1 *738:B 0.00113939
9 *624:A1 *331:646 6.67486e-05
10 *179:16 *738:B 0.000119936
11 *179:16 *293:42 0
12 *179:16 *293:124 9.02079e-05
13 *179:16 *318:24 0.000205213
14 *179:16 *331:79 0.000241948
15 *867:D *624:A1 0.000277701
16 *867:D *179:16 1.73563e-05
17 *888:A *179:16 0.000358074
18 *902:A *179:16 0
19 *150:10 *179:16 0.00050223
*RES
1 *734:Y *179:16 30.3459 
2 *179:16 *624:A1 21.3216 
3 *179:16 *738:A 13.8 
*END

*D_NET *180 0.00153331
*CONN
*I *624:A2 I *D sky130_fd_sc_hd__a211oi_1
*I *735:Y O *D sky130_fd_sc_hd__nand2_1
*CAP
1 *624:A2 0.00019655
2 *735:Y 0.00019655
3 *624:A2 *624:B1 0
4 *624:A2 *735:A 0.000459753
5 *624:A2 *735:B 1.42934e-05
6 *624:A2 *331:646 0.000251021
7 *624:A2 *355:12 0.00018755
8 *624:A1 *624:A2 0.000227597
9 *732:B *624:A2 0
10 *867:D *624:A2 0
*RES
1 *735:Y *624:A2 32.2537 
*END

*D_NET *181 0.00121526
*CONN
*I *624:B1 I *D sky130_fd_sc_hd__a211oi_1
*I *736:Y O *D sky130_fd_sc_hd__nor2_1
*CAP
1 *624:B1 0.00013142
2 *736:Y 0.00013142
3 *624:B1 *295:27 2.19237e-05
4 *624:B1 *295:72 3.93646e-05
5 *624:B1 *295:80 6.34833e-05
6 *624:B1 *331:644 0.000251021
7 *624:B1 *331:646 0.000251021
8 *624:A1 *624:B1 1.9321e-05
9 *624:A2 *624:B1 0
10 *867:D *624:B1 0.000153144
11 *77:10 *624:B1 0.000153144
*RES
1 *736:Y *624:B1 31.0452 
*END

*D_NET *182 0.00256423
*CONN
*I *738:B I *D sky130_fd_sc_hd__xnor2_1
*I *737:Y O *D sky130_fd_sc_hd__xnor2_1
*CAP
1 *738:B 4.02816e-05
2 *737:Y 4.02816e-05
3 *624:A1 *738:B 0.00113939
4 *867:D *738:B 0.00122434
5 *179:16 *738:B 0.000119936
*RES
1 *737:Y *738:B 32.0192 
*END

*D_NET *183 0.00163203
*CONN
*I *739:B I *D sky130_fd_sc_hd__nor2_1
*I *738:Y O *D sky130_fd_sc_hd__xnor2_1
*CAP
1 *739:B 0.000579086
2 *738:Y 0.000579086
3 *739:B *739:A 0.000286048
4 *834:D *739:B 0.00018781
*RES
1 *738:Y *739:B 23.5964 
*END

*D_NET *184 0.0147621
*CONN
*I *744:A I *D sky130_fd_sc_hd__xnor2_1
*I *625:A1 I *D sky130_fd_sc_hd__a211oi_1
*I *740:Y O *D sky130_fd_sc_hd__nand2_1
*CAP
1 *744:A 0.000860595
2 *625:A1 0.000860595
3 *740:Y 0.00104677
4 *184:24 0.00104677
5 *744:A *632:A2 0.000184929
6 *744:A *632:B1 0.000126967
7 *744:A *632:B2 0.00102082
8 *744:A *634:A 3.49812e-05
9 *744:A *744:B 0.000119936
10 *744:A *745:B 0
11 *184:24 *625:C1 0.000251021
12 *184:24 *632:A2 0.000251021
13 *184:24 *689:B2 0.000146288
14 *184:24 *763:A2 0.000934498
15 *184:24 *819:CLK 0.000347126
16 *184:24 *845:CLK 0.000104138
17 *184:24 *884:A 0.000572979
18 *184:24 *920:A 0.00102096
19 *184:24 *298:66 0.000600928
20 *184:24 *298:70 0.000275552
21 *184:24 *309:33 0.000714616
22 *184:24 *322:10 0.00103964
23 *184:24 *347:12 0.000129608
24 *184:24 *369:219 0.000544708
25 *184:24 *369:232 0.000312413
26 *634:B *744:A 0.000196823
27 *812:D *184:24 0.00182537
28 *866:D *744:A 8.21521e-05
29 *866:D *184:24 4.41623e-05
30 *75:12 *184:24 6.57712e-05
*RES
1 *740:Y *184:24 46.8895 
2 *184:24 *625:A1 9.3 
3 *625:A1 *744:A 37.9716 
*END

*D_NET *185 0.00557572
*CONN
*I *625:A2 I *D sky130_fd_sc_hd__a211oi_1
*I *741:Y O *D sky130_fd_sc_hd__nand2_1
*CAP
1 *625:A2 0.00124123
2 *741:Y 0.00124123
3 *625:A2 *632:A1 1.42934e-05
4 *625:A2 *633:A 0
5 *625:A2 *741:A 0.000208803
6 *625:A2 *741:B 4.82073e-05
7 *625:A2 *755:B1 0.000544708
8 *625:A2 *831:CLK 6.01878e-05
9 *625:A2 *298:16 0.000315962
10 *625:A2 *354:12 0.000110487
11 *634:C *625:A2 0.00179061
*RES
1 *741:Y *625:A2 38.5488 
*END

*D_NET *186 0.0087301
*CONN
*I *625:B1 I *D sky130_fd_sc_hd__a211oi_1
*I *742:Y O *D sky130_fd_sc_hd__nor2_1
*CAP
1 *625:B1 0.00235001
2 *742:Y 0.00235001
3 *625:B1 *742:A 0.000209771
4 *625:B1 *742:B 3.93646e-05
5 *625:B1 *744:B 1.97774e-05
6 *625:B1 *755:A2 0.000459753
7 *625:B1 *755:B1 0.000104138
8 *625:B1 *757:B 0.000289844
9 *625:B1 *278:14 0.000146288
10 *625:B1 *278:16 8.28042e-05
11 *625:B1 *351:18 0.000544905
12 *831:D *625:B1 0.00200189
13 *77:10 *625:B1 0.000131542
*RES
1 *742:Y *625:B1 40.3525 
*END

*D_NET *187 0.00189454
*CONN
*I *744:B I *D sky130_fd_sc_hd__xnor2_1
*I *743:Y O *D sky130_fd_sc_hd__xnor2_1
*CAP
1 *744:B 0.000295349
2 *743:Y 0.000295349
3 *744:B *741:A 0.000544708
4 *744:B *745:B 4.38475e-05
5 *744:B *278:14 8.5407e-05
6 *744:B *351:18 1.19805e-05
7 *744:B *354:29 0.000478182
8 *625:B1 *744:B 1.97774e-05
9 *744:A *744:B 0.000119936
*RES
1 *743:Y *744:B 32.5784 
*END

*D_NET *188 0.00393897
*CONN
*I *745:B I *D sky130_fd_sc_hd__nor2_1
*I *744:Y O *D sky130_fd_sc_hd__xnor2_1
*CAP
1 *745:B 0.000577747
2 *744:Y 0.000577747
3 *745:B *634:A 0.000251021
4 *745:B *741:A 3.47126e-05
5 *745:B *754:B 0.000679635
6 *745:B *331:363 0.000769797
7 *745:B *351:18 0.00020489
8 *745:B *351:27 0.00076459
9 *745:B *354:29 3.49812e-05
10 *744:A *745:B 0
11 *744:B *745:B 4.38475e-05
*RES
1 *744:Y *745:B 38.7472 
*END

*D_NET *189 0.0030759
*CONN
*I *748:C I *D sky130_fd_sc_hd__and3_1
*I *747:B1 I *D sky130_fd_sc_hd__a21oi_1
*I *746:X O *D sky130_fd_sc_hd__xor2_1
*CAP
1 *748:C 1.92489e-05
2 *747:B1 4.98391e-05
3 *746:X 0.000250476
4 *189:10 0.000319564
5 *747:B1 *322:84 0.000596614
6 *747:B1 *322:99 0
7 *747:B1 *331:355 0.000146288
8 *747:B1 *331:357 1.9321e-05
9 *748:C *626:A2 5.85715e-05
10 *748:C *313:24 4.94434e-06
11 *189:10 *761:B 0.000300027
12 *189:10 *322:141 5.13451e-05
13 *189:10 *322:156 8.52899e-05
14 *830:D *189:10 0
15 *77:10 *747:B1 0.000459753
16 *77:10 *189:10 0.000714616
*RES
1 *746:X *189:10 18.1651 
2 *189:10 *747:B1 16.4154 
3 *189:10 *748:C 13.9984 
*END

*D_NET *190 0.00167292
*CONN
*I *749:B I *D sky130_fd_sc_hd__nor3_1
*I *747:Y O *D sky130_fd_sc_hd__a21oi_1
*CAP
1 *749:B 0.000174551
2 *747:Y 0.000174551
3 *749:B *747:A2 0.000648983
4 *749:B *322:76 1.97774e-05
5 *749:B *322:84 2.843e-05
6 *749:B *331:355 0.000508302
7 *749:B *331:407 4.9006e-05
8 *74:14 *749:B 6.93231e-05
*RES
1 *747:Y *749:B 31.8569 
*END

*D_NET *191 0.000824563
*CONN
*I *749:C I *D sky130_fd_sc_hd__nor3_1
*I *748:X O *D sky130_fd_sc_hd__and3_1
*CAP
1 *749:C 4.54807e-05
2 *748:X 4.54807e-05
3 *749:C *626:A2 7.90082e-05
4 *749:C *313:24 0.000403573
5 *749:C *331:349 0.000251021
*RES
1 *748:X *749:C 20.2955 
*END

*D_NET *192 0.00172567
*CONN
*I *751:B1 I *D sky130_fd_sc_hd__a21oi_1
*I *752:C I *D sky130_fd_sc_hd__and3_1
*I *750:X O *D sky130_fd_sc_hd__xor2_1
*CAP
1 *751:B1 4.9781e-05
2 *752:C 4.47018e-05
3 *750:X 6.03012e-05
4 *192:6 0.000154784
5 *751:B1 *629:A2 0.000169909
6 *751:B1 *752:B 1.9321e-05
7 *751:B1 *312:22 0.000544708
8 *751:B1 *369:193 0.000291994
9 *752:C *752:B 4.94434e-06
10 *752:C *753:C 8.51948e-06
11 *164:14 *752:C 0.000297979
12 *164:14 *192:6 7.87291e-05
*RES
1 *750:X *192:6 10.256 
2 *192:6 *752:C 10.6528 
3 *192:6 *751:B1 21.4205 
*END

*D_NET *193 0.0029698
*CONN
*I *753:B I *D sky130_fd_sc_hd__nor3_2
*I *751:Y O *D sky130_fd_sc_hd__a21oi_1
*CAP
1 *753:B 0.000842695
2 *751:Y 0.000842695
3 *753:B *629:A2 0
4 *753:B *753:A 3.49812e-05
5 *753:B *753:C 0.000251021
6 *753:B *317:22 0.000209771
7 *753:B *369:181 0.000544208
8 *753:B *369:187 5.68599e-05
9 *753:B *369:193 6.55125e-05
10 *164:14 *753:B 0.000122055
*RES
1 *751:Y *753:B 33.1375 
*END

*D_NET *194 0.0011755
*CONN
*I *753:C I *D sky130_fd_sc_hd__nor3_2
*I *752:X O *D sky130_fd_sc_hd__and3_1
*CAP
1 *753:C 0.000244179
2 *752:X 0.000244179
3 *753:C *369:181 8.28042e-05
4 *752:C *753:C 8.51948e-06
5 *753:B *753:C 0.000251021
6 *164:14 *753:C 0.0003448
*RES
1 *752:X *753:C 22.4781 
*END

*D_NET *195 0.00572549
*CONN
*I *755:B1 I *D sky130_fd_sc_hd__a21oi_1
*I *756:C I *D sky130_fd_sc_hd__and3_1
*I *754:X O *D sky130_fd_sc_hd__xor2_1
*CAP
1 *755:B1 0.000162147
2 *756:C 0.000153507
3 *754:X 3.69135e-05
4 *195:6 0.000352568
5 *755:B1 *632:A1 0.000122515
6 *755:B1 *755:A2 0.00102082
7 *755:B1 *757:B 0.00130307
8 *755:B1 *298:16 0.00159816
9 *755:B1 *322:99 0.00020489
10 *756:C *756:A 5.85715e-05
11 *195:6 *756:A 6.34833e-05
12 *625:A2 *755:B1 0.000544708
13 *625:B1 *755:B1 0.000104138
*RES
1 *754:X *195:6 9.84113 
2 *195:6 *756:C 11.3202 
3 *195:6 *755:B1 27.0843 
*END

*D_NET *196 0.00546975
*CONN
*I *757:B I *D sky130_fd_sc_hd__nor3_1
*I *755:Y O *D sky130_fd_sc_hd__a21oi_1
*CAP
1 *757:B 0.000858188
2 *755:Y 0.000858188
3 *757:B *755:A2 0.000391869
4 *757:B *311:16 0.000339818
5 *757:B *311:18 0.00096948
6 *757:B *322:99 0.000208276
7 *757:B *331:363 0.000251021
8 *625:B1 *757:B 0.000289844
9 *755:B1 *757:B 0.00130307
*RES
1 *755:Y *757:B 37.4304 
*END

*D_NET *197 0.00248986
*CONN
*I *757:C I *D sky130_fd_sc_hd__nor3_1
*I *756:X O *D sky130_fd_sc_hd__and3_1
*CAP
1 *757:C 0.000245546
2 *756:X 0.000245546
3 *757:C *625:C1 0.000459503
4 *757:C *311:16 0.000417026
5 *757:C *311:18 3.49812e-05
6 *757:C *322:84 8.28042e-05
7 *757:C *331:357 0.000251021
8 *757:C *331:363 0.000635919
9 *830:D *757:C 8.28042e-05
10 *77:10 *757:C 3.47126e-05
*RES
1 *756:X *757:C 31.8929 
*END

*D_NET *198 0.00391563
*CONN
*I *760:C I *D sky130_fd_sc_hd__and3_1
*I *759:B1 I *D sky130_fd_sc_hd__a21oi_1
*I *758:X O *D sky130_fd_sc_hd__xor2_1
*CAP
1 *760:C 3.54514e-06
2 *759:B1 2.66859e-05
3 *758:X 0.000267705
4 *198:10 0.000297936
5 *759:B1 *761:B 0.000459503
6 *760:C *635:A2 5.85715e-05
7 *760:C *310:44 6.84601e-06
8 *760:C *331:407 9.20409e-05
9 *198:10 *635:B1 0
10 *198:10 *761:B 0.00156416
11 *830:D *759:B1 0.000459253
12 *830:D *198:10 0.000679385
*RES
1 *758:X *198:10 20.4017 
2 *198:10 *759:B1 15.4595 
3 *198:10 *760:C 13.9984 
*END

*D_NET *199 0.00466967
*CONN
*I *761:B I *D sky130_fd_sc_hd__nor3_1
*I *759:Y O *D sky130_fd_sc_hd__a21oi_1
*CAP
1 *761:B 0.000321173
2 *759:Y 0.000321173
3 *761:B *759:A2 0.000326503
4 *761:B *761:C 0.00113939
5 *761:B *299:33 0
6 *759:B1 *761:B 0.000459503
7 *830:D *761:B 0.000138748
8 *77:10 *761:B 9.8997e-05
9 *189:10 *761:B 0.000300027
10 *198:10 *761:B 0.00156416
*RES
1 *759:Y *761:B 37.5026 
*END

*D_NET *200 0.00166272
*CONN
*I *761:C I *D sky130_fd_sc_hd__nor3_1
*I *760:X O *D sky130_fd_sc_hd__and3_1
*CAP
1 *761:C 6.36007e-05
2 *760:X 6.36007e-05
3 *761:C *299:33 0
4 *761:B *761:C 0.00113939
5 *77:10 *761:C 0.000396132
*RES
1 *760:X *761:C 31.7126 
*END

*D_NET *201 0.00218318
*CONN
*I *764:C I *D sky130_fd_sc_hd__and3_1
*I *763:B1 I *D sky130_fd_sc_hd__a21oi_1
*I *762:X O *D sky130_fd_sc_hd__xor2_1
*CAP
1 *764:C 8.81996e-05
2 *763:B1 0.000227846
3 *762:X 0
4 *201:4 0.000316046
5 *763:B1 *762:A 4.9006e-05
6 *763:B1 *763:A2 5.85715e-05
7 *763:B1 *765:B 0.00011372
8 *763:B1 *920:A 0.000424772
9 *763:B1 *331:695 0
10 *763:B1 *344:6 0.000251021
11 *763:B1 *369:232 0.00020489
12 *764:C *765:C 0.000216617
13 *764:C *857:CLK 0
14 *764:C *369:243 0.000232497
*RES
1 *762:X *201:4 9.3 
2 *201:4 *763:B1 22.3584 
3 *201:4 *764:C 11.7351 
*END

*D_NET *202 0.00442154
*CONN
*I *765:B I *D sky130_fd_sc_hd__nor3_1
*I *763:Y O *D sky130_fd_sc_hd__a21oi_1
*CAP
1 *765:B 0.00180065
2 *763:Y 0.00180065
3 *765:B *739:A 9.07096e-05
4 *765:B *763:A2 1.19805e-05
5 *765:B *825:CLK 0.000114267
6 *765:B *331:695 3.02746e-05
7 *763:B1 *765:B 0.00011372
8 *825:D *765:B 1.58314e-05
9 *828:D *765:B 0.00044347
*RES
1 *763:Y *765:B 27.1678 
*END

*D_NET *203 0.00324277
*CONN
*I *765:C I *D sky130_fd_sc_hd__nor3_1
*I *764:X O *D sky130_fd_sc_hd__and3_1
*CAP
1 *765:C 0.000999602
2 *764:X 0.000999602
3 *765:C *762:A 0.000146288
4 *765:C *764:B 0.000251021
5 *765:C *279:16 0
6 *765:C *295:6 0.000251021
7 *765:C *369:243 5.19156e-05
8 *764:C *765:C 0.000216617
9 *74:14 *765:C 0.000326707
*RES
1 *764:X *765:C 39.3244 
*END

*D_NET *204 0.00273025
*CONN
*I *768:C I *D sky130_fd_sc_hd__and3_1
*I *767:B1 I *D sky130_fd_sc_hd__a21oi_1
*I *766:X O *D sky130_fd_sc_hd__xor2_1
*CAP
1 *768:C 0.000170199
2 *767:B1 0
3 *766:X 0.000177929
4 *204:10 0.000348129
5 *768:C *768:A 0.000376531
6 *768:C *768:B 0.000416734
7 *768:C *769:B 0.000216218
8 *768:C *769:C 5.85715e-05
9 *768:C *331:298 0
10 *204:10 *271:12 0.000119936
11 *204:10 *271:27 0
12 *204:10 *322:49 0.000131542
13 *204:10 *331:298 0
14 *204:10 *331:320 5.13451e-05
15 *826:D *768:C 0.000203859
16 *827:D *768:C 0.000459253
*RES
1 *766:X *204:10 16.9205 
2 *204:10 *767:B1 13.8 
3 *204:10 *768:C 20.0049 
*END

*D_NET *205 0.00199649
*CONN
*I *769:B I *D sky130_fd_sc_hd__nor3_1
*I *767:Y O *D sky130_fd_sc_hd__a21oi_1
*CAP
1 *769:B 0.000430405
2 *767:Y 0.000430405
3 *769:B *615:A 0.000119686
4 *769:B *768:A 8.28042e-05
5 *769:B *313:18 0.00044347
6 *769:B *331:298 0
7 *768:C *769:B 0.000216218
8 *826:D *769:B 5.13451e-05
9 *827:D *769:B 0.000222161
*RES
1 *767:Y *769:B 33.2097 
*END

*D_NET *206 0.000440166
*CONN
*I *769:C I *D sky130_fd_sc_hd__nor3_1
*I *768:X O *D sky130_fd_sc_hd__and3_1
*CAP
1 *769:C 3.67024e-05
2 *768:X 3.67024e-05
3 *769:C *768:A 6.34833e-05
4 *768:C *769:C 5.85715e-05
5 *826:D *769:C 0.000244707
*RES
1 *768:X *769:C 19.8807 
*END

*D_NET *207 0.0022303
*CONN
*I *772:C I *D sky130_fd_sc_hd__and3_1
*I *771:B1 I *D sky130_fd_sc_hd__a21oi_1
*I *770:X O *D sky130_fd_sc_hd__xor2_1
*CAP
1 *772:C 0.000115826
2 *771:B1 0
3 *770:X 4.74903e-05
4 *207:8 0.000163316
5 *772:C *772:A 0.000572979
6 *772:C *773:B 0.000722244
7 *772:C *773:C 2.92096e-05
8 *772:C *322:229 0.00044347
9 *207:8 *322:229 3.93646e-05
10 *826:D *772:C 1.35969e-05
11 *826:D *207:8 8.28042e-05
*RES
1 *770:X *207:8 10.5807 
2 *207:8 *771:B1 9.3 
3 *207:8 *772:C 13.5208 
*END

*D_NET *208 0.00298406
*CONN
*I *773:B I *D sky130_fd_sc_hd__nor3_1
*I *771:Y O *D sky130_fd_sc_hd__a21oi_1
*CAP
1 *773:B 0.000103188
2 *771:Y 0.000103188
3 *773:B *773:C 0.000251021
4 *772:C *773:B 0.000722244
5 *826:D *773:B 0.00180441
*RES
1 *771:Y *773:B 22.9651 
*END

*D_NET *209 0.000426976
*CONN
*I *773:C I *D sky130_fd_sc_hd__nor3_1
*I *772:X O *D sky130_fd_sc_hd__and3_1
*CAP
1 *773:C 7.33727e-05
2 *772:X 7.33727e-05
3 *772:C *773:C 2.92096e-05
4 *773:B *773:C 0.000251021
*RES
1 *772:X *773:C 19.8807 
*END

*D_NET *210 0.00146088
*CONN
*I *775:B1 I *D sky130_fd_sc_hd__a21oi_1
*I *776:C I *D sky130_fd_sc_hd__and3_1
*I *774:X O *D sky130_fd_sc_hd__xor2_1
*CAP
1 *775:B1 0
2 *776:C 0.000104653
3 *774:X 0.000167973
4 *210:10 0.000272626
5 *776:C *322:139 0.00056898
6 *210:10 *293:86 0
7 *210:10 *305:53 0.000271854
8 *210:10 *345:12 7.47986e-05
*RES
1 *774:X *210:10 22.1059 
2 *210:10 *776:C 10.5266 
3 *210:10 *775:B1 9.3 
*END

*D_NET *211 0.00104254
*CONN
*I *777:B I *D sky130_fd_sc_hd__nor3_1
*I *775:Y O *D sky130_fd_sc_hd__a21oi_1
*CAP
1 *777:B 0.000110926
2 *775:Y 0.000110926
3 *777:B *777:C 0.000104138
4 *777:B *313:18 0.00044347
5 *777:B *322:135 0.000153144
6 *825:D *777:B 0.000119936
*RES
1 *775:Y *777:B 29.9088 
*END

*D_NET *212 0.0014571
*CONN
*I *777:C I *D sky130_fd_sc_hd__nor3_1
*I *776:X O *D sky130_fd_sc_hd__and3_1
*CAP
1 *777:C 0.000221647
2 *776:X 0.000221647
3 *777:C *776:B 0.000117785
4 *777:C *293:86 0
5 *777:C *313:18 0.000251021
6 *777:C *331:345 0.000251021
7 *777:B *777:C 0.000104138
8 *825:D *777:C 0.000289844
*RES
1 *776:X *777:C 30.6483 
*END

*D_NET *213 0.00352069
*CONN
*I *779:B1 I *D sky130_fd_sc_hd__a21oi_1
*I *780:C I *D sky130_fd_sc_hd__and3_1
*I *778:X O *D sky130_fd_sc_hd__xor2_1
*CAP
1 *779:B1 7.65419e-05
2 *780:C 1.88146e-05
3 *778:X 0.000473724
4 *213:10 0.00056908
5 *779:B1 *650:A2 0.000398469
6 *779:B1 *650:B1 2.04192e-05
7 *779:B1 *780:B 0.000625819
8 *779:B1 *369:273 0.000289844
9 *779:B1 *369:282 5.78543e-05
10 *780:C *857:CLK 9.20409e-05
11 *213:10 *650:B1 0.000118431
12 *213:10 *780:B 0.000374799
13 *213:10 *781:B 0.000104138
14 *213:10 *268:14 0.000243854
15 *213:10 *331:525 5.68599e-05
*RES
1 *778:X *213:10 17.8584 
2 *213:10 *780:C 13.9984 
3 *213:10 *779:B1 16.5417 
*END

*D_NET *214 0.00193996
*CONN
*I *781:B I *D sky130_fd_sc_hd__nor3_1
*I *779:Y O *D sky130_fd_sc_hd__a21oi_1
*CAP
1 *781:B 0.00026877
2 *779:Y 0.00026877
3 *781:B *780:B 0.000714616
4 *781:B *781:C 0.000457603
5 *781:B *268:14 0
6 *781:B *297:48 0
7 *781:B *343:20 0
8 *781:B *362:10 0
9 *781:B *369:273 2.19237e-05
10 *655:C *781:B 0
11 *824:D *781:B 0.000104138
12 *213:10 *781:B 0.000104138
*RES
1 *779:Y *781:B 33.1736 
*END

*D_NET *215 0.00151142
*CONN
*I *781:C I *D sky130_fd_sc_hd__nor3_1
*I *780:X O *D sky130_fd_sc_hd__and3_1
*CAP
1 *781:C 0.000196091
2 *780:X 0.000196091
3 *781:C *857:CLK 5.13451e-05
4 *781:C *268:14 0
5 *781:C *297:48 0
6 *781:C *331:79 6.94252e-05
7 *781:C *331:525 0.000251021
8 *781:B *781:C 0.000457603
9 *824:D *781:C 0.000289844
*RES
1 *780:X *781:C 30.6483 
*END

*D_NET *216 0.00281567
*CONN
*I *783:B1 I *D sky130_fd_sc_hd__a21oi_1
*I *784:C I *D sky130_fd_sc_hd__and3_1
*I *782:X O *D sky130_fd_sc_hd__xor2_1
*CAP
1 *783:B1 5.65906e-05
2 *784:C 0
3 *782:X 5.64507e-05
4 *216:12 0.000113041
5 *783:B1 *785:C 0.00025954
6 *783:B1 *303:25 0.000603031
7 *783:B1 *369:303 0.000736327
8 *783:B1 *369:316 0.000377987
9 *216:12 *653:A2 0.000130074
10 *216:12 *785:C 1.34892e-05
11 *216:12 *303:25 4.94434e-06
12 *216:12 *369:299 0.000251021
13 *216:12 *369:303 0.000213176
*RES
1 *782:X *216:12 11.7351 
2 *216:12 *784:C 9.3 
3 *216:12 *783:B1 12.8173 
*END

*D_NET *217 0.000885176
*CONN
*I *785:B I *D sky130_fd_sc_hd__nor3_1
*I *783:Y O *D sky130_fd_sc_hd__a21oi_1
*CAP
1 *785:B 0.000124628
2 *783:Y 0.000124628
3 *785:B *303:25 0.000635919
*RES
1 *783:Y *785:B 19.9709 
*END

*D_NET *218 0.00056164
*CONN
*I *785:C I *D sky130_fd_sc_hd__nor3_1
*I *784:X O *D sky130_fd_sc_hd__and3_1
*CAP
1 *785:C 3.87435e-05
2 *784:X 3.87435e-05
3 *785:C *303:25 0.000211123
4 *783:B1 *785:C 0.00025954
5 *216:12 *785:C 1.34892e-05
*RES
1 *784:X *785:C 19.8807 
*END

*D_NET *219 0.00272424
*CONN
*I *787:B1 I *D sky130_fd_sc_hd__a21oi_1
*I *788:C I *D sky130_fd_sc_hd__and3_1
*I *786:X O *D sky130_fd_sc_hd__xor2_1
*CAP
1 *787:B1 1.13352e-05
2 *788:C 6.65319e-06
3 *786:X 5.8953e-05
4 *219:10 7.69415e-05
5 *787:B1 *787:A1 0.000384898
6 *788:C *787:A1 0.000376531
7 *219:10 *855:CLK 0.000629662
8 *219:10 *302:23 0.000289844
9 *219:10 *322:399 6.94252e-05
10 *219:10 *335:16 0
11 *911:A *787:B1 0.00044347
12 *911:A *788:C 0.000376531
*RES
1 *786:X *219:10 20.5727 
2 *219:10 *788:C 10.1117 
3 *219:10 *787:B1 10.256 
*END

*D_NET *220 0.00387254
*CONN
*I *789:B I *D sky130_fd_sc_hd__nor3_1
*I *787:Y O *D sky130_fd_sc_hd__a21oi_1
*CAP
1 *789:B 0.000584242
2 *787:Y 0.000584242
3 *789:B *787:A2 6.34833e-05
4 *789:B *789:C 0.000487317
5 *789:B *326:10 0.00113939
6 *822:D *789:B 0.00096948
7 *911:A *789:B 7.30242e-06
8 *914:A *789:B 3.70826e-05
*RES
1 *787:Y *789:B 33.9131 
*END

*D_NET *221 0.0028665
*CONN
*I *789:C I *D sky130_fd_sc_hd__nor3_1
*I *788:X O *D sky130_fd_sc_hd__and3_1
*CAP
1 *789:C 0.000255878
2 *788:X 0.000255878
3 *789:C *658:A 0.000251021
4 *789:C *696:A 6.34833e-05
5 *789:C *787:A2 0.000828368
6 *789:C *855:CLK 0.00014057
7 *789:C *302:23 0
8 *789:B *789:C 0.000487317
9 *822:D *789:C 0.000430845
10 *855:D *789:C 0.000153144
*RES
1 *788:X *789:C 34.7609 
*END

*D_NET *222 0.00855989
*CONN
*I *792:C I *D sky130_fd_sc_hd__and3_1
*I *791:B1 I *D sky130_fd_sc_hd__a21oi_1
*I *790:X O *D sky130_fd_sc_hd__xor2_1
*CAP
1 *792:C 5.35132e-05
2 *791:B1 0.000257369
3 *790:X 0.000437516
4 *222:18 0.000748398
5 *791:B1 *793:C 0.00202391
6 *791:B1 *301:81 6.94252e-05
7 *791:B1 *310:30 0.00050223
8 *791:B1 *322:422 0.00122434
9 *791:B1 *322:439 0
10 *792:C *797:C 0
11 *792:C *331:269 0
12 *222:18 *662:A2 0
13 *222:18 *822:CLK 0.000251021
14 *222:18 *301:81 0
15 *222:18 *326:10 0.000544708
16 *222:18 *335:16 0.00102082
17 *821:D *791:B1 0.000211236
18 *822:D *222:18 0.000462296
19 *918:A *792:C 3.53711e-06
20 *918:A *222:18 0.000498548
21 *919:A *222:18 0.000251021
*RES
1 *790:X *222:18 26.471 
2 *222:18 *791:B1 28.0944 
3 *222:18 *792:C 10.1478 
*END

*D_NET *223 0.00119379
*CONN
*I *793:B I *D sky130_fd_sc_hd__nor3_1
*I *791:Y O *D sky130_fd_sc_hd__a21oi_1
*CAP
1 *793:B 5.97103e-05
2 *791:Y 5.97103e-05
3 *793:B *793:A 0.000422932
4 *793:B *793:C 0.000507062
5 *793:B *305:32 8.0897e-05
6 *793:B *310:30 6.34833e-05
7 *909:A *793:B 0
*RES
1 *791:Y *793:B 21.1253 
*END

*D_NET *224 0.00510641
*CONN
*I *793:C I *D sky130_fd_sc_hd__nor3_1
*I *792:X O *D sky130_fd_sc_hd__and3_1
*CAP
1 *793:C 0.000333596
2 *792:X 0.000333596
3 *793:C *659:B1 7.74584e-05
4 *793:C *791:A1 0.000312413
5 *793:C *793:A 6.34833e-05
6 *793:C *301:81 0.000629662
7 *793:C *310:30 0.00044347
8 *793:C *322:439 5.20689e-05
9 *793:C *335:16 0.000251021
10 *793:C *336:29 7.86675e-05
11 *791:B1 *793:C 0.00202391
12 *793:B *793:C 0.000507062
*RES
1 *792:X *793:C 37.1238 
*END

*D_NET *225 0.00293376
*CONN
*I *795:B1 I *D sky130_fd_sc_hd__a21oi_1
*I *796:C I *D sky130_fd_sc_hd__and3_1
*I *794:X O *D sky130_fd_sc_hd__xor2_1
*CAP
1 *795:B1 0
2 *796:C 3.71158e-05
3 *794:X 0.000297179
4 *225:12 0.000334295
5 *796:C *796:A 0
6 *796:C *796:B 0.000196209
7 *796:C *322:330 0.00056898
8 *225:12 *794:A 0
9 *225:12 *797:B 2.19237e-05
10 *225:12 *797:C 0.00115771
11 *225:12 *331:269 0.000251021
12 *225:12 *331:282 0
13 *225:12 *339:16 6.93231e-05
*RES
1 *794:X *225:12 24.1802 
2 *225:12 *796:C 10.9595 
3 *225:12 *795:B1 9.3 
*END

*D_NET *226 0.00260656
*CONN
*I *797:B I *D sky130_fd_sc_hd__nor3_1
*I *795:Y O *D sky130_fd_sc_hd__a21oi_1
*CAP
1 *797:B 0.000405466
2 *795:Y 0.000405466
3 *797:B *796:B 0.000126967
4 *797:B *797:C 0.000409984
5 *797:B *335:16 0.000197314
6 *797:B *339:16 0.000289844
7 *797:B *348:18 0.000374799
8 *820:D *797:B 0.000374799
9 *225:12 *797:B 2.19237e-05
*RES
1 *795:Y *797:B 33.0834 
*END

*D_NET *227 0.00319534
*CONN
*I *797:C I *D sky130_fd_sc_hd__nor3_1
*I *796:X O *D sky130_fd_sc_hd__and3_1
*CAP
1 *797:C 0.000197981
2 *796:X 0.000197981
3 *797:C *796:B 0.00044347
4 *797:C *331:269 3.93646e-05
5 *797:C *339:16 0.000374799
6 *792:C *797:C 0
7 *797:B *797:C 0.000409984
8 *820:D *797:C 0.000374049
9 *225:12 *797:C 0.00115771
*RES
1 *796:X *797:C 33.6426 
*END

*D_NET *228 0.00462045
*CONN
*I *799:B1 I *D sky130_fd_sc_hd__a21oi_1
*I *800:C I *D sky130_fd_sc_hd__and3_1
*I *798:X O *D sky130_fd_sc_hd__xor2_1
*CAP
1 *799:B1 0
2 *800:C 4.2491e-05
3 *798:X 0.000384447
4 *228:14 0.000426938
5 *800:C *800:A 0.00056898
6 *800:C *801:C 0.000376531
7 *228:14 *665:B1 6.34833e-05
8 *228:14 *798:B 0.000635919
9 *228:14 *799:A1 0.00044347
10 *228:14 *800:A 0.000384898
11 *228:14 *800:B 1.97774e-05
12 *228:14 *293:177 0
13 *228:14 *307:12 0.000714616
14 *228:14 *324:24 5.68599e-05
15 *228:14 *334:22 0.000251021
16 *667:B *228:14 0.000251021
*RES
1 *798:X *228:14 25.2805 
2 *228:14 *800:C 10.5266 
3 *228:14 *799:B1 9.3 
*END

*D_NET *229 0.0015228
*CONN
*I *801:B I *D sky130_fd_sc_hd__nor3_1
*I *799:Y O *D sky130_fd_sc_hd__a21oi_1
*CAP
1 *801:B 0.000192038
2 *799:Y 0.000192038
3 *801:B *800:A 0.000336737
4 *801:B *800:B 0.000635919
5 *801:B *801:C 0.000166065
*RES
1 *799:Y *801:B 22.0452 
*END

*D_NET *230 0.00212601
*CONN
*I *801:C I *D sky130_fd_sc_hd__nor3_1
*I *800:X O *D sky130_fd_sc_hd__and3_1
*CAP
1 *801:C 0.000650928
2 *800:X 0.000650928
3 *801:C *800:A 0.000262235
4 *800:C *801:C 0.000376531
5 *801:B *801:C 0.000166065
6 *819:D *801:C 1.9321e-05
*RES
1 *800:X *801:C 22.911 
*END

*D_NET *231 0.00170268
*CONN
*I *803:B1 I *D sky130_fd_sc_hd__a21oi_1
*I *804:C I *D sky130_fd_sc_hd__and3_1
*I *802:X O *D sky130_fd_sc_hd__xor2_1
*CAP
1 *803:B1 3.61403e-06
2 *804:C 6.53011e-06
3 *802:X 0.000100749
4 *231:10 0.000110893
5 *803:B1 *369:171 0.000192449
6 *804:C *369:171 0.000376531
7 *231:10 *668:A2 0
8 *1:18 *231:10 0.000284364
9 *164:14 *803:B1 0.000251021
10 *164:14 *804:C 0.000376531
*RES
1 *802:X *231:10 20.5727 
2 *231:10 *804:C 10.1117 
3 *231:10 *803:B1 9.84113 
*END

*D_NET *232 0.00427685
*CONN
*I *805:B I *D sky130_fd_sc_hd__nor3_1
*I *803:Y O *D sky130_fd_sc_hd__a21oi_1
*CAP
1 *805:B 0.000124794
2 *803:Y 0.000124794
3 *805:B *671:B2 7.87291e-05
4 *805:B *805:A 0.000251021
5 *805:B *805:C 0.00246015
6 *805:B *807:A1 0.000277701
7 *805:B *296:24 0.000209771
8 *805:B *331:561 0.000251021
9 *805:B *367:8 0.000459503
10 *805:B *367:27 3.93646e-05
*RES
1 *803:Y *805:B 35.1577 
*END

*D_NET *233 0.00361648
*CONN
*I *805:C I *D sky130_fd_sc_hd__nor3_1
*I *804:X O *D sky130_fd_sc_hd__and3_1
*CAP
1 *805:C 0.000447685
2 *804:X 0.000447685
3 *805:C *331:559 0
4 *805:C *331:561 6.34833e-05
5 *805:B *805:C 0.00246015
6 *1:18 *805:C 0.000197475
*RES
1 *804:X *805:C 35.284 
*END

*D_NET *234 0.00394263
*CONN
*I *807:B1 I *D sky130_fd_sc_hd__a21oi_1
*I *586:C I *D sky130_fd_sc_hd__and3_1
*I *806:X O *D sky130_fd_sc_hd__xor2_1
*CAP
1 *807:B1 4.42567e-05
2 *586:C 0.000407214
3 *806:X 0
4 *234:6 0.00045147
5 *586:C *586:A 0.000476939
6 *586:C *672:A 3.49812e-05
7 *586:C *806:B 1.42934e-05
8 *586:C *292:25 0.000459753
9 *586:C *296:24 0
10 *586:C *333:34 0.000174965
11 *807:B1 *806:B 0.000420089
12 *807:B1 *807:A1 8.28042e-05
13 *807:B1 *296:24 8.28042e-05
14 *807:B1 *333:34 0.000713617
15 *807:B1 *367:8 0.000289595
16 *817:D *586:C 0.000289844
*RES
1 *806:X *234:6 13.8 
2 *234:6 *586:C 17.2091 
3 *234:6 *807:B1 16.9205 
*END

*D_NET *235 0.00130638
*CONN
*I *587:B I *D sky130_fd_sc_hd__nor3_1
*I *807:Y O *D sky130_fd_sc_hd__a21oi_1
*CAP
1 *587:B 0.000153129
2 *807:Y 0.000153129
3 *587:B *296:24 0.000251021
4 *587:B *329:22 0.000374549
5 *587:B *333:34 0.000374549
*RES
1 *807:Y *587:B 29.4939 
*END

*D_NET *236 0.00215215
*CONN
*I *587:C I *D sky130_fd_sc_hd__nor3_1
*I *586:X O *D sky130_fd_sc_hd__and3_1
*CAP
1 *587:C 0.000263585
2 *586:X 0.000263585
3 *587:C *586:A 0.000146288
4 *587:C *587:A 0.000146288
5 *587:C *671:A2 0.00044347
6 *587:C *674:B1 0.000374799
7 *587:C *674:B2 0.000374799
8 *587:C *675:B 8.28042e-05
9 *587:C *329:22 2.19237e-05
10 *676:B *587:C 3.46105e-05
*RES
1 *586:X *587:C 32.0012 
*END

*D_NET *237 0.00462333
*CONN
*I *589:B1 I *D sky130_fd_sc_hd__a21oi_1
*I *590:C I *D sky130_fd_sc_hd__and3_1
*I *588:X O *D sky130_fd_sc_hd__xor2_1
*CAP
1 *589:B1 8.83336e-05
2 *590:C 0.000121484
3 *588:X 0.000197455
4 *237:8 0.000407272
5 *589:B1 *589:A2 0.000251021
6 *589:B1 *590:A 0.000251021
7 *589:B1 *591:B 0.000459753
8 *589:B1 *333:28 0.00044347
9 *590:C *590:A 9.20409e-05
10 *590:C *816:CLK 0
11 *237:8 *816:CLK 0.000251021
12 *237:8 *333:28 0.00198306
13 *816:D *237:8 7.7398e-05
*RES
1 *588:X *237:8 14.3144 
2 *237:8 *590:C 19.8512 
3 *237:8 *589:B1 21.4566 
*END

*D_NET *238 0.00344908
*CONN
*I *591:B I *D sky130_fd_sc_hd__nor3_1
*I *589:Y O *D sky130_fd_sc_hd__a21oi_1
*CAP
1 *591:B 0.000289771
2 *589:Y 0.000289771
3 *591:B *589:A2 8.37187e-05
4 *591:B *591:A 0.000146288
5 *591:B *591:C 0.00172945
6 *591:B *681:B 8.28042e-05
7 *591:B *710:B 0.000116502
8 *589:B1 *591:B 0.000459753
9 *816:D *591:B 0
10 *141:14 *591:B 0.000251021
*RES
1 *589:Y *591:B 36.6368 
*END

*D_NET *239 0.00611561
*CONN
*I *591:C I *D sky130_fd_sc_hd__nor3_1
*I *590:X O *D sky130_fd_sc_hd__and3_1
*CAP
1 *591:C 0.00135353
2 *590:X 0.00135353
3 *591:C *589:A2 1.28963e-05
4 *591:C *591:A 3.93646e-05
5 *591:C *695:B_N 0.000416551
6 *591:C *848:CLK 0.000185538
7 *591:C *328:16 1.42934e-05
8 *591:C *369:14 0.000374549
9 *591:B *591:C 0.00172945
10 *141:14 *591:C 0.000635919
*RES
1 *590:X *591:C 39.1621 
*END

*D_NET *240 0.00754725
*CONN
*I *593:B1 I *D sky130_fd_sc_hd__a21oi_1
*I *594:C I *D sky130_fd_sc_hd__and3_1
*I *592:X O *D sky130_fd_sc_hd__xor2_1
*CAP
1 *593:B1 0.000241002
2 *594:C 0.000756515
3 *592:X 0.00056312
4 *240:10 0.00156064
5 *593:B1 *695:B_N 0
6 *593:B1 *327:40 0.000315895
7 *593:B1 *369:10 0
8 *593:B1 *369:59 0
9 *594:C *728:A 0.000476939
10 *594:C *369:36 0.00044347
11 *594:C *369:43 0.000635919
12 *240:10 *592:A 9.07097e-05
13 *240:10 *677:B1 0.000381737
14 *240:10 *677:B2 0.00147921
15 *240:10 *678:A 0.000118431
16 *240:10 *678:B 3.49812e-05
17 *240:10 *695:B_N 0
18 *240:10 *290:10 0.000173563
19 *240:10 *327:40 4.3783e-05
20 *240:10 *333:28 2.64522e-05
21 *240:10 *365:21 0.00020489
*RES
1 *592:X *240:10 22.1514 
2 *240:10 *594:C 16.9025 
3 *240:10 *593:B1 18.2192 
*END

*D_NET *241 0.00374814
*CONN
*I *595:B I *D sky130_fd_sc_hd__nor3_1
*I *593:Y O *D sky130_fd_sc_hd__a21oi_1
*CAP
1 *595:B 0.000434005
2 *593:Y 0.000434005
3 *595:B *596:A 0.000146288
4 *595:B *243:20 0.000275552
5 *595:B *331:116 0.00044347
6 *595:B *369:74 3.17579e-05
7 *898:A *595:B 0.00198306
*RES
1 *593:Y *595:B 27.1498 
*END

*D_NET *242 0.000694305
*CONN
*I *595:C I *D sky130_fd_sc_hd__nor3_1
*I *594:X O *D sky130_fd_sc_hd__and3_1
*CAP
1 *595:C 2.35235e-05
2 *594:X 2.35235e-05
3 *595:C *681:A 0.000459503
4 *174:14 *595:C 0.000187754
*RES
1 *594:X *595:C 29.2595 
*END

*D_NET *243 0.00456394
*CONN
*I *598:C I *D sky130_fd_sc_hd__and3_1
*I *597:B1 I *D sky130_fd_sc_hd__a21oi_1
*I *596:X O *D sky130_fd_sc_hd__xor2_1
*CAP
1 *598:C 7.99192e-05
2 *597:B1 0
3 *596:X 0.000499104
4 *243:20 0.000579023
5 *598:C *599:B 0.000339818
6 *598:C *599:C 9.20409e-05
7 *598:C *328:16 0.000374549
8 *243:20 *596:A 0.00044347
9 *243:20 *599:B 7.74584e-05
10 *243:20 *327:34 3.15476e-05
11 *243:20 *328:16 7.74584e-05
12 *243:20 *329:18 0.000220848
13 *243:20 *369:74 0.000251021
14 *595:B *243:20 0.000275552
15 *901:A *243:20 0.000887013
16 *908:A *243:20 0.000335118
*RES
1 *596:X *243:20 26.5542 
2 *243:20 *597:B1 13.8 
3 *243:20 *598:C 15.3512 
*END

*D_NET *244 0.00289176
*CONN
*I *599:B I *D sky130_fd_sc_hd__nor3_1
*I *597:Y O *D sky130_fd_sc_hd__a21oi_1
*CAP
1 *599:B 0.000173137
2 *597:Y 0.000173137
3 *599:B *598:A 0.000162163
4 *599:B *599:C 0.000480721
5 *599:B *317:22 3.49812e-05
6 *599:B *327:34 3.49812e-05
7 *599:B *328:16 0.000272177
8 *599:B *331:107 6.77057e-05
9 *598:C *599:B 0.000339818
10 *901:A *599:B 0.000247117
11 *174:20 *599:B 0.000828368
12 *243:20 *599:B 7.74584e-05
*RES
1 *597:Y *599:B 33.2457 
*END

*D_NET *245 0.00241262
*CONN
*I *599:C I *D sky130_fd_sc_hd__nor3_1
*I *598:X O *D sky130_fd_sc_hd__and3_1
*CAP
1 *599:C 0.00064587
2 *598:X 0.00064587
3 *599:C *706:A1 5.37032e-05
4 *599:C *327:34 0.000386767
5 *598:C *599:C 9.20409e-05
6 *599:B *599:C 0.000480721
7 *174:20 *599:C 0.000107646
*RES
1 *598:X *599:C 24.1556 
*END

*D_NET *246 0.00344958
*CONN
*I *601:B1 I *D sky130_fd_sc_hd__a21oi_1
*I *602:C I *D sky130_fd_sc_hd__and3_1
*I *600:X O *D sky130_fd_sc_hd__xor2_1
*CAP
1 *601:B1 0
2 *602:C 7.29508e-05
3 *600:X 0.000394564
4 *246:20 0.000467514
5 *602:C *602:B 0.000761429
6 *602:C *603:C 0.000376531
7 *246:20 *601:A1 7.72085e-05
8 *246:20 *293:154 0
9 *246:20 *314:20 0.000251021
10 *246:20 *325:16 0.00050223
11 *246:20 *329:18 0.000273942
12 *246:20 *369:106 0
13 *246:20 *369:112 0
14 *33:27 *246:20 0.000220848
15 *164:14 *246:20 5.13451e-05
*RES
1 *600:X *246:20 28.7627 
2 *246:20 *602:C 10.9414 
3 *246:20 *601:B1 9.3 
*END

*D_NET *247 0.00291251
*CONN
*I *603:B I *D sky130_fd_sc_hd__nor3_1
*I *601:Y O *D sky130_fd_sc_hd__a21oi_1
*CAP
1 *603:B 0.000213701
2 *601:Y 0.000213701
3 *603:B *602:B 0.000251021
4 *603:B *309:18 0.00044347
5 *174:20 *603:B 0.00179061
*RES
1 *601:Y *603:B 22.46 
*END

*D_NET *248 0.00277368
*CONN
*I *603:C I *D sky130_fd_sc_hd__nor3_1
*I *602:X O *D sky130_fd_sc_hd__and3_1
*CAP
1 *603:C 0.000881
2 *602:X 0.000881
3 *603:C *602:A 0.00044347
4 *603:C *602:B 8.55644e-05
5 *602:C *603:C 0.000376531
6 *174:20 *603:C 0.000106113
*RES
1 *602:X *603:C 22.7847 
*END

*D_NET *249 0.00226024
*CONN
*I *605:B1 I *D sky130_fd_sc_hd__a21oi_1
*I *606:C I *D sky130_fd_sc_hd__and3_1
*I *604:X O *D sky130_fd_sc_hd__xor2_1
*CAP
1 *605:B1 0
2 *606:C 4.07748e-05
3 *604:X 0.000255172
4 *249:10 0.000295947
5 *606:C *606:A 0.00056898
6 *606:C *607:C 0.000376531
7 *249:10 *686:A1 0.000396132
8 *249:10 *852:CLK 0
9 *249:10 *331:298 0
10 *688:B *249:10 0.000326707
11 *812:D *249:10 0
*RES
1 *604:X *249:10 23.9457 
2 *249:10 *606:C 10.5266 
3 *249:10 *605:B1 9.3 
*END

*D_NET *250 0.00259181
*CONN
*I *607:B I *D sky130_fd_sc_hd__nor3_1
*I *605:Y O *D sky130_fd_sc_hd__a21oi_1
*CAP
1 *607:B 0.000178864
2 *605:Y 0.000178864
3 *607:B *606:B 0.000635919
4 *607:B *331:290 0.00115469
5 *607:B *331:320 0.00044347
*RES
1 *605:Y *607:B 22.0452 
*END

*D_NET *251 0.00259199
*CONN
*I *607:C I *D sky130_fd_sc_hd__nor3_1
*I *606:X O *D sky130_fd_sc_hd__and3_1
*CAP
1 *607:C 0.000851807
2 *606:X 0.000851807
3 *607:C *606:A 0.000149048
4 *607:C *331:290 3.93646e-05
5 *607:C *331:320 0.000323436
6 *606:C *607:C 0.000376531
*RES
1 *606:X *607:C 22.7847 
*END

*D_NET *252 0.00184263
*CONN
*I *609:B1 I *D sky130_fd_sc_hd__a21oi_1
*I *610:C I *D sky130_fd_sc_hd__and3_1
*I *608:X O *D sky130_fd_sc_hd__xor2_1
*CAP
1 *609:B1 9.54505e-06
2 *610:C 4.96827e-06
3 *608:X 0.000111542
4 *252:12 0.000126056
5 *609:B1 *322:68 0.000384898
6 *609:B1 *331:341 0.00044347
7 *610:C *322:68 0.000184082
8 *610:C *331:341 0.000184082
9 *252:12 *286:10 3.09512e-05
10 *252:12 *322:76 9.67224e-05
11 *252:12 *322:135 9.02742e-06
12 *252:12 *323:31 0.000257282
13 *825:D *252:12 0
*RES
1 *608:X *252:12 21.1139 
2 *252:12 *610:C 9.69683 
3 *252:12 *609:B1 10.256 
*END

*D_NET *253 0.000560485
*CONN
*I *611:B I *D sky130_fd_sc_hd__nor3_1
*I *609:Y O *D sky130_fd_sc_hd__a21oi_1
*CAP
1 *611:B 1.6271e-05
2 *609:Y 1.6271e-05
3 *611:B *611:C 0.000374799
4 *611:B *331:441 0.000153144
*RES
1 *609:Y *611:B 28.9528 
*END

*D_NET *254 0.000620043
*CONN
*I *611:C I *D sky130_fd_sc_hd__nor3_1
*I *610:X O *D sky130_fd_sc_hd__and3_1
*CAP
1 *611:C 8.00107e-05
2 *610:X 8.00107e-05
3 *611:C *610:B 1.42934e-05
4 *611:C *305:53 9.02742e-06
5 *611:C *322:135 0
6 *611:C *331:441 1.28963e-05
7 *611:C *331:449 4.9006e-05
8 *611:B *611:C 0.000374799
*RES
1 *610:X *611:C 29.5661 
*END

*D_NET *255 0.00223172
*CONN
*I *613:B1 I *D sky130_fd_sc_hd__a21oi_1
*I *614:C I *D sky130_fd_sc_hd__and3_1
*I *612:X O *D sky130_fd_sc_hd__xor2_1
*CAP
1 *613:B1 9.11931e-05
2 *614:C 5.47449e-05
3 *612:X 0.000228974
4 *255:8 0.000374912
5 *613:B1 *614:B 7.74584e-05
6 *613:B1 *283:10 0
7 *613:B1 *319:22 0.000190919
8 *614:C *612:B 5.28104e-05
9 *614:C *614:B 3.49812e-05
10 *614:C *615:B 4.38475e-05
11 *614:C *703:A2 0.000353915
12 *614:C *322:276 0.00028449
13 *255:8 *305:38 0.00044347
*RES
1 *612:X *255:8 14.756 
2 *255:8 *614:C 15.7661 
3 *255:8 *613:B1 15.7661 
*END

*D_NET *256 0.00309979
*CONN
*I *615:B I *D sky130_fd_sc_hd__nor3_1
*I *613:Y O *D sky130_fd_sc_hd__a21oi_1
*CAP
1 *615:B 0.00050289
2 *613:Y 0.00050289
3 *615:B *615:C 0.000374799
4 *615:B *703:A2 0.000247367
5 *615:B *310:30 0.000635919
6 *615:B *319:22 0.000247367
7 *615:B *322:276 0.000544708
8 *615:B *346:18 0
9 *614:C *615:B 4.38475e-05
10 *646:B *615:B 0
11 *646:C *615:B 0
*RES
1 *613:Y *615:B 33.0834 
*END

*D_NET *257 0.00132407
*CONN
*I *615:C I *D sky130_fd_sc_hd__nor3_1
*I *614:X O *D sky130_fd_sc_hd__and3_1
*CAP
1 *615:C 0.000305734
2 *614:X 0.000305734
3 *615:C *645:A 0
4 *615:C *645:B 0
5 *615:C *322:276 0.000251021
6 *615:B *615:C 0.000374799
7 *646:B *615:C 0
8 *646:C *615:C 7.47986e-05
9 *810:D *615:C 1.19805e-05
*RES
1 *614:X *615:C 30.8828 
*END

*D_NET *258 0.00258569
*CONN
*I *618:C I *D sky130_fd_sc_hd__and3_1
*I *617:B1 I *D sky130_fd_sc_hd__a21oi_1
*I *616:X O *D sky130_fd_sc_hd__xor2_1
*CAP
1 *618:C 0
2 *617:B1 0.000181902
3 *616:X 0.000165129
4 *258:8 0.000347031
5 *617:B1 *617:A1 1.42934e-05
6 *617:B1 *619:A 7.72085e-05
7 *617:B1 *619:B 0.000414163
8 *617:B1 *619:C 0.000251021
9 *617:B1 *809:CLK 0.000122515
10 *617:B1 *302:10 0.000121392
11 *617:B1 *328:12 0.000131349
12 *258:8 *616:A 0.00044347
13 *258:8 *619:C 6.52002e-05
14 *809:D *617:B1 0.000251021
*RES
1 *616:X *258:8 11.6178 
2 *258:8 *617:B1 23.0709 
3 *258:8 *618:C 9.3 
*END

*D_NET *259 0.00108764
*CONN
*I *619:B I *D sky130_fd_sc_hd__nor3_1
*I *617:Y O *D sky130_fd_sc_hd__a21oi_1
*CAP
1 *619:B 0.000209103
2 *617:Y 0.000209103
3 *619:B *617:A2 8.28042e-05
4 *619:B *619:C 1.9321e-05
5 *619:B *328:12 0.000153144
6 *617:B1 *619:B 0.000414163
*RES
1 *617:Y *619:B 30.0351 
*END

*D_NET *260 0.000457295
*CONN
*I *619:C I *D sky130_fd_sc_hd__nor3_1
*I *618:X O *D sky130_fd_sc_hd__and3_1
*CAP
1 *619:C 6.08764e-05
2 *618:X 6.08764e-05
3 *617:B1 *619:C 0.000251021
4 *619:B *619:C 1.9321e-05
5 *258:8 *619:C 6.52002e-05
*RES
1 *618:X *619:C 19.8807 
*END

*D_NET *261 0.00497803
*CONN
*I *699:A I *D sky130_fd_sc_hd__xnor2_1
*I *698:A I *D sky130_fd_sc_hd__nor2_1
*I *697:A I *D sky130_fd_sc_hd__nand2_1
*I *841:Q O *D sky130_fd_sc_hd__dfxtp_1
*CAP
1 *699:A 8.17873e-05
2 *698:A 0
3 *697:A 6.5148e-05
4 *841:Q 6.99381e-05
5 *261:10 0.000285265
6 *261:8 0.000371842
7 *697:A *682:A 3.16497e-05
8 *697:A *323:16 0.000288609
9 *697:A *332:20 0.000755855
10 *697:A *337:12 1.42934e-05
11 *261:10 *323:16 5.51318e-05
12 *700:B *699:A 0.000273254
13 *709:B1 *261:8 0.000424772
14 *709:B1 *261:10 0.00122434
15 *887:A *699:A 0.000400221
16 *900:A *697:A 0.000635919
17 *906:A *697:A 0
18 *906:A *261:10 0
*RES
1 *841:Q *261:8 15.4595 
2 *261:8 *261:10 5.03247 
3 *261:10 *697:A 25.6499 
4 *261:10 *698:A 13.8 
5 *261:8 *699:A 16.4154 
*END

*D_NET *262 0.0047735
*CONN
*I *802:A I *D sky130_fd_sc_hd__xor2_1
*I *668:B1 I *D sky130_fd_sc_hd__a22oi_1
*I *669:A I *D sky130_fd_sc_hd__nor2_1
*I *851:Q O *D sky130_fd_sc_hd__dfxtp_1
*CAP
1 *802:A 8.0853e-05
2 *668:B1 6.07763e-05
3 *669:A 3.49172e-05
4 *851:Q 0
5 *262:12 0.00013914
6 *262:4 0.0001243
7 *668:B1 *668:A1 0.000251021
8 *668:B1 *314:20 0.000828368
9 *669:A *669:B 0.000113187
10 *669:A *314:20 6.67486e-05
11 *802:A *669:B 0.000192449
12 *802:A *802:B 0.000251021
13 *262:12 *669:B 0.000456233
14 *262:12 *331:538 0.000544708
15 *670:B *668:B1 7.87291e-05
16 *670:B *669:A 0.000251021
17 *670:C *668:B1 4.62487e-05
18 *670:C *669:A 0.000115817
19 *851:D *669:A 0.000251021
20 *174:20 *802:A 0.000635919
21 *174:20 *262:12 0.000251021
*RES
1 *851:Q *262:4 9.3 
2 *262:4 *262:12 11.5072 
3 *262:12 *669:A 11.1038 
4 *262:12 *668:B1 11.8253 
5 *262:4 *802:A 11.4104 
*END

*D_NET *263 0.00447036
*CONN
*I *666:A I *D sky130_fd_sc_hd__nor2_1
*I *665:B1 I *D sky130_fd_sc_hd__a22oi_1
*I *798:A I *D sky130_fd_sc_hd__xor2_1
*I *852:Q O *D sky130_fd_sc_hd__dfxtp_1
*CAP
1 *666:A 0.000655698
2 *665:B1 4.68953e-05
3 *798:A 0
4 *852:Q 0
5 *263:12 0.000235908
6 *263:4 0.000844711
7 *665:B1 *798:B 0.000828368
8 *665:B1 *324:24 0.000463704
9 *665:B1 *334:22 0.000251021
10 *666:A *657:A 0
11 *666:A *657:B 8.51948e-06
12 *666:A *667:A 0.000273254
13 *263:12 *665:B2 0
14 *263:12 *667:A 8.28042e-05
15 *263:12 *307:12 0.000544708
16 *263:12 *339:20 0
17 *667:B *263:12 7.47986e-05
18 *667:C *666:A 9.64854e-05
19 *228:14 *665:B1 6.34833e-05
*RES
1 *852:Q *263:4 9.3 
2 *263:4 *263:12 11.5072 
3 *263:12 *798:A 9.3 
4 *263:12 *665:B1 12.3303 
5 *263:4 *666:A 13.629 
*END

*D_NET *264 0.00509825
*CONN
*I *662:B1 I *D sky130_fd_sc_hd__a22oi_1
*I *663:A I *D sky130_fd_sc_hd__nor2_1
*I *794:A I *D sky130_fd_sc_hd__xor2_1
*I *853:Q O *D sky130_fd_sc_hd__dfxtp_1
*CAP
1 *662:B1 0.000348959
2 *663:A 0.000108395
3 *794:A 0.000233595
4 *853:Q 0
5 *264:8 0.000889831
6 *264:4 0.000896801
7 *662:B1 *662:B2 0.000251021
8 *662:B1 *305:32 8.6526e-06
9 *662:B1 *322:439 0
10 *663:A *662:B2 0
11 *663:A *663:B 0.000381737
12 *663:A *331:241 0
13 *663:A *331:261 0
14 *794:A *662:B2 0
15 *794:A *663:B 0.000291994
16 *794:A *794:B 0.000438877
17 *794:A *313:12 2.19237e-05
18 *794:A *331:261 0
19 *794:A *331:269 0.00044347
20 *264:8 *305:32 0.00011372
21 *664:B *662:B1 7.30242e-06
22 *664:B *663:A 3.47126e-05
23 *853:D *663:A 0.000544458
24 *853:D *264:8 8.28043e-05
25 *903:A *663:A 0
26 *225:12 *794:A 0
*RES
1 *853:Q *264:4 9.3 
2 *264:4 *264:8 6.70058 
3 *264:8 *794:A 19.1752 
4 *264:8 *663:A 17.2993 
5 *264:4 *662:B1 11.1038 
*END

*D_NET *265 0.0046911
*CONN
*I *660:A I *D sky130_fd_sc_hd__nor2_1
*I *659:B1 I *D sky130_fd_sc_hd__a22oi_1
*I *790:A I *D sky130_fd_sc_hd__xor2_1
*I *854:Q O *D sky130_fd_sc_hd__dfxtp_1
*CAP
1 *660:A 1.45738e-05
2 *659:B1 0.000291045
3 *790:A 0
4 *854:Q 0.000319346
5 *265:16 0.000530737
6 *265:10 0.000573612
7 *659:B1 *659:B2 0.000239925
8 *659:B1 *322:439 7.74584e-05
9 *659:B1 *326:10 0
10 *659:B1 *331:220 0.000320547
11 *660:A *660:B 1.34892e-05
12 *265:10 *341:12 4.41623e-05
13 *265:16 *660:B 0
14 *265:16 *341:12 0.000146288
15 *265:16 *341:14 0.000519597
16 *661:C *265:10 0.000251021
17 *661:C *265:16 0.000251021
18 *793:C *659:B1 7.74584e-05
19 *907:A *265:10 0.00102082
20 *919:A *265:16 0
*RES
1 *854:Q *265:10 13.8094 
2 *265:10 *265:16 3.62103 
3 *265:16 *790:A 9.3 
4 *265:16 *659:B1 28.076 
5 *265:10 *660:A 9.7329 
*END

*D_NET *266 0.00628137
*CONN
*I *786:A I *D sky130_fd_sc_hd__xor2_1
*I *656:B1 I *D sky130_fd_sc_hd__a22oi_1
*I *657:A I *D sky130_fd_sc_hd__nor2_1
*I *855:Q O *D sky130_fd_sc_hd__dfxtp_1
*CAP
1 *786:A 0
2 *656:B1 0
3 *657:A 0.000188951
4 *855:Q 0.00201044
5 *266:20 0.000255898
6 *266:12 0.00207739
7 *657:A *657:B 1.34892e-05
8 *657:A *322:343 0.000169909
9 *657:A *322:351 3.49812e-05
10 *657:A *342:10 8.36166e-05
11 *657:A *342:19 1.42934e-05
12 *266:12 *796:B 0
13 *266:12 *322:339 2.843e-05
14 *266:20 *786:B 0.000153144
15 *266:20 *796:B 0
16 *266:20 *322:339 0.000251021
17 *266:20 *322:341 0.000424772
18 *266:20 *322:343 3.49812e-05
19 *266:20 *322:399 8.49544e-05
20 *266:20 *342:19 6.94252e-05
21 *658:B *657:A 0.000251021
22 *658:C *657:A 7.87291e-05
23 *666:A *657:A 0
24 *855:D *266:12 5.59329e-05
*RES
1 *855:Q *266:12 19.0222 
2 *266:12 *266:20 7.44012 
3 *266:20 *657:A 16.6499 
4 *266:20 *656:B1 13.8 
5 *266:12 *786:A 9.3 
*END

*D_NET *267 0.00428905
*CONN
*I *782:A I *D sky130_fd_sc_hd__xor2_1
*I *653:B1 I *D sky130_fd_sc_hd__a22oi_1
*I *654:A I *D sky130_fd_sc_hd__nor2_1
*I *856:Q O *D sky130_fd_sc_hd__dfxtp_1
*CAP
1 *782:A 0.000233431
2 *653:B1 0
3 *654:A 1.45131e-05
4 *856:Q 0
5 *267:16 0.000614498
6 *267:4 0.000833416
7 *654:A *654:B 0.00044347
8 *654:A *304:14 0.000126967
9 *654:A *369:295 0.000126967
10 *782:A *653:A2 0.000209141
11 *782:A *782:B 0.000119936
12 *782:A *293:148 0
13 *782:A *300:18 5.13451e-05
14 *782:A *369:299 0.00044347
15 *267:16 *654:B 0
16 *267:16 *293:148 0.000187856
17 *267:16 *300:18 0.000208803
18 *267:16 *369:295 0.000523644
19 *267:16 *369:299 3.3013e-05
20 *655:C *267:16 0.000118582
*RES
1 *856:Q *267:4 9.3 
2 *267:4 *267:16 14.2489 
3 *267:16 *654:A 11.0857 
4 *267:16 *653:B1 9.3 
5 *267:4 *782:A 21.7632 
*END

*D_NET *268 0.00645283
*CONN
*I *650:B1 I *D sky130_fd_sc_hd__a22oi_1
*I *778:A I *D sky130_fd_sc_hd__xor2_1
*I *651:A I *D sky130_fd_sc_hd__nor2_1
*I *857:Q O *D sky130_fd_sc_hd__dfxtp_1
*CAP
1 *650:B1 5.51208e-05
2 *778:A 0
3 *651:A 6.67359e-05
4 *857:Q 0.000124713
5 *268:14 0.000200567
6 *268:8 0.000313665
7 *650:B1 *362:10 0.000277701
8 *650:B1 *369:273 0.000374799
9 *651:A *652:A 0.000251021
10 *651:A *778:B 3.93646e-05
11 *651:A *309:18 0.000551115
12 *651:A *331:525 0.000828368
13 *268:8 *857:CLK 0.000161533
14 *268:14 *778:B 5.13451e-05
15 *268:14 *331:525 0.00115469
16 *268:14 *362:10 0.000257282
17 *652:B *651:A 0.00121327
18 *652:C *651:A 0.00014883
19 *779:B1 *650:B1 2.04192e-05
20 *781:B *268:14 0
21 *781:C *268:14 0
22 *213:10 *650:B1 0.000118431
23 *213:10 *268:14 0.000243854
*RES
1 *857:Q *268:8 15.1709 
2 *268:8 *268:14 9.38817 
3 *268:14 *651:A 14.1521 
4 *268:14 *778:A 9.3 
5 *268:8 *650:B1 16.3794 
*END

*D_NET *269 0.00448622
*CONN
*I *647:B1 I *D sky130_fd_sc_hd__a22oi_1
*I *774:A I *D sky130_fd_sc_hd__xor2_1
*I *648:A I *D sky130_fd_sc_hd__nor2_1
*I *858:Q O *D sky130_fd_sc_hd__dfxtp_1
*CAP
1 *647:B1 0
2 *774:A 7.11419e-05
3 *648:A 0
4 *858:Q 0.000413262
5 *269:21 0.000219074
6 *269:10 0.000561194
7 *774:A *647:A1 0.00020489
8 *774:A *305:53 0
9 *774:A *310:42 0.000629662
10 *269:10 *648:B 0.000251021
11 *269:10 *843:CLK 0.000215291
12 *269:21 *647:A1 3.49812e-05
13 *269:21 *648:B 0.000104138
14 *269:21 *843:CLK 0.000251021
15 *269:21 *305:53 0
16 *269:21 *310:42 0.000509726
17 *843:D *269:21 0
18 *858:D *269:10 0.00102082
*RES
1 *858:Q *269:10 14.4407 
2 *269:10 *648:A 9.3 
3 *269:10 *269:21 7.92713 
4 *269:21 *774:A 16.0727 
5 *269:21 *647:B1 13.8 
*END

*D_NET *270 0.00732842
*CONN
*I *644:B1 I *D sky130_fd_sc_hd__a22oi_1
*I *645:A I *D sky130_fd_sc_hd__nor2_1
*I *770:A I *D sky130_fd_sc_hd__xor2_1
*I *859:Q O *D sky130_fd_sc_hd__dfxtp_1
*CAP
1 *644:B1 0
2 *645:A 0.000145455
3 *770:A 7.68995e-05
4 *859:Q 0.000935093
5 *270:23 0.000145455
6 *270:10 0.00101199
7 *645:A *644:A2 0
8 *645:A *645:B 0.000129306
9 *770:A *615:A 0
10 *770:A *768:A 8.28042e-05
11 *770:A *770:B 0.000192449
12 *770:A *322:229 0.000209771
13 *770:A *322:242 0.000799571
14 *770:A *322:255 8.49544e-05
15 *770:A *346:18 0.000686458
16 *270:10 *859:CLK 0.00179061
17 *270:10 *322:255 0.000374799
18 *615:C *645:A 0
19 *646:B *770:A 0.00020489
20 *646:B *270:10 0.000339818
21 *810:D *645:A 7.87291e-05
22 *826:D *770:A 3.93646e-05
*RES
1 *859:Q *270:10 19.0128 
2 *270:10 *770:A 18.7784 
3 *270:10 *270:23 4.5 
4 *270:23 *645:A 11.1038 
5 *270:23 *644:B1 9.3 
*END

*D_NET *271 0.0027594
*CONN
*I *641:B1 I *D sky130_fd_sc_hd__a22oi_1
*I *642:A I *D sky130_fd_sc_hd__nor2_1
*I *766:A I *D sky130_fd_sc_hd__xor2_1
*I *860:Q O *D sky130_fd_sc_hd__dfxtp_1
*CAP
1 *641:B1 0
2 *642:A 2.14801e-05
3 *766:A 0
4 *860:Q 0.00012815
5 *271:27 0.00011078
6 *271:12 0.000217451
7 *642:A *641:B2 0.000251021
8 *642:A *313:18 0.000209771
9 *642:A *322:64 0.000126967
10 *271:12 *322:49 0.000222569
11 *271:12 *331:320 0.000126967
12 *271:27 *641:B2 0.000459503
13 *271:27 *766:B 1.9321e-05
14 *271:27 *322:49 0.000459753
15 *271:27 *331:320 0.000251021
16 *643:B *271:27 3.47126e-05
17 *812:D *271:12 0
18 *204:10 *271:12 0.000119936
19 *204:10 *271:27 0
*RES
1 *860:Q *271:12 21.2221 
2 *271:12 *766:A 9.3 
3 *271:12 *271:27 11.9401 
4 *271:27 *642:A 10.6709 
5 *271:27 *641:B1 9.3 
*END

*D_NET *272 0.00752739
*CONN
*I *616:A I *D sky130_fd_sc_hd__xor2_1
*I *707:A I *D sky130_fd_sc_hd__nor2_1
*I *706:B1 I *D sky130_fd_sc_hd__a22oi_1
*I *842:Q O *D sky130_fd_sc_hd__dfxtp_1
*CAP
1 *616:A 0.000203575
2 *707:A 0.000117702
3 *706:B1 0.000892621
4 *842:Q 0
5 *272:21 0.000329584
6 *272:4 0.000900928
7 *616:A *616:B 0.000828368
8 *616:A *618:B 0.000594681
9 *616:A *297:14 0.000714616
10 *616:A *308:25 0.000629662
11 *616:A *328:12 3.77755e-05
12 *616:A *331:69 0.000162163
13 *616:A *331:101 0.000492577
14 *616:A *348:26 5.20689e-05
15 *706:B1 *706:B2 0.000222569
16 *706:B1 *707:B 1.97774e-05
17 *706:B1 *297:14 0.000287532
18 *707:A *707:B 9.62935e-05
19 *272:21 *308:25 0.00020489
20 *272:21 *331:101 8.37187e-05
21 *708:C *707:A 3.93646e-05
22 *16:21 *706:B1 0.000140441
23 *35:23 *707:A 3.3013e-05
24 *258:8 *616:A 0.00044347
*RES
1 *842:Q *272:4 9.3 
2 *272:4 *706:B1 23.7113 
3 *272:4 *272:21 5.23954 
4 *272:21 *707:A 15.6038 
5 *272:21 *616:A 21.7545 
*END

*D_NET *273 0.0049656
*CONN
*I *762:A I *D sky130_fd_sc_hd__xor2_1
*I *639:A I *D sky130_fd_sc_hd__nor2_1
*I *638:B1 I *D sky130_fd_sc_hd__a22oi_1
*I *861:Q O *D sky130_fd_sc_hd__dfxtp_1
*CAP
1 *762:A 0.000140313
2 *639:A 0.000238094
3 *638:B1 0
4 *861:Q 0.0001989
5 *273:10 0.000238094
6 *273:8 0.000339213
7 *639:A *638:A1 3.3013e-05
8 *639:A *638:A2 3.27595e-05
9 *639:A *638:B2 0.000251021
10 *639:A *639:B 0.000113187
11 *639:A *640:A 0.000251021
12 *762:A *762:B 0.00076459
13 *762:A *331:695 0
14 *762:A *369:219 0
15 *762:A *369:232 0.000153466
16 *273:8 *762:B 3.49812e-05
17 *273:8 *276:18 0.000629662
18 *273:8 *331:678 0
19 *273:8 *349:27 0.000374799
20 *273:8 *369:202 0
21 *273:8 *369:204 0
22 *273:8 *369:219 0
23 *640:B *639:A 0.000828368
24 *640:C *639:A 0.00014883
25 *763:B1 *762:A 4.9006e-05
26 *765:C *762:A 0.000146288
*RES
1 *861:Q *273:8 17.9126 
2 *273:8 *273:10 4.5 
3 *273:10 *638:B1 9.3 
4 *273:10 *639:A 14.1701 
5 *273:8 *762:A 17.9486 
*END

*D_NET *274 0.00315382
*CONN
*I *636:A I *D sky130_fd_sc_hd__nor2_1
*I *635:B1 I *D sky130_fd_sc_hd__a22oi_1
*I *758:A I *D sky130_fd_sc_hd__xor2_1
*I *862:Q O *D sky130_fd_sc_hd__dfxtp_1
*CAP
1 *636:A 0.000322619
2 *635:B1 0.000500497
3 *758:A 0
4 *862:Q 0.000721962
5 *274:8 0.000899839
6 *635:B1 *627:A 8.51948e-06
7 *635:B1 *635:A1 8.28042e-05
8 *635:B1 *635:A2 0
9 *635:B1 *331:407 3.93646e-05
10 *635:B1 *350:28 0
11 *636:A *636:B 0.000222569
12 *636:A *758:B 0.000146288
13 *274:8 *758:B 9.07096e-05
14 *830:D *635:B1 0.000118646
15 *198:10 *635:B1 0
*RES
1 *862:Q *274:8 11.4104 
2 *274:8 *758:A 9.3 
3 *274:8 *635:B1 25.497 
4 *862:Q *636:A 30.5221 
*END

*D_NET *275 0.00448403
*CONN
*I *754:A I *D sky130_fd_sc_hd__xor2_1
*I *632:B1 I *D sky130_fd_sc_hd__a22oi_1
*I *633:A I *D sky130_fd_sc_hd__nor2_1
*I *863:Q O *D sky130_fd_sc_hd__dfxtp_1
*CAP
1 *754:A 0.000147042
2 *632:B1 3.62056e-05
3 *633:A 5.52184e-05
4 *863:Q 0
5 *275:10 0.000424775
6 *275:4 0.000480393
7 *632:B1 *632:A2 3.80334e-05
8 *632:B1 *632:B2 0.000635919
9 *633:A *351:18 1.42934e-05
10 *633:A *351:27 0.000291994
11 *754:A *754:B 0.00044347
12 *275:10 *632:A1 0
13 *275:10 *754:B 0.000266586
14 *275:10 *351:27 3.47126e-05
15 *625:A2 *633:A 0
16 *634:B *632:B1 0.000635919
17 *744:A *632:B1 0.000126967
18 *866:D *632:B1 0.000307799
19 *866:D *633:A 0.000544708
*RES
1 *863:Q *275:4 9.3 
2 *275:4 *275:10 7.42208 
3 *275:10 *633:A 16.3794 
4 *275:10 *632:B1 16.4335 
5 *275:4 *754:A 11.4104 
*END

*D_NET *276 0.00375291
*CONN
*I *750:A I *D sky130_fd_sc_hd__xor2_1
*I *630:A I *D sky130_fd_sc_hd__nor2_1
*I *629:B1 I *D sky130_fd_sc_hd__a22oi_1
*I *864:Q O *D sky130_fd_sc_hd__dfxtp_1
*CAP
1 *750:A 0
2 *630:A 8.15149e-05
3 *629:B1 0
4 *864:Q 0.000112216
5 *276:18 0.000258616
6 *276:12 0.000289317
7 *630:A *629:A2 1.19805e-05
8 *630:A *629:B2 0.000104813
9 *630:A *630:B 0.000159777
10 *630:A *314:20 0
11 *630:A *349:27 0.00102082
12 *276:12 *750:B 0.000251021
13 *276:12 *331:585 1.42934e-05
14 *276:12 *331:678 0.00013885
15 *276:12 *352:10 0.00020489
16 *276:12 *369:193 0
17 *276:18 *331:678 0
18 *276:18 *352:10 0.000328856
19 *276:18 *369:193 0
20 *276:18 *369:202 0
21 *164:14 *276:12 0.000146288
22 *273:8 *276:18 0.000629662
*RES
1 *864:Q *276:12 21.2221 
2 *276:12 *276:18 14.0325 
3 *276:18 *629:B1 9.3 
4 *276:18 *630:A 12.3664 
5 *276:12 *750:A 9.3 
*END

*D_NET *277 0.00419891
*CONN
*I *746:A I *D sky130_fd_sc_hd__xor2_1
*I *627:A I *D sky130_fd_sc_hd__nor2_1
*I *626:B1 I *D sky130_fd_sc_hd__a22oi_1
*I *865:Q O *D sky130_fd_sc_hd__dfxtp_1
*CAP
1 *746:A 0.000163326
2 *627:A 0.000103754
3 *626:B1 0.000314404
4 *865:Q 0
5 *277:8 0.000551395
6 *277:4 0.000296563
7 *626:B1 *626:B2 0.00044347
8 *626:B1 *627:B 0.000289595
9 *626:B1 *353:24 0.000627262
10 *627:A *627:B 0.000339318
11 *627:A *331:407 0.00025954
12 *746:A *746:B 0.000635919
13 *277:8 *746:B 3.93646e-05
14 *628:B *626:B1 7.87291e-05
15 *628:C *627:A 1.9321e-05
16 *635:B1 *627:A 8.51948e-06
17 *637:B *627:A 2.843e-05
*RES
1 *865:Q *277:4 9.3 
2 *277:4 *277:8 5.04113 
3 *277:8 *626:B1 19.4999 
4 *277:8 *627:A 16.1268 
5 *277:4 *746:A 11.8253 
*END

*D_NET *278 0.00578012
*CONN
*I *741:A I *D sky130_fd_sc_hd__nand2_1
*I *743:A I *D sky130_fd_sc_hd__xnor2_1
*I *742:A I *D sky130_fd_sc_hd__nor2_1
*I *866:Q O *D sky130_fd_sc_hd__dfxtp_1
*CAP
1 *741:A 6.85075e-05
2 *743:A 0
3 *742:A 1.11693e-05
4 *866:Q 0.00069201
5 *278:16 1.83562e-05
6 *278:14 0.000767705
7 *741:A *741:B 0.00106707
8 *741:A *354:12 0
9 *741:A *354:29 0.000459753
10 *742:A *742:B 0.00044347
11 *742:A *354:29 0.000251021
12 *278:14 *831:CLK 1.42934e-05
13 *278:14 *354:29 0.000312385
14 *278:16 *354:29 0.000192449
15 *625:A2 *741:A 0.000208803
16 *625:B1 *742:A 0.000209771
17 *625:B1 *278:14 0.000146288
18 *625:B1 *278:16 8.28042e-05
19 *744:B *741:A 0.000544708
20 *744:B *278:14 8.5407e-05
21 *745:B *741:A 3.47126e-05
22 *866:D *278:14 0.000169439
*RES
1 *866:Q *278:14 23.4227 
2 *278:14 *278:16 0.541126 
3 *278:16 *742:A 10.6709 
4 *278:16 *743:A 9.3 
5 *278:14 *741:A 22.8996 
*END

*D_NET *279 0.00575426
*CONN
*I *735:A I *D sky130_fd_sc_hd__nand2_1
*I *737:A I *D sky130_fd_sc_hd__xnor2_1
*I *736:A I *D sky130_fd_sc_hd__nor2_1
*I *867:Q O *D sky130_fd_sc_hd__dfxtp_1
*CAP
1 *735:A 2.7541e-05
2 *737:A 5.14749e-05
3 *736:A 0
4 *867:Q 0.00105292
5 *279:25 0.00028101
6 *279:16 0.00125491
7 *735:A *735:B 6.57067e-05
8 *737:A *736:B 0.000195992
9 *279:16 *825:CLK 0
10 *279:16 *882:A 0.000635919
11 *279:16 *331:695 0
12 *279:25 *736:B 0.000267422
13 *624:A1 *735:A 0.000714616
14 *624:A2 *735:A 0.000459753
15 *765:C *279:16 0
16 *825:D *279:16 0.000162429
17 *828:D *279:16 0.00058457
18 *74:14 *279:16 0
*RES
1 *867:Q *279:16 32.4955 
2 *279:16 *736:A 9.3 
3 *279:16 *279:25 3.04834 
4 *279:25 *737:A 10.274 
5 *279:25 *735:A 20.8794 
*END

*D_NET *280 0.00375235
*CONN
*I *731:A I *D sky130_fd_sc_hd__xnor2_1
*I *729:A I *D sky130_fd_sc_hd__nand2_1
*I *730:A I *D sky130_fd_sc_hd__nor2_1
*I *868:Q O *D sky130_fd_sc_hd__dfxtp_1
*CAP
1 *731:A 0
2 *729:A 4.08561e-05
3 *730:A 0
4 *868:Q 0.000910191
5 *280:14 5.15981e-05
6 *280:12 0.000920933
7 *729:A *729:B 9.62935e-05
8 *729:A *730:B 4.65022e-05
9 *729:A *731:B 0
10 *729:A *295:90 0.000635919
11 *729:A *356:16 0.000126967
12 *280:12 *356:14 9.67224e-05
13 *280:14 *295:90 0.00019045
14 *280:14 *356:16 0.000635919
15 *868:D *280:12 0
*RES
1 *868:Q *280:12 22.9898 
2 *280:12 *280:14 1.37085 
3 *280:14 *730:A 9.3 
4 *280:14 *729:A 11.5367 
5 *280:12 *731:A 9.3 
*END

*D_NET *281 0.00409563
*CONN
*I *724:A I *D sky130_fd_sc_hd__nor2_1
*I *725:A I *D sky130_fd_sc_hd__xnor2_1
*I *723:A I *D sky130_fd_sc_hd__nand2_1
*I *869:Q O *D sky130_fd_sc_hd__dfxtp_1
*CAP
1 *724:A 0.000139058
2 *725:A 0
3 *723:A 0.000143401
4 *869:Q 0
5 *281:12 0.000981744
6 *281:4 0.000977401
7 *723:A *723:B 0.00121327
8 *724:A *294:57 1.34892e-05
9 *724:A *294:70 0.00024253
10 *281:12 *724:B 0
11 *281:12 *294:70 0.000235141
12 *622:A2 *281:12 7.47986e-05
13 *726:B *281:12 7.47986e-05
*RES
1 *869:Q *281:4 9.3 
2 *281:4 *281:12 13.9964 
3 *281:12 *723:A 11.9154 
4 *281:12 *725:A 9.3 
5 *281:4 *724:A 11.8433 
*END

*D_NET *282 0.0037522
*CONN
*I *718:A I *D sky130_fd_sc_hd__nor2_1
*I *719:A I *D sky130_fd_sc_hd__xnor2_1
*I *717:A I *D sky130_fd_sc_hd__nand2_1
*I *870:Q O *D sky130_fd_sc_hd__dfxtp_1
*CAP
1 *718:A 2.20547e-05
2 *719:A 0.000107419
3 *717:A 3.18988e-05
4 *870:Q 3.40721e-05
5 *282:18 0.000194436
6 *282:10 0.000111245
7 *717:A *717:B 0.000209771
8 *719:A *719:B 0.000251021
9 *719:A *331:634 0.000173563
10 *719:A *331:644 0.000119936
11 *719:A *358:19 0
12 *282:10 *718:B 3.49812e-05
13 *282:10 *293:52 0.000187856
14 *282:10 *331:644 0
15 *282:18 *717:B 0.000614599
16 *282:18 *832:CLK 1.34892e-05
17 *621:A2 *717:A 0.000251021
18 *720:A *719:A 0.000799571
19 *870:D *282:10 0.000153144
20 *164:14 *717:A 8.28042e-05
21 *164:14 *718:A 8.28042e-05
22 *164:14 *282:18 0.000276519
*RES
1 *870:Q *282:10 19.9595 
2 *282:10 *282:18 3.19264 
3 *282:18 *717:A 10.6709 
4 *282:18 *719:A 21.7271 
5 *282:10 *718:A 9.84113 
*END

*D_NET *283 0.00369302
*CONN
*I *612:A I *D sky130_fd_sc_hd__xor2_1
*I *703:B1 I *D sky130_fd_sc_hd__a22oi_1
*I *704:A I *D sky130_fd_sc_hd__nor2_1
*I *843:Q O *D sky130_fd_sc_hd__dfxtp_1
*CAP
1 *612:A 9.5745e-06
2 *703:B1 5.03236e-05
3 *704:A 0.000239254
4 *843:Q 0.00029938
5 *283:23 5.98981e-05
6 *283:10 0.000538634
7 *612:A *703:A2 0.00044347
8 *612:A *305:38 0.000126967
9 *703:B1 *647:A1 5.13451e-05
10 *703:B1 *703:A2 0.000303398
11 *703:B1 *305:38 0.000828368
12 *703:B1 *322:278 4.79221e-05
13 *704:A *331:449 0
14 *704:A *359:14 0.00044347
15 *283:10 *310:30 0.000251021
16 *613:B1 *283:10 0
17 *705:C *704:A 0
18 *843:D *283:10 0
*RES
1 *843:Q *283:10 16.3072 
2 *283:10 *704:A 17.0287 
3 *283:10 *283:23 4.5 
4 *283:23 *703:B1 11.9515 
5 *283:23 *612:A 10.256 
*END

*D_NET *284 0.0032616
*CONN
*I *713:A I *D sky130_fd_sc_hd__xnor2_1
*I *712:A I *D sky130_fd_sc_hd__nor2_1
*I *711:A I *D sky130_fd_sc_hd__nand2_1
*I *871:Q O *D sky130_fd_sc_hd__dfxtp_1
*CAP
1 *713:A 0
2 *712:A 0.000224498
3 *711:A 8.75041e-05
4 *871:Q 0
5 *284:21 0.000290848
6 *284:6 0.000153854
7 *711:A *872:CLK 0.000254353
8 *712:A *713:B 0.000284034
9 *712:A *360:18 0.000828368
10 *284:21 *713:B 6.34833e-05
11 *284:21 *838:CLK 0
12 *284:21 *872:CLK 0.000119936
13 *284:21 *294:30 0.000169909
14 *284:21 *294:53 8.28042e-05
15 *620:A1 *711:A 2.19237e-05
16 *871:D *712:A 4.41623e-05
17 *871:D *284:21 0.000635919
*RES
1 *871:Q *284:6 13.8 
2 *284:6 *711:A 15.7661 
3 *284:6 *284:21 6.91703 
4 *284:21 *712:A 13.1961 
5 *284:21 *713:A 9.3 
*END

*D_NET *285 0.00216696
*CONN
*I *693:B1 I *D sky130_fd_sc_hd__a21oi_1
*I *692:C I *D sky130_fd_sc_hd__and3_1
*I *872:Q O *D sky130_fd_sc_hd__dfxtp_1
*CAP
1 *693:B1 0
2 *692:C 0.000109856
3 *872:Q 0.000423727
4 *285:16 0.000533583
5 *692:C *692:A 0.00056898
6 *285:16 *702:A 0
7 *285:16 *331:782 3.70826e-05
8 *673:B *285:16 0
9 *694:B *285:16 0.000119686
10 *702:B_N *285:16 0.000374049
*RES
1 *872:Q *285:16 23.3144 
2 *285:16 *692:C 10.5266 
3 *285:16 *693:B1 9.3 
*END

*D_NET *286 0.00327889
*CONN
*I *689:B1 I *D sky130_fd_sc_hd__a22oi_1
*I *608:A I *D sky130_fd_sc_hd__xor2_1
*I *690:A I *D sky130_fd_sc_hd__nor2_1
*I *844:Q O *D sky130_fd_sc_hd__dfxtp_1
*CAP
1 *689:B1 0.000187227
2 *608:A 0
3 *690:A 1.85622e-05
4 *844:Q 0
5 *286:10 7.09377e-05
6 *286:4 0.000239602
7 *689:B1 *689:A2 1.73563e-05
8 *689:B1 *755:A1 3.49812e-05
9 *689:B1 *323:31 0.000295057
10 *690:A *690:B 0.00044347
11 *690:A *322:76 0.000209771
12 *286:10 *323:31 0
13 *286:10 *361:23 0.000544458
14 *691:B *689:B1 0.000629662
15 *691:C *689:B1 6.94252e-05
16 *691:C *690:A 3.93646e-05
17 *691:C *286:10 0.000374799
18 *825:D *286:10 2.19237e-05
19 *844:D *689:B1 5.13451e-05
20 *252:12 *286:10 3.09512e-05
*RES
1 *844:Q *286:4 9.3 
2 *286:4 *286:10 11.2727 
3 *286:10 *690:A 10.6709 
4 *286:10 *608:A 9.3 
5 *286:4 *689:B1 22.5569 
*END

*D_NET *287 0.0047367
*CONN
*I *686:B1 I *D sky130_fd_sc_hd__a22oi_1
*I *687:A I *D sky130_fd_sc_hd__nor2_1
*I *604:A I *D sky130_fd_sc_hd__xor2_1
*I *845:Q O *D sky130_fd_sc_hd__dfxtp_1
*CAP
1 *686:B1 0.000151667
2 *687:A 0.000319483
3 *604:A 0
4 *845:Q 0.000387355
5 *287:12 0.000319483
6 *287:10 0.000539023
7 *686:B1 *686:B2 0.000627262
8 *687:A *687:B 0.000861381
9 *287:10 *686:B2 8.49544e-05
10 *287:10 *362:10 0.000884525
11 *812:D *686:B1 0
12 *819:D *687:A 0.000118094
13 *819:D *287:10 0
14 *845:D *287:10 0.00044347
*RES
1 *845:Q *287:10 18.2553 
2 *287:10 *287:12 4.5 
3 *287:12 *604:A 9.3 
4 *287:12 *687:A 13.1961 
5 *287:10 *686:B1 16.3072 
*END

*D_NET *288 0.00569196
*CONN
*I *600:A I *D sky130_fd_sc_hd__xor2_1
*I *684:A I *D sky130_fd_sc_hd__nor2_1
*I *683:B1 I *D sky130_fd_sc_hd__a22oi_1
*I *846:Q O *D sky130_fd_sc_hd__dfxtp_1
*CAP
1 *600:A 0.000117792
2 *684:A 8.86922e-05
3 *683:B1 0
4 *846:Q 0.000186066
5 *288:12 8.86922e-05
6 *288:10 0.000303858
7 *600:A *683:A2 0.000208276
8 *600:A *840:CLK 0
9 *600:A *293:154 0.000381635
10 *600:A *314:20 0.000130074
11 *600:A *325:16 0.000374549
12 *600:A *369:122 3.49812e-05
13 *684:A *683:B2 2.20087e-05
14 *684:A *684:B 0.000874617
15 *684:A *685:A 0.000251021
16 *684:A *317:22 9.85065e-05
17 *684:A *363:12 0.000146288
18 *684:A *363:14 0.000166217
19 *288:10 *840:CLK 0
20 *288:10 *293:154 0.000153144
21 *288:10 *296:16 8.28042e-05
22 *288:10 *369:122 0.000162413
23 *685:B *684:A 0.000635919
24 *685:C *684:A 0.000548485
25 *908:A *600:A 0
26 *164:14 *600:A 0.000635919
*RES
1 *846:Q *288:10 15.6939 
2 *288:10 *288:12 4.5 
3 *288:12 *683:B1 9.3 
4 *288:12 *684:A 14.585 
5 *288:10 *600:A 19.103 
*END

*D_NET *289 0.0164151
*CONN
*I *680:B1 I *D sky130_fd_sc_hd__a22oi_1
*I *596:A I *D sky130_fd_sc_hd__xor2_1
*I *681:A I *D sky130_fd_sc_hd__nor2_1
*I *847:Q O *D sky130_fd_sc_hd__dfxtp_1
*CAP
1 *680:B1 0.000257068
2 *596:A 1.75084e-05
3 *681:A 0.000277678
4 *847:Q 0.000482836
5 *289:12 0.0004645
6 *289:10 0.000909218
7 *680:B1 *680:A1 7.74584e-05
8 *680:B1 *682:A 0
9 *680:B1 *318:24 1.99893e-05
10 *681:A *678:B 0.000251021
11 *681:A *681:B 0.000584839
12 *681:A *312:18 0.000410609
13 *681:A *321:18 0.00118187
14 *289:10 *682:A 0.000289844
15 *289:10 *728:B 3.77755e-05
16 *289:10 *323:16 0.000118431
17 *289:10 *332:20 0
18 *289:12 *728:B 1.72542e-05
19 *289:12 *332:20 0
20 *595:B *596:A 0.000146288
21 *595:C *681:A 0.000459503
22 *815:D *681:A 0.000544708
23 *815:D *289:12 0.000544458
24 *905:A *681:A 0.000251021
25 *16:21 *289:10 0.000828368
26 *19:15 *681:A 0.000118094
27 *33:27 *680:B1 0.000112504
28 *33:27 *289:12 1.73563e-05
29 *141:14 *681:A 0.00610081
30 *141:14 *289:12 0.00135902
31 *174:14 *681:A 8.0602e-05
32 *174:14 *289:12 1.09619e-05
33 *243:20 *596:A 0.00044347
*RES
1 *847:Q *289:10 17.0918 
2 *289:10 *289:12 5.18579 
3 *289:12 *681:A 32.9739 
4 *289:12 *596:A 14.756 
5 *289:10 *680:B1 21.4566 
*END

*D_NET *290 0.00612521
*CONN
*I *677:B1 I *D sky130_fd_sc_hd__a22oi_1
*I *592:A I *D sky130_fd_sc_hd__xor2_1
*I *678:A I *D sky130_fd_sc_hd__nor2_1
*I *848:Q O *D sky130_fd_sc_hd__dfxtp_1
*CAP
1 *677:B1 9.78768e-05
2 *592:A 1.53405e-05
3 *678:A 4.71771e-05
4 *848:Q 0.00114823
5 *290:10 8.65166e-05
6 *290:8 0.0012701
7 *592:A *333:28 0.000146288
8 *677:B1 *681:B 0.000487472
9 *677:B1 *327:40 3.49812e-05
10 *678:A *678:B 0.000131542
11 *678:A *681:B 0.000799571
12 *290:10 *681:B 0.000459753
13 *848:D *290:8 0.000635919
14 *240:10 *592:A 9.07097e-05
15 *240:10 *677:B1 0.000381737
16 *240:10 *678:A 0.000118431
17 *240:10 *290:10 0.000173563
*RES
1 *848:Q *290:8 18.0749 
2 *290:8 *290:10 1.65945 
3 *290:10 *678:A 16.686 
4 *290:10 *592:A 14.756 
5 *290:8 *677:B1 17.8404 
*END

*D_NET *291 0.00647678
*CONN
*I *588:A I *D sky130_fd_sc_hd__xor2_1
*I *674:B1 I *D sky130_fd_sc_hd__a22oi_1
*I *675:A I *D sky130_fd_sc_hd__nor2_1
*I *849:Q O *D sky130_fd_sc_hd__dfxtp_1
*CAP
1 *588:A 5.04713e-05
2 *674:B1 6.24818e-05
3 *675:A 0
4 *849:Q 0.000851415
5 *291:18 0.000406247
6 *291:10 0.00124565
7 *588:A *816:CLK 0
8 *588:A *331:774 0
9 *674:B1 *674:B2 5.40034e-05
10 *674:B1 *333:28 0.000115234
11 *291:10 *591:A 0.000207662
12 *291:10 *331:774 0
13 *291:18 *588:B 0.00140572
14 *291:18 *674:B2 9.02742e-06
15 *291:18 *333:28 0.000532548
16 *291:18 *366:14 5.28749e-05
17 *587:C *674:B1 0.000374799
18 *676:B *674:B1 0.000374799
19 *676:B *291:18 3.93646e-05
20 *676:C *291:18 0.000251021
21 *816:D *588:A 0
22 *816:D *291:10 0
23 *849:D *291:18 0.00044347
*RES
1 *849:Q *291:10 18.1831 
2 *291:10 *291:18 14.8442 
3 *291:18 *675:A 13.8 
4 *291:18 *674:B1 16.4335 
5 *291:10 *588:A 14.5395 
*END

*D_NET *292 0.00464827
*CONN
*I *671:B1 I *D sky130_fd_sc_hd__a22oi_1
*I *806:A I *D sky130_fd_sc_hd__xor2_1
*I *672:A I *D sky130_fd_sc_hd__nor2_1
*I *850:Q O *D sky130_fd_sc_hd__dfxtp_1
*CAP
1 *671:B1 0.0002214
2 *806:A 0
3 *672:A 0.000247019
4 *850:Q 0
5 *292:25 0.000336042
6 *292:6 0.000361661
7 *671:B1 *671:A1 8.28042e-05
8 *671:B1 *671:A2 0.000254243
9 *672:A *672:B 0
10 *672:A *817:CLK 0
11 *672:A *849:CLK 8.25087e-05
12 *672:A *296:24 0
13 *672:A *296:26 0
14 *672:A *331:780 0.00102934
15 *292:25 *671:A2 0.000635919
16 *292:25 *806:B 0.000251021
17 *292:25 *296:24 0
18 *586:C *672:A 3.49812e-05
19 *586:C *292:25 0.000459753
20 *673:C *672:A 0
21 *817:D *672:A 0.000651584
*RES
1 *850:Q *292:6 13.8 
2 *292:6 *672:A 20.2394 
3 *292:6 *292:25 7.5303 
4 *292:25 *806:A 9.3 
5 *292:25 *671:B1 12.7812 
*END

*D_NET *1 0.0140743
*CONN
*P clk I
*I *873:A I *D sky130_fd_sc_hd__clkbuf_16
*CAP
1 clk 0.00277942
2 *873:A 6.19389e-05
3 *1:18 0.00284136
4 *873:A *293:23 2.07011e-05
5 *873:A *300:31 0.000211151
6 *1:18 *652:B 0.000629664
7 *1:18 *668:A1 0.000359001
8 *1:18 *668:A2 0
9 *1:18 *805:C 0.000197475
10 *1:18 *807:A1 0
11 *1:18 *819:D 0
12 *1:18 *908:A 0.00159944
13 *1:18 *36:15 0.000202163
14 *1:18 *231:10 0.000284364
15 *1:18 *293:6 0.000191526
16 *1:18 *293:23 0.000592507
17 *1:18 *300:31 0.000761212
18 *1:18 *312:18 0.00147166
19 *1:18 *329:18 0.000652771
20 *1:18 *331:559 3.59082e-05
21 *1:18 *338:10 3.1193e-05
22 *1:18 *362:10 0.000830293
23 *1:18 *369:122 0.000320547
*RES
1 clk *1:18 37.0631 
2 *1:18 *873:A 10.8783 
*END

*D_NET *293 0.0295845
*CONN
*I *881:A I *D sky130_fd_sc_hd__clkbuf_16
*I *877:A I *D sky130_fd_sc_hd__clkbuf_16
*I *876:A I *D sky130_fd_sc_hd__clkbuf_16
*I *880:A I *D sky130_fd_sc_hd__clkbuf_16
*I *878:A I *D sky130_fd_sc_hd__clkbuf_16
*I *879:A I *D sky130_fd_sc_hd__clkbuf_16
*I *875:A I *D sky130_fd_sc_hd__clkbuf_16
*I *874:A I *D sky130_fd_sc_hd__clkbuf_16
*I *873:X O *D sky130_fd_sc_hd__clkbuf_16
*CAP
1 *881:A 3.35798e-05
2 *877:A 0
3 *876:A 7.54395e-05
4 *880:A 0
5 *878:A 0
6 *879:A 9.66265e-05
7 *875:A 0.000151296
8 *874:A 5.8555e-05
9 *873:X 0.000495316
10 *293:177 0.00134636
11 *293:154 0.00080969
12 *293:148 0.00143724
13 *293:139 0.00205438
14 *293:130 0.000121826
15 *293:124 0.000326365
16 *293:111 0.000625579
17 *293:86 0.00156557
18 *293:70 0.000277445
19 *293:52 0.000685451
20 *293:42 0.00110095
21 *293:29 0.00181684
22 *293:27 1.24876e-05
23 *293:23 0.000999304
24 *293:6 0.00109969
25 *875:A *867:CLK 3.42301e-05
26 *876:A *674:A2 0.000149756
27 *876:A *369:128 8.28042e-05
28 *881:A *301:14 0.000146288
29 *293:6 *300:31 2.34856e-05
30 *293:23 *755:A1 0.000685895
31 *293:23 *845:CLK 0.000273254
32 *293:23 *298:6 0.000400221
33 *293:23 *298:16 0.000285675
34 *293:23 *347:12 0.000309044
35 *293:27 *755:A1 0.000241512
36 *293:27 *298:16 0.000241512
37 *293:52 *718:B 2.38582e-05
38 *293:52 *832:CLK 0.000257282
39 *293:52 *864:CLK 0.000187856
40 *293:52 *295:25 0.000257282
41 *293:52 *295:27 0.000326707
42 *293:52 *295:33 0.000187856
43 *293:52 *331:644 0
44 *293:52 *358:8 0.000257282
45 *293:52 *358:19 0.000239925
46 *293:70 *867:CLK 9.58442e-05
47 *293:70 *295:6 9.07097e-05
48 *293:86 *776:B 0
49 *293:86 *844:CLK 0.00036142
50 *293:86 *299:10 0
51 *293:86 *310:42 0.000109619
52 *293:86 *331:407 0
53 *293:86 *345:18 4.9006e-05
54 *293:111 *300:18 0.000127495
55 *293:111 *300:31 0.000102106
56 *293:124 *300:63 3.16497e-05
57 *293:124 *323:16 0
58 *293:130 *331:32 0.000146288
59 *293:139 *331:32 8.28042e-05
60 *293:148 *653:A2 0.000118431
61 *293:148 *782:B 0
62 *293:148 *297:48 0
63 *293:148 *300:12 0
64 *293:148 *304:14 0
65 *293:148 *343:10 0
66 *293:148 *343:20 0.000187856
67 *293:154 *600:B 4.38475e-05
68 *293:154 *601:A1 0
69 *293:154 *674:A2 7.10274e-05
70 *293:154 *706:B2 0
71 *293:154 *816:CLK 0
72 *293:154 *840:CLK 0
73 *293:154 *296:12 0
74 *293:154 *325:16 8.76949e-05
75 *293:154 *331:764 0.00025718
76 *293:154 *331:766 0.000534676
77 *293:154 *369:154 0
78 *293:177 *605:A2 0
79 *293:177 *801:A 0
80 *293:177 *852:CLK 0
81 *293:177 *301:14 8.37187e-05
82 *293:177 *301:33 0
83 *293:177 *306:10 7.86675e-05
84 *293:177 *306:27 0.000184224
85 *293:177 *307:12 0
86 *293:177 *313:12 0
87 *293:177 *322:227 0
88 *293:177 *331:282 0
89 *600:A *293:154 0.000381635
90 *631:B *293:52 0
91 *655:B *293:177 0
92 *655:C *293:124 0.000135685
93 *655:C *293:148 0
94 *655:C *293:177 0
95 *708:B *293:148 2.19237e-05
96 *708:B *293:154 0.00017539
97 *708:C *293:154 0.000153144
98 *720:A *874:A 0.000137415
99 *720:B *874:A 0.00065317
100 *720:B *293:52 0.000256003
101 *777:C *293:86 0
102 *782:A *293:148 0
103 *819:D *293:23 0
104 *821:D *881:A 0.000223571
105 *821:D *293:177 6.90035e-05
106 *825:D *293:86 0
107 *830:D *879:A 0.000241512
108 *830:D *293:86 0.000158708
109 *856:D *293:124 1.99893e-05
110 *870:D *293:52 0
111 *873:A *293:23 2.07011e-05
112 *1:18 *293:6 0.000191526
113 *1:18 *293:23 0.000592507
114 *16:21 *293:154 0
115 *33:27 *293:154 3.16497e-05
116 *74:14 *293:42 0.000533859
117 *74:14 *293:52 0.000548093
118 *74:14 *293:86 0.00121494
119 *77:10 *293:42 0.000493284
120 *77:10 *293:52 6.57712e-05
121 *77:10 *293:86 0
122 *179:16 *293:42 0
123 *179:16 *293:124 9.02079e-05
124 *210:10 *293:86 0
125 *228:14 *293:177 0
126 *246:20 *293:154 0
127 *267:16 *293:148 0.000187856
128 *282:10 *293:52 0.000187856
129 *288:10 *293:154 0.000153144
*RES
1 *873:X *293:6 10.7024 
2 *293:6 *293:23 25.8425 
3 *293:23 *293:27 1.57828 
4 *293:27 *293:29 4.5 
5 *293:29 *293:42 14.5366 
6 *293:42 *293:52 22.9298 
7 *293:52 *874:A 11.3427 
8 *293:42 *293:70 6.46609 
9 *293:70 *875:A 10.9053 
10 *293:29 *293:86 28.6613 
11 *293:86 *879:A 10.8783 
12 *293:27 *878:A 9.3 
13 *873:X *293:111 15.6038 
14 *293:111 *293:124 8.85611 
15 *293:124 *293:130 5.45599 
16 *293:130 *880:A 9.3 
17 *293:130 *293:139 5.04113 
18 *293:139 *293:148 11.4358 
19 *293:148 *293:154 19.7868 
20 *293:154 *876:A 10.8783 
21 *293:148 *877:A 13.8 
22 *293:139 *293:177 22.8622 
23 *293:177 *881:A 10.761 
*END

*D_NET *294 0.0196277
*CONN
*I *839:CLK I *D sky130_fd_sc_hd__dfxtp_1
*I *838:CLK I *D sky130_fd_sc_hd__dfxtp_1
*I *837:CLK I *D sky130_fd_sc_hd__dfxtp_1
*I *869:CLK I *D sky130_fd_sc_hd__dfxtp_1
*I *868:CLK I *D sky130_fd_sc_hd__dfxtp_1
*I *836:CLK I *D sky130_fd_sc_hd__dfxtp_1
*I *871:CLK I *D sky130_fd_sc_hd__dfxtp_1
*I *872:CLK I *D sky130_fd_sc_hd__dfxtp_1
*I *864:CLK I *D sky130_fd_sc_hd__dfxtp_1
*I *874:X O *D sky130_fd_sc_hd__clkbuf_16
*CAP
1 *839:CLK 6.18118e-05
2 *838:CLK 0.000536277
3 *837:CLK 0.00140366
4 *869:CLK 0
5 *868:CLK 0.000182042
6 *836:CLK 0
7 *871:CLK 0
8 *872:CLK 0.000172136
9 *864:CLK 0.000256882
10 *874:X 0.000329176
11 *294:101 0.00200308
12 *294:74 0.000665706
13 *294:70 0.000931516
14 *294:57 0.00126095
15 *294:53 0.00142343
16 *294:30 0.000775831
17 *294:28 0.000190615
18 *837:CLK *357:6 6.92589e-05
19 *837:CLK *357:23 9.07097e-05
20 *864:CLK *331:589 5.13451e-05
21 *872:CLK *620:C1 0.000273254
22 *872:CLK *711:B 9.07096e-05
23 *294:53 *713:B 0
24 *620:A1 *872:CLK 0.000448657
25 *620:A1 *294:28 3.15476e-05
26 *620:A1 *294:30 0.000361317
27 *620:B1 *872:CLK 0.000828368
28 *622:A1 *294:74 0
29 *622:A2 *294:74 0
30 *622:B1 *294:70 0.00125743
31 *622:B1 *294:74 0
32 *631:B *864:CLK 0
33 *711:A *872:CLK 0.000254353
34 *714:A *294:28 1.09619e-05
35 *714:B *838:CLK 0
36 *714:B *294:30 0.000222467
37 *715:B *294:28 0.000374299
38 *724:A *294:57 1.34892e-05
39 *724:A *294:70 0.00024253
40 *726:A *294:74 0
41 *836:D *294:74 9.67224e-05
42 *837:D *837:CLK 0.000133925
43 *837:D *838:CLK 0
44 *838:D *838:CLK 0.00180944
45 *838:D *839:CLK 0.000146288
46 *864:D *864:CLK 0
47 *869:D *294:70 0.00142454
48 *871:D *294:53 0.000282113
49 *871:D *294:57 0.000125154
50 *281:12 *294:70 0.000235141
51 *284:21 *838:CLK 0
52 *284:21 *872:CLK 0.000119936
53 *284:21 *294:30 0.000169909
54 *284:21 *294:53 8.28042e-05
55 *293:52 *864:CLK 0.000187856
*RES
1 *874:X *864:CLK 30.3417 
2 *874:X *294:28 15.4595 
3 *294:28 *294:30 3.19264 
4 *294:30 *872:CLK 19.4638 
5 *294:30 *294:53 8.91919 
6 *294:53 *294:57 3.76984 
7 *294:57 *871:CLK 9.3 
8 *294:57 *294:70 9.72222 
9 *294:70 *294:74 11.6789 
10 *294:74 *836:CLK 13.8 
11 *294:74 *868:CLK 16.3794 
12 *294:70 *869:CLK 9.3 
13 *294:53 *294:101 5.32071 
14 *294:101 *837:CLK 20.537 
15 *294:101 *838:CLK 22.2506 
16 *294:28 *839:CLK 14.756 
*END

*D_NET *295 0.0226005
*CONN
*I *882:A I *D sky130_fd_sc_hd__clkbuf_4
*I *829:CLK I *D sky130_fd_sc_hd__dfxtp_1
*I *870:CLK I *D sky130_fd_sc_hd__dfxtp_1
*I *866:CLK I *D sky130_fd_sc_hd__dfxtp_1
*I *835:CLK I *D sky130_fd_sc_hd__dfxtp_1
*I *861:CLK I *D sky130_fd_sc_hd__dfxtp_1
*I *851:CLK I *D sky130_fd_sc_hd__dfxtp_1
*I *832:CLK I *D sky130_fd_sc_hd__dfxtp_1
*I *867:CLK I *D sky130_fd_sc_hd__dfxtp_1
*I *875:X O *D sky130_fd_sc_hd__clkbuf_16
*CAP
1 *882:A 0.000121127
2 *829:CLK 3.22045e-05
3 *870:CLK 0
4 *866:CLK 0.00016583
5 *835:CLK 0.00013095
6 *861:CLK 0
7 *851:CLK 0.000788137
8 *832:CLK 9.52093e-05
9 *867:CLK 0.000453348
10 *875:X 0.000860616
11 *295:90 0.0011021
12 *295:80 0.00130232
13 *295:72 0.00102047
14 *295:50 0.000828893
15 *295:33 0.000309171
16 *295:27 0.000724043
17 *295:25 0.00020952
18 *295:6 0.00134279
19 *867:CLK *351:18 0.000251021
20 *295:27 *331:644 0
21 *295:33 *331:644 0
22 *295:80 *331:644 0.000192449
23 *295:80 *331:646 0.00179061
24 *295:90 *729:B 7.87291e-05
25 *295:90 *731:B 0.000284034
26 *295:90 *733:A 0
27 *295:90 *356:14 4.6705e-05
28 *295:90 *356:16 2.7384e-05
29 *623:A2 *295:90 0.000251021
30 *623:B1 *295:90 0.000251021
31 *624:B1 *295:27 2.19237e-05
32 *624:B1 *295:72 3.93646e-05
33 *624:B1 *295:80 6.34833e-05
34 *729:A *295:90 0.000635919
35 *732:B *295:80 0.000187856
36 *765:C *295:6 0.000251021
37 *829:D *295:72 1.14338e-05
38 *835:D *295:90 0
39 *861:D *851:CLK 0.00103964
40 *867:D *867:CLK 0.00108259
41 *868:D *295:90 0.000118646
42 *875:A *867:CLK 3.42301e-05
43 *74:14 *832:CLK 0.000629662
44 *77:10 *867:CLK 0.00063912
45 *77:10 *295:25 0.000594681
46 *77:10 *295:27 0.000459753
47 *164:14 *832:CLK 0.00044347
48 *174:20 *851:CLK 0.000386586
49 *174:20 *295:33 0.000273254
50 *174:20 *295:50 0.000146288
51 *174:20 *295:90 0.000826369
52 *174:24 *295:90 0
53 *279:16 *882:A 0.000635919
54 *280:14 *295:90 0.00019045
55 *282:18 *832:CLK 1.34892e-05
56 *293:52 *832:CLK 0.000257282
57 *293:52 *295:25 0.000257282
58 *293:52 *295:27 0.000326707
59 *293:52 *295:33 0.000187856
60 *293:70 *867:CLK 9.58442e-05
61 *293:70 *295:6 9.07097e-05
*RES
1 *875:X *295:6 12.7452 
2 *295:6 *867:CLK 26.2726 
3 *295:6 *295:25 6.77273 
4 *295:25 *295:27 2.886 
5 *295:27 *295:33 7.94517 
6 *295:33 *832:CLK 21.9616 
7 *295:33 *295:50 0.955989 
8 *295:50 *851:CLK 18.4811 
9 *295:50 *861:CLK 9.3 
10 *295:27 *295:72 6.71862 
11 *295:72 *295:80 15.6558 
12 *295:80 *295:90 18.1724 
13 *295:90 *835:CLK 15.1709 
14 *295:90 *866:CLK 16.0727 
15 *295:80 *870:CLK 9.3 
16 *295:72 *829:CLK 9.7329 
17 *295:25 *882:A 15.1709 
*END

*D_NET *296 0.0200433
*CONN
*I *848:CLK I *D sky130_fd_sc_hd__dfxtp_1
*I *840:CLK I *D sky130_fd_sc_hd__dfxtp_4
*I *816:CLK I *D sky130_fd_sc_hd__dfxtp_1
*I *814:CLK I *D sky130_fd_sc_hd__dfxtp_1
*I *846:CLK I *D sky130_fd_sc_hd__dfxtp_1
*I *850:CLK I *D sky130_fd_sc_hd__dfxtp_1
*I *818:CLK I *D sky130_fd_sc_hd__dfxtp_1
*I *849:CLK I *D sky130_fd_sc_hd__dfxtp_1
*I *817:CLK I *D sky130_fd_sc_hd__dfxtp_1
*I *876:X O *D sky130_fd_sc_hd__clkbuf_16
*CAP
1 *848:CLK 0.000222705
2 *840:CLK 0.000257174
3 *816:CLK 0.000323538
4 *814:CLK 0
5 *846:CLK 0
6 *850:CLK 0
7 *818:CLK 0.000317183
8 *849:CLK 0.00181717
9 *817:CLK 2.97459e-05
10 *876:X 0.000222705
11 *296:82 0.000600958
12 *296:52 0.000860868
13 *296:26 0.00194879
14 *296:24 0.00113405
15 *296:16 0.00122181
16 *296:12 0.00093225
17 *296:4 0.000219185
18 *816:CLK *589:A2 0
19 *817:CLK *672:B 0.000173375
20 *818:CLK *710:B 0.000628662
21 *818:CLK *321:18 7.72085e-05
22 *818:CLK *369:181 0.000119686
23 *818:CLK *369:386 0.000474031
24 *840:CLK *328:16 0
25 *840:CLK *369:112 0.000119686
26 *840:CLK *369:122 0
27 *848:CLK *589:A2 0.000762885
28 *848:CLK *590:A 0.00019045
29 *848:CLK *674:A2 0.000209771
30 *848:CLK *328:31 6.34833e-05
31 *849:CLK *588:B 0.000251021
32 *849:CLK *331:780 5.97886e-05
33 *849:CLK *366:14 0.000828368
34 *296:12 *674:A2 0.000635919
35 *296:24 *672:B 0.0010187
36 *296:24 *806:B 1.99248e-05
37 *296:24 *807:A1 5.68599e-05
38 *296:24 *367:27 0.000828368
39 *296:26 *672:B 0.000594431
40 *296:82 *674:A2 0.000251021
41 *586:C *296:24 0
42 *587:B *296:24 0.000251021
43 *588:A *816:CLK 0
44 *590:C *816:CLK 0
45 *591:C *848:CLK 0.000185538
46 *600:A *840:CLK 0
47 *672:A *817:CLK 0
48 *672:A *849:CLK 8.25087e-05
49 *672:A *296:24 0
50 *672:A *296:26 0
51 *694:B *818:CLK 0
52 *805:B *296:24 0.000209771
53 *807:B1 *296:24 8.28042e-05
54 *814:D *840:CLK 0.000208071
55 *816:D *816:CLK 3.49812e-05
56 *817:D *849:CLK 0.000133925
57 *846:D *296:16 7.7398e-05
58 *850:D *296:52 0.000654745
59 *159:12 *818:CLK 7.74584e-05
60 *169:14 *818:CLK 0.000239517
61 *237:8 *816:CLK 0.000251021
62 *288:10 *840:CLK 0
63 *288:10 *296:16 8.28042e-05
64 *292:25 *296:24 0
65 *293:154 *816:CLK 0
66 *293:154 *840:CLK 0
67 *293:154 *296:12 0
*RES
1 *876:X *296:4 9.3 
2 *296:4 *296:12 12.6436 
3 *296:12 *296:16 8.0267 
4 *296:16 *296:24 13.3203 
5 *296:24 *296:26 2.27273 
6 *296:26 *817:CLK 14.5395 
7 *296:26 *849:CLK 21.7185 
8 *296:24 *296:52 9.62266 
9 *296:52 *818:CLK 25.4789 
10 *296:52 *850:CLK 9.3 
11 *296:16 *846:CLK 9.3 
12 *296:12 *814:CLK 9.3 
13 *296:4 *296:82 5.04113 
14 *296:82 *816:CLK 17.7683 
15 *296:82 *840:CLK 18.2192 
16 *876:X *848:CLK 23.867 
*END

*D_NET *297 0.0216684
*CONN
*I *847:CLK I *D sky130_fd_sc_hd__dfxtp_1
*I *815:CLK I *D sky130_fd_sc_hd__dfxtp_1
*I *809:CLK I *D sky130_fd_sc_hd__dfxtp_1
*I *842:CLK I *D sky130_fd_sc_hd__dfxtp_1
*I *824:CLK I *D sky130_fd_sc_hd__dfxtp_1
*I *857:CLK I *D sky130_fd_sc_hd__dfxtp_1
*I *883:A I *D sky130_fd_sc_hd__clkinv_1
*I *813:CLK I *D sky130_fd_sc_hd__dfxtp_1
*I *877:X O *D sky130_fd_sc_hd__clkbuf_16
*CAP
1 *847:CLK 0
2 *815:CLK 7.14794e-05
3 *809:CLK 0.000150067
4 *842:CLK 0
5 *824:CLK 0
6 *857:CLK 0.000456383
7 *883:A 6.42021e-06
8 *813:CLK 0.000267553
9 *877:X 0.000359676
10 *297:82 0.000221546
11 *297:80 6.06155e-05
12 *297:48 0.000811619
13 *297:31 0.000429259
14 *297:18 0.000493686
15 *297:14 0.00045759
16 *809:CLK *617:A1 3.49812e-05
17 *809:CLK *302:10 0.000884025
18 *809:CLK *318:24 0.00133469
19 *813:CLK *314:20 0.00044347
20 *813:CLK *362:10 0.000216006
21 *815:CLK *617:A1 0.000332833
22 *815:CLK *318:24 0.00139425
23 *857:CLK *780:A 3.3013e-05
24 *857:CLK *780:B 5.13451e-05
25 *857:CLK *369:258 0.00339369
26 *857:CLK *369:273 6.34833e-05
27 *883:A *708:A 0.000251021
28 *883:A *309:18 8.28042e-05
29 *297:14 *617:A2 8.28042e-05
30 *297:14 *706:B2 0.00140572
31 *297:14 *707:B 0.000384898
32 *297:14 *331:101 0.000714616
33 *297:18 *362:10 0.000287532
34 *297:31 *309:18 0.000374799
35 *297:31 *331:732 0.000118646
36 *297:48 *780:A 0
37 *297:48 *331:79 0.000239925
38 *297:48 *343:20 9.02742e-06
39 *297:80 *617:A2 0.000306267
40 *616:A *297:14 0.000714616
41 *617:B1 *809:CLK 0.000122515
42 *706:B1 *297:14 0.000287532
43 *708:B *297:31 0
44 *708:C *297:14 0.000129037
45 *764:C *857:CLK 0
46 *780:C *857:CLK 9.20409e-05
47 *781:B *297:48 0
48 *781:C *857:CLK 5.13451e-05
49 *781:C *297:48 0
50 *809:D *809:CLK 0.000251021
51 *813:D *813:CLK 7.7398e-05
52 *824:D *297:48 0.000434519
53 *842:D *297:14 0.000571072
54 *842:D *297:18 0.000828368
55 *857:D *857:CLK 7.7398e-05
56 *892:A *815:CLK 0.000544708
57 *16:21 *297:14 7.87291e-05
58 *16:21 *297:80 0.00102082
59 *268:8 *857:CLK 0.000161533
60 *293:148 *297:48 0
*RES
1 *877:X *297:14 28.1846 
2 *297:14 *297:18 3.87807 
3 *297:18 *813:CLK 13.1781 
4 *297:18 *297:31 6.46609 
5 *297:31 *883:A 14.3411 
6 *297:31 *297:48 9.91126 
7 *297:48 *857:CLK 19.9602 
8 *297:48 *824:CLK 9.3 
9 *297:14 *842:CLK 9.3 
10 *877:X *297:80 11.9335 
11 *297:80 *297:82 4.5 
12 *297:82 *809:CLK 19.9147 
13 *297:82 *815:CLK 18.8325 
14 *297:80 *847:CLK 9.3 
*END

*D_NET *298 0.0225462
*CONN
*I *860:CLK I *D sky130_fd_sc_hd__dfxtp_1
*I *844:CLK I *D sky130_fd_sc_hd__dfxtp_1
*I *812:CLK I *D sky130_fd_sc_hd__dfxtp_1
*I *884:A I *D sky130_fd_sc_hd__clkinv_1
*I *828:CLK I *D sky130_fd_sc_hd__dfxtp_1
*I *825:CLK I *D sky130_fd_sc_hd__dfxtp_1
*I *834:CLK I *D sky130_fd_sc_hd__dfxtp_1
*I *831:CLK I *D sky130_fd_sc_hd__dfxtp_1
*I *878:X O *D sky130_fd_sc_hd__clkbuf_16
*CAP
1 *860:CLK 0.000116652
2 *844:CLK 0.000353924
3 *812:CLK 0
4 *884:A 9.01027e-05
5 *828:CLK 0
6 *825:CLK 0.000183556
7 *834:CLK 0
8 *831:CLK 6.83945e-05
9 *878:X 0.0007106
10 *298:70 0.0008703
11 *298:66 0.00185171
12 *298:40 0.000274414
13 *298:38 0.000808446
14 *298:16 0.00138799
15 *298:6 0.00191354
16 *825:CLK *920:A 0
17 *825:CLK *331:695 0.000861381
18 *831:CLK *351:18 0.000459753
19 *831:CLK *354:12 0.000451989
20 *831:CLK *354:29 1.28963e-05
21 *860:CLK *689:A2 7.74584e-05
22 *860:CLK *691:A 0.000119936
23 *860:CLK *755:A1 0.000208276
24 *860:CLK *920:A 0.000544708
25 *860:CLK *323:31 0.000587185
26 *860:CLK *347:12 0
27 *884:A *632:A2 0
28 *298:16 *755:A1 4.82073e-05
29 *298:16 *755:A2 0.00019045
30 *298:16 *354:12 0.00180725
31 *298:40 *920:A 0
32 *298:66 *755:A1 0
33 *298:66 *920:A 0
34 *625:A2 *831:CLK 6.01878e-05
35 *625:A2 *298:16 0.000315962
36 *755:B1 *298:16 0.00159816
37 *765:B *825:CLK 0.000114267
38 *825:D *825:CLK 0.000792014
39 *825:D *844:CLK 0
40 *825:D *298:40 0.000509726
41 *825:D *298:66 0.000679635
42 *834:D *298:16 0.000654745
43 *844:D *844:CLK 0.000847195
44 *866:D *831:CLK 0.000222569
45 *866:D *298:70 0
46 *184:24 *884:A 0.000572979
47 *184:24 *298:66 0.000600928
48 *184:24 *298:70 0.000275552
49 *278:14 *831:CLK 1.42934e-05
50 *279:16 *825:CLK 0
51 *293:23 *298:6 0.000400221
52 *293:23 *298:16 0.000285675
53 *293:27 *298:16 0.000241512
54 *293:86 *844:CLK 0.00036142
*RES
1 *878:X *298:6 11.9154 
2 *298:6 *298:16 13.6905 
3 *298:16 *831:CLK 21.655 
4 *298:16 *834:CLK 9.3 
5 *298:6 *298:38 4.5 
6 *298:38 *298:40 1.96609 
7 *298:40 *825:CLK 18.9046 
8 *298:40 *828:CLK 13.8 
9 *298:38 *298:66 9.69481 
10 *298:66 *298:70 3.76984 
11 *298:70 *884:A 11.1038 
12 *298:70 *812:CLK 9.3 
13 *298:66 *844:CLK 24.5229 
14 *878:X *860:CLK 31.7126 
*END

*D_NET *299 0.0152628
*CONN
*I *843:CLK I *D sky130_fd_sc_hd__dfxtp_1
*I *858:CLK I *D sky130_fd_sc_hd__dfxtp_1
*I *862:CLK I *D sky130_fd_sc_hd__dfxtp_1
*I *830:CLK I *D sky130_fd_sc_hd__dfxtp_1
*I *865:CLK I *D sky130_fd_sc_hd__dfxtp_1
*I *833:CLK I *D sky130_fd_sc_hd__dfxtp_1
*I *863:CLK I *D sky130_fd_sc_hd__dfxtp_1
*I *811:CLK I *D sky130_fd_sc_hd__dfxtp_1
*I *826:CLK I *D sky130_fd_sc_hd__dfxtp_1
*I *879:X O *D sky130_fd_sc_hd__clkbuf_16
*CAP
1 *843:CLK 0.000168487
2 *858:CLK 0
3 *862:CLK 0
4 *830:CLK 0
5 *865:CLK 0
6 *833:CLK 0
7 *863:CLK 0.000355738
8 *811:CLK 0.000177314
9 *826:CLK 0
10 *879:X 0.000319149
11 *299:63 0.00053778
12 *299:61 0.000570668
13 *299:59 0.000550398
14 *299:57 0.000985418
15 *299:45 0.00152975
16 *299:33 0.00109894
17 *299:10 0.000272114
18 *811:CLK *310:42 0.000326897
19 *811:CLK *345:12 0.000208803
20 *843:CLK *648:B 0.000251021
21 *843:CLK *310:42 0.000209771
22 *863:CLK *634:A 0
23 *299:33 *648:B 0
24 *299:33 *345:18 0
25 *299:57 *637:A 0.000251021
26 *299:61 *637:A 0
27 *628:B *299:61 0
28 *628:B *299:63 0
29 *637:B *299:57 0
30 *637:B *299:59 0
31 *637:B *299:61 0
32 *637:C *299:45 0
33 *637:C *299:57 0.000188917
34 *649:C *843:CLK 8.28042e-05
35 *649:C *299:33 6.57712e-05
36 *761:B *299:33 0
37 *761:C *299:33 0
38 *826:D *811:CLK 0.00257924
39 *833:D *863:CLK 0
40 *858:D *843:CLK 0.000251021
41 *858:D *299:33 0.000459753
42 *858:D *299:45 0.00321516
43 *862:D *299:57 0
44 *862:D *299:59 0
45 *77:10 *299:10 0.00014057
46 *77:10 *299:33 0
47 *269:10 *843:CLK 0.000215291
48 *269:21 *843:CLK 0.000251021
49 *293:86 *299:10 0
*RES
1 *879:X *299:10 20.2661 
2 *299:10 *826:CLK 9.3 
3 *299:10 *811:CLK 16.0641 
4 *879:X *299:33 22.4126 
5 *299:33 *299:45 18.3074 
6 *299:45 *299:57 13.6991 
7 *299:57 *299:59 2.27273 
8 *299:59 *299:61 5.03247 
9 *299:61 *299:63 2.57937 
10 *299:63 *863:CLK 18.8325 
11 *299:63 *833:CLK 13.8 
12 *299:61 *865:CLK 13.8 
13 *299:59 *830:CLK 13.8 
14 *299:57 *862:CLK 13.8 
15 *299:45 *858:CLK 9.3 
16 *299:33 *843:CLK 13.16 
*END

*D_NET *300 0.0230687
*CONN
*I *808:CLK I *D sky130_fd_sc_hd__dfxtp_1
*I *841:CLK I *D sky130_fd_sc_hd__dfxtp_1
*I *823:CLK I *D sky130_fd_sc_hd__dfxtp_1
*I *852:CLK I *D sky130_fd_sc_hd__dfxtp_1
*I *885:A I *D sky130_fd_sc_hd__clkinv_1
*I *845:CLK I *D sky130_fd_sc_hd__dfxtp_1
*I *819:CLK I *D sky130_fd_sc_hd__dfxtp_1
*I *856:CLK I *D sky130_fd_sc_hd__dfxtp_1
*I *880:X O *D sky130_fd_sc_hd__clkbuf_16
*CAP
1 *808:CLK 0.00014906
2 *841:CLK 1.83549e-05
3 *823:CLK 0.000163182
4 *852:CLK 0.000689268
5 *885:A 0
6 *845:CLK 0.000733849
7 *819:CLK 0.000149128
8 *856:CLK 0
9 *880:X 0.00132971
10 *300:101 0.000439782
11 *300:63 0.00108032
12 *300:31 0.00323869
13 *300:18 0.0032252
14 *300:12 0.00169896
15 *808:CLK *696:A 0
16 *808:CLK *302:10 0.000485977
17 *819:CLK *650:B2 0.000126967
18 *819:CLK *763:A2 0.000478451
19 *819:CLK *347:12 3.47126e-05
20 *841:CLK *302:10 1.73563e-05
21 *845:CLK *347:12 0.000118431
22 *852:CLK *605:A2 8.36166e-05
23 *852:CLK *686:A1 2.19237e-05
24 *852:CLK *688:A 6.55125e-05
25 *852:CLK *801:A 0.00014057
26 *852:CLK *324:35 0.000222569
27 *852:CLK *331:290 0.000251021
28 *852:CLK *362:10 0
29 *300:12 *331:32 0.00179061
30 *300:63 *688:A 3.70826e-05
31 *300:63 *362:10 0
32 *300:101 *331:26 7.87291e-05
33 *300:101 *331:32 5.13451e-05
34 *655:B *852:CLK 0.000104138
35 *655:B *300:63 0
36 *688:B *852:CLK 0
37 *688:C *852:CLK 0
38 *688:C *300:63 1.9321e-05
39 *700:A *808:CLK 0.000162494
40 *700:A *841:CLK 5.28749e-05
41 *709:A2 *300:101 0.00122179
42 *709:B1 *300:101 0.000635919
43 *782:A *300:18 5.13451e-05
44 *831:D *300:31 0.000251021
45 *856:D *852:CLK 3.49812e-05
46 *856:D *300:18 0.000462296
47 *856:D *300:63 0
48 *873:A *300:31 0.000211151
49 *902:A *841:CLK 0.000162413
50 *1:18 *300:31 0.000761212
51 *75:12 *819:CLK 0.000799321
52 *184:24 *819:CLK 0.000347126
53 *184:24 *845:CLK 0.000104138
54 *249:10 *852:CLK 0
55 *267:16 *300:18 0.000208803
56 *293:6 *300:31 2.34856e-05
57 *293:23 *845:CLK 0.000273254
58 *293:111 *300:18 0.000127495
59 *293:111 *300:31 0.000102106
60 *293:124 *300:63 3.16497e-05
61 *293:148 *300:12 0
62 *293:177 *852:CLK 0
*RES
1 *880:X *300:12 23.8195 
2 *300:12 *300:18 7.32323 
3 *300:18 *856:CLK 9.3 
4 *300:18 *300:31 15.7554 
5 *300:31 *819:CLK 18.7784 
6 *300:31 *845:CLK 18.2012 
7 *300:18 *300:63 11.9221 
8 *300:63 *885:A 9.3 
9 *300:63 *852:CLK 27.896 
10 *300:12 *823:CLK 11.0857 
11 *880:X *300:101 18.0929 
12 *300:101 *841:CLK 14.5395 
13 *300:101 *808:CLK 18.2192 
*END

*D_NET *301 0.0193925
*CONN
*I *854:CLK I *D sky130_fd_sc_hd__dfxtp_1
*I *855:CLK I *D sky130_fd_sc_hd__dfxtp_1
*I *822:CLK I *D sky130_fd_sc_hd__dfxtp_1
*I *853:CLK I *D sky130_fd_sc_hd__dfxtp_1
*I *821:CLK I *D sky130_fd_sc_hd__dfxtp_1
*I *820:CLK I *D sky130_fd_sc_hd__dfxtp_1
*I *810:CLK I *D sky130_fd_sc_hd__dfxtp_1
*I *827:CLK I *D sky130_fd_sc_hd__dfxtp_1
*I *859:CLK I *D sky130_fd_sc_hd__dfxtp_1
*I *881:X O *D sky130_fd_sc_hd__clkbuf_16
*CAP
1 *854:CLK 9.12279e-05
2 *855:CLK 0.000164672
3 *822:CLK 7.73634e-05
4 *853:CLK 2.80564e-05
5 *821:CLK 0.000105422
6 *820:CLK 0.000161782
7 *810:CLK 0
8 *827:CLK 0.000629125
9 *859:CLK 0.000314323
10 *881:X 0.000415779
11 *301:81 0.000463798
12 *301:75 0.00031299
13 *301:35 0.000834515
14 *301:33 0.000594216
15 *301:29 0.000458553
16 *301:16 0.000586949
17 *301:14 0.000590375
18 *820:CLK *644:A2 0.000146288
19 *820:CLK *306:27 0.000444383
20 *820:CLK *348:18 5.13451e-05
21 *821:CLK *644:A2 0.000146288
22 *822:CLK *326:10 0
23 *854:CLK *659:B2 0.000544708
24 *854:CLK *662:A2 0.000755855
25 *854:CLK *791:A2 1.42934e-05
26 *854:CLK *792:B 2.843e-05
27 *854:CLK *336:29 0.000173563
28 *855:CLK *302:23 6.94252e-05
29 *859:CLK *305:38 0.000366808
30 *859:CLK *322:276 0.000113187
31 *301:14 *662:A2 1.19805e-05
32 *301:14 *662:B2 0.00179061
33 *301:14 *305:38 8.25087e-05
34 *301:14 *306:10 0.000714616
35 *301:14 *340:6 0.000635919
36 *301:16 *305:38 0.000122372
37 *301:29 *644:A2 0
38 *301:29 *322:255 0
39 *301:33 *644:A2 0.00028301
40 *301:33 *771:A2 6.93231e-05
41 *301:33 *322:227 0.000459253
42 *301:35 *644:A2 0.000209771
43 *301:81 *662:A2 6.57712e-05
44 *301:81 *322:409 8.57605e-05
45 *301:81 *322:422 4.38475e-05
46 *301:81 *336:29 0.000153144
47 *789:C *855:CLK 0.00014057
48 *791:B1 *301:81 6.94252e-05
49 *793:C *301:81 0.000629662
50 *810:D *821:CLK 9.80501e-05
51 *810:D *301:35 7.7398e-05
52 *821:D *821:CLK 0.000267848
53 *821:D *301:14 0.000389367
54 *822:D *822:CLK 0
55 *827:D *827:CLK 0.000269847
56 *853:D *301:14 0.000269847
57 *859:D *859:CLK 0.000654745
58 *881:A *301:14 0.000146288
59 *918:A *822:CLK 8.28042e-05
60 *919:A *854:CLK 0.000130074
61 *219:10 *855:CLK 0.000629662
62 *222:18 *822:CLK 0.000251021
63 *222:18 *301:81 0
64 *270:10 *859:CLK 0.00179061
65 *293:177 *301:14 8.37187e-05
66 *293:177 *301:33 0
*RES
1 *881:X *301:14 29.4291 
2 *301:14 *301:16 1.78571 
3 *301:16 *859:CLK 16.497 
4 *301:16 *301:29 6.46609 
5 *301:29 *301:33 9.53247 
6 *301:33 *301:35 3.0303 
7 *301:35 *827:CLK 16.0641 
8 *301:35 *810:CLK 9.3 
9 *301:33 *820:CLK 13.16 
10 *301:29 *821:CLK 16.4154 
11 *301:14 *853:CLK 9.7329 
12 *881:X *301:75 9.3 
13 *301:75 *301:81 10.4434 
14 *301:81 *822:CLK 15.8473 
15 *301:81 *855:CLK 17.6871 
16 *301:75 *854:CLK 22.0518 
*END

*D_NET *302 0.0117999
*CONN
*I *787:A2 I *D sky130_fd_sc_hd__a21oi_1
*I *788:B I *D sky130_fd_sc_hd__and3_1
*I *656:A2 I *D sky130_fd_sc_hd__a22oi_1
*I *886:X O *D sky130_fd_sc_hd__buf_1
*CAP
1 *787:A2 0.000109416
2 *788:B 0.000135615
3 *656:A2 2.4505e-06
4 *886:X 0.00103722
5 *302:23 0.000334862
6 *302:10 0.0011295
7 *787:A2 *787:A1 0.00102082
8 *787:A2 *322:399 3.3013e-05
9 *788:B *787:A1 2.7384e-05
10 *788:B *322:403 1.19805e-05
11 *302:10 *619:A 9.65295e-05
12 *302:10 *696:A 0
13 *302:10 *734:A 5.67438e-05
14 *302:10 *303:12 0.000222467
15 *302:10 *318:24 0.00029812
16 *302:10 *322:341 3.49812e-05
17 *302:10 *322:343 0.00020489
18 *302:10 *322:351 0.000714616
19 *302:10 *326:10 0
20 *302:10 *328:12 0
21 *302:10 *331:22 0.00096948
22 *302:10 *342:10 0
23 *302:23 *322:341 0.000424772
24 *302:23 *322:399 0.000714616
25 *617:B1 *302:10 0.000121392
26 *658:B *656:A2 6.90307e-05
27 *658:C *656:A2 6.90307e-05
28 *789:B *787:A2 6.34833e-05
29 *789:C *787:A2 0.000828368
30 *789:C *302:23 0
31 *808:CLK *302:10 0.000485977
32 *809:CLK *302:10 0.000884025
33 *809:D *302:10 0.000374799
34 *841:CLK *302:10 1.73563e-05
35 *855:CLK *302:23 6.94252e-05
36 *855:D *302:23 9.67224e-05
37 *886:A *302:10 5.13451e-05
38 *902:A *302:10 0.000757094
39 *911:A *787:A2 3.93646e-05
40 *150:10 *302:10 3.19481e-06
41 *219:10 *302:23 0.000289844
*RES
1 *886:X *302:10 31.7654 
2 *302:10 *656:A2 13.9488 
3 *302:10 *302:23 8.61255 
4 *302:23 *788:B 9.84113 
5 *302:23 *787:A2 13.0879 
*END

*D_NET *303 0.00909522
*CONN
*I *784:B I *D sky130_fd_sc_hd__and3_1
*I *653:A2 I *D sky130_fd_sc_hd__a22oi_1
*I *783:A2 I *D sky130_fd_sc_hd__a21oi_1
*I *887:X O *D sky130_fd_sc_hd__buf_1
*CAP
1 *784:B 0
2 *653:A2 0.00116143
3 *783:A2 0
4 *887:X 0.00108464
5 *303:25 0.00168634
6 *303:12 0.00160954
7 *653:A2 *369:299 0.00022076
8 *303:12 *734:A 0.00100816
9 *303:12 *734:B 1.97774e-05
10 *303:25 *369:316 7.87291e-05
11 *782:A *653:A2 0.000209141
12 *783:B1 *303:25 0.000603031
13 *785:B *303:25 0.000635919
14 *785:C *303:25 0.000211123
15 *887:A *303:12 9.07096e-05
16 *216:12 *653:A2 0.000130074
17 *216:12 *303:25 4.94434e-06
18 *293:148 *653:A2 0.000118431
19 *302:10 *303:12 0.000222467
*RES
1 *887:X *303:12 24.541 
2 *303:12 *783:A2 9.3 
3 *303:12 *303:25 5.57359 
4 *303:25 *653:A2 24.1847 
5 *303:25 *784:B 9.3 
*END

*D_NET *304 0.00967775
*CONN
*I *779:A2 I *D sky130_fd_sc_hd__a21oi_1
*I *650:A2 I *D sky130_fd_sc_hd__a22oi_1
*I *780:B I *D sky130_fd_sc_hd__and3_1
*I *888:X O *D sky130_fd_sc_hd__buf_1
*CAP
1 *779:A2 1.1338e-05
2 *650:A2 2.37644e-05
3 *780:B 0.000387296
4 *888:X 0.00137142
5 *304:16 0.000619769
6 *304:14 0.00159146
7 *650:A2 *779:A1 2.86822e-05
8 *650:A2 *369:282 0.000543597
9 *779:A2 *654:B 0.000113187
10 *779:A2 *779:A1 3.3013e-05
11 *304:14 *654:B 0.000828368
12 *304:14 *782:B 0.000339818
13 *304:14 *343:10 0.000540615
14 *304:14 *343:20 5.13451e-05
15 *304:14 *369:295 4.82073e-05
16 *304:14 *369:299 0.000635919
17 *304:16 *369:282 4.32154e-05
18 *304:16 *369:295 2.843e-05
19 *654:A *304:14 0.000126967
20 *779:B1 *650:A2 0.000398469
21 *779:B1 *780:B 0.000625819
22 *781:B *780:B 0.000714616
23 *857:CLK *780:B 5.13451e-05
24 *888:A *304:14 0.000146288
25 *213:10 *780:B 0.000374799
26 *293:148 *304:14 0
*RES
1 *888:X *304:14 27.4631 
2 *304:14 *304:16 0.996573 
3 *304:16 *780:B 22.3359 
4 *304:16 *650:A2 11.2075 
5 *304:14 *779:A2 10.0395 
*END

*D_NET *305 0.0249849
*CONN
*I *775:A2 I *D sky130_fd_sc_hd__a21oi_1
*I *776:B I *D sky130_fd_sc_hd__and3_1
*I *647:A2 I *D sky130_fd_sc_hd__a22oi_1
*I *889:X O *D sky130_fd_sc_hd__buf_1
*CAP
1 *775:A2 0
2 *776:B 0.000226851
3 *647:A2 0.000225268
4 *889:X 0.00137199
5 *305:53 0.000613967
6 *305:38 0.00469677
7 *305:32 0.00545637
8 *647:A2 *331:455 0.000205295
9 *776:B *322:135 0
10 *776:B *322:139 0.00102082
11 *305:32 *664:A 0.000251021
12 *305:32 *791:A1 8.28042e-05
13 *305:32 *793:A 0.00128166
14 *305:32 *310:30 8.39397e-05
15 *305:32 *319:16 0.00044347
16 *305:32 *326:10 0.000828368
17 *305:32 *331:241 0.000332322
18 *305:32 *331:261 0
19 *305:38 *612:B 0.00044347
20 *305:38 *647:A1 1.97774e-05
21 *305:38 *703:A2 0.0003448
22 *305:38 *703:B2 3.93646e-05
23 *305:38 *322:276 5.68599e-05
24 *305:38 *331:455 6.67486e-05
25 *305:53 *647:A1 0
26 *305:53 *310:42 0
27 *305:53 *322:135 3.49812e-05
28 *305:53 *331:449 0
29 *305:53 *345:12 0
30 *611:C *305:53 9.02742e-06
31 *612:A *305:38 0.000126967
32 *661:C *305:32 0.000570436
33 *662:B1 *305:32 8.6526e-06
34 *664:B *305:32 0.000732577
35 *703:B1 *305:38 0.000828368
36 *705:B *305:38 0.000635919
37 *705:C *305:53 0.000459753
38 *774:A *305:53 0
39 *777:C *776:B 0.000117785
40 *793:B *305:32 8.0897e-05
41 *811:D *305:53 9.65289e-05
42 *853:D *305:32 8.28042e-05
43 *853:D *305:38 0.000279403
44 *859:CLK *305:38 0.000366808
45 *859:D *305:38 0.000133925
46 *889:A *305:32 0.000146288
47 *894:A *305:32 6.67486e-05
48 *909:A *305:32 0.00108121
49 *210:10 *305:53 0.000271854
50 *255:8 *305:38 0.00044347
51 *264:8 *305:32 0.00011372
52 *269:21 *305:53 0
53 *293:86 *776:B 0
54 *301:14 *305:38 8.25087e-05
55 *301:16 *305:38 0.000122372
*RES
1 *889:X *305:32 36.9869 
2 *305:32 *305:38 23.088 
3 *305:38 *647:A2 12.1048 
4 *305:38 *305:53 16.7922 
5 *305:53 *776:B 22.0879 
6 *305:53 *775:A2 9.3 
*END

*D_NET *306 0.0107059
*CONN
*I *771:A2 I *D sky130_fd_sc_hd__a21oi_1
*I *644:A2 I *D sky130_fd_sc_hd__a22oi_1
*I *772:B I *D sky130_fd_sc_hd__and3_1
*I *890:X O *D sky130_fd_sc_hd__buf_1
*CAP
1 *771:A2 9.12912e-05
2 *644:A2 0.00121168
3 *772:B 0.000271881
4 *890:X 0.000409072
5 *306:27 0.00209379
6 *306:10 0.00147177
7 *644:A2 *645:B 0
8 *644:A2 *322:242 0
9 *644:A2 *322:255 0
10 *771:A2 *322:227 0.000289844
11 *306:10 *313:12 0.000673833
12 *306:10 *319:16 0.000146288
13 *306:27 *313:12 0.00029179
14 *645:A *644:A2 0
15 *810:D *644:A2 0.00103461
16 *820:CLK *644:A2 0.000146288
17 *820:CLK *306:27 0.000444383
18 *821:CLK *644:A2 0.000146288
19 *821:D *644:A2 0
20 *826:D *772:B 0.00044347
21 *293:177 *306:10 7.86675e-05
22 *293:177 *306:27 0.000184224
23 *301:14 *306:10 0.000714616
24 *301:29 *644:A2 0
25 *301:33 *644:A2 0.00028301
26 *301:33 *771:A2 6.93231e-05
27 *301:35 *644:A2 0.000209771
*RES
1 *890:X *306:10 20.7084 
2 *306:10 *772:B 15.2971 
3 *306:10 *306:27 10.1097 
4 *306:27 *644:A2 28.7753 
5 *306:27 *771:A2 19.9595 
*END

*D_NET *307 0.0170727
*CONN
*I *641:A2 I *D sky130_fd_sc_hd__a22oi_1
*I *768:B I *D sky130_fd_sc_hd__and3_1
*I *767:A2 I *D sky130_fd_sc_hd__a21oi_1
*I *891:X O *D sky130_fd_sc_hd__buf_1
*CAP
1 *641:A2 0
2 *768:B 0.000312883
3 *767:A2 0
4 *891:X 0.003981
5 *307:27 0.000360917
6 *307:14 0.000168637
7 *307:12 0.00410161
8 *768:B *615:A 0
9 *768:B *313:18 8.62544e-05
10 *768:B *322:62 0.000232194
11 *768:B *322:190 9.6605e-06
12 *768:B *359:10 1.42934e-05
13 *307:12 *665:B2 0
14 *307:12 *799:A1 1.04972e-05
15 *307:12 *331:22 0.000104972
16 *307:12 *331:282 0.000714616
17 *307:12 *334:22 0.000221925
18 *307:14 *313:18 0.00171405
19 *307:14 *322:197 0.000717637
20 *307:14 *322:221 0.000400221
21 *307:14 *322:321 0.000717637
22 *307:27 *313:18 0.000901017
23 *307:27 *322:190 0.000175767
24 *307:27 *322:197 3.93646e-05
25 *643:B *768:B 9.02742e-06
26 *667:B *307:12 0
27 *701:B *307:12 0.000336737
28 *768:C *768:B 0.000416734
29 *827:D *768:B 6.57067e-05
30 *228:14 *307:12 0.000714616
31 *263:12 *307:12 0.000544708
32 *293:177 *307:12 0
*RES
1 *891:X *307:12 40.2156 
2 *307:12 *307:14 11.7424 
3 *307:14 *767:A2 9.3 
4 *307:14 *307:27 3.17009 
5 *307:27 *768:B 24.9423 
6 *307:27 *641:A2 9.3 
*END

*D_NET *308 0.0105776
*CONN
*I *618:B I *D sky130_fd_sc_hd__and3_1
*I *617:A2 I *D sky130_fd_sc_hd__a21oi_1
*I *706:A2 I *D sky130_fd_sc_hd__a22oi_1
*I *892:X O *D sky130_fd_sc_hd__buf_1
*CAP
1 *618:B 2.11966e-05
2 *617:A2 0.000186652
3 *706:A2 4.60686e-05
4 *892:X 6.53566e-05
5 *308:25 0.000286191
6 *308:6 0.000189768
7 *618:B *328:12 0.000629662
8 *706:A2 *706:A1 0.000368164
9 *706:A2 *327:34 0.00102082
10 *706:A2 *331:101 8.37187e-05
11 *308:6 *598:B 0.000635919
12 *308:6 *326:27 0.000384898
13 *308:6 *327:34 0.000251021
14 *308:25 *327:34 0.000119936
15 *308:25 *328:12 0.000842048
16 *308:25 *328:16 4.57819e-05
17 *308:25 *331:101 8.76949e-05
18 *616:A *618:B 0.000594681
19 *616:A *308:25 0.000629662
20 *619:B *617:A2 8.28042e-05
21 *16:21 *617:A2 0.000470854
22 *16:21 *706:A2 0.00020464
23 *174:20 *706:A2 0.00138898
24 *174:20 *308:6 0.00134714
25 *272:21 *308:25 0.00020489
26 *297:14 *617:A2 8.28042e-05
27 *297:80 *617:A2 0.000306267
*RES
1 *892:X *308:6 12.3303 
2 *308:6 *706:A2 22.0338 
3 *308:6 *308:25 8.61255 
4 *308:25 *617:A2 18.129 
5 *308:25 *618:B 16.0727 
*END

*D_NET *309 0.0212349
*CONN
*I *763:A2 I *D sky130_fd_sc_hd__a21oi_1
*I *764:B I *D sky130_fd_sc_hd__and3_1
*I *638:A2 I *D sky130_fd_sc_hd__a22oi_1
*I *893:X O *D sky130_fd_sc_hd__buf_1
*CAP
1 *763:A2 0.000116815
2 *764:B 0.000134421
3 *638:A2 0.000508557
4 *893:X 0.00388864
5 *309:33 0.000275412
6 *309:18 0.00442138
7 *638:A2 *638:A1 8.47137e-05
8 *763:A2 *650:B2 0.00044347
9 *763:A2 *344:6 4.41623e-05
10 *763:A2 *344:14 0.000714616
11 *309:18 *602:B 9.02742e-06
12 *309:18 *652:A 0.000251021
13 *309:18 *708:A 6.67486e-05
14 *309:18 *331:523 0.000192449
15 *309:18 *331:525 0.00307919
16 *309:18 *331:732 0
17 *309:18 *344:14 0.000336737
18 *309:33 *344:14 0.000544708
19 *603:B *309:18 0.00044347
20 *639:A *638:A2 3.27595e-05
21 *651:A *309:18 0.000551115
22 *652:C *309:18 3.93646e-05
23 *708:B *309:18 0.000828368
24 *763:B1 *763:A2 5.85715e-05
25 *765:B *763:A2 1.19805e-05
26 *765:C *764:B 0.000251021
27 *819:CLK *763:A2 0.000478451
28 *842:D *309:18 9.67224e-05
29 *883:A *309:18 8.28042e-05
30 *75:12 *763:A2 8.98444e-05
31 *75:12 *309:33 6.94252e-05
32 *174:20 *309:18 0.00106498
33 *184:24 *763:A2 0.000934498
34 *184:24 *309:33 0.000714616
35 *297:31 *309:18 0.000374799
*RES
1 *893:X *309:18 39.6203 
2 *309:18 *638:A2 11.8749 
3 *309:18 *309:33 7.07937 
4 *309:33 *764:B 14.3411 
5 *309:33 *763:A2 19.103 
*END

*D_NET *310 0.0251414
*CONN
*I *759:A2 I *D sky130_fd_sc_hd__a21oi_1
*I *760:B I *D sky130_fd_sc_hd__and3_1
*I *635:A2 I *D sky130_fd_sc_hd__a22oi_1
*I *894:X O *D sky130_fd_sc_hd__buf_1
*CAP
1 *759:A2 5.06201e-05
2 *760:B 1.25841e-05
3 *635:A2 0.000124996
4 *894:X 0.00339133
5 *310:44 0.000258636
6 *310:42 0.002947
7 *310:30 0.00616666
8 *635:A2 *635:A1 0.000368164
9 *635:A2 *331:407 0.000107646
10 *310:30 *646:A 0.00246442
11 *310:30 *791:A1 8.28042e-05
12 *310:30 *319:16 0.000285933
13 *310:30 *319:22 8.28042e-05
14 *310:30 *322:255 0.000162413
15 *310:30 *331:220 0.000304119
16 *310:30 *331:222 0.000304119
17 *310:30 *331:241 0
18 *310:42 *648:B 0.000629662
19 *310:42 *331:407 3.14917e-05
20 *310:42 *345:12 0.000187856
21 *310:42 *345:18 0.000629662
22 *310:44 *331:407 8.03455e-05
23 *615:B *310:30 0.000635919
24 *635:B1 *635:A2 0
25 *646:B *310:30 0.00044347
26 *646:C *310:30 0.000570436
27 *760:C *635:A2 5.85715e-05
28 *760:C *310:44 6.84601e-06
29 *761:B *759:A2 0.000326503
30 *774:A *310:42 0.000629662
31 *791:B1 *310:30 0.00050223
32 *793:B *310:30 6.34833e-05
33 *793:C *310:30 0.00044347
34 *811:CLK *310:42 0.000326897
35 *821:D *310:30 7.72085e-05
36 *843:CLK *310:42 0.000209771
37 *843:D *310:42 0.000133925
38 *894:A *310:30 8.28042e-05
39 *909:A *310:30 0.000204049
40 *20:17 *310:30 0
41 *77:10 *759:A2 0.000798571
42 *269:21 *310:42 0.000509726
43 *283:10 *310:30 0.000251021
44 *293:86 *310:42 0.000109619
45 *305:32 *310:30 8.39397e-05
46 *305:53 *310:42 0
*RES
1 *894:X *310:30 48.3135 
2 *310:30 *310:42 26.0094 
3 *310:42 *310:44 1.37085 
4 *310:44 *635:A2 11.6629 
5 *310:44 *760:B 9.7329 
6 *310:42 *759:A2 21.186 
*END

*D_NET *311 0.0151671
*CONN
*I *756:B I *D sky130_fd_sc_hd__and3_1
*I *755:A2 I *D sky130_fd_sc_hd__a21oi_1
*I *632:A2 I *D sky130_fd_sc_hd__a22oi_1
*I *895:X O *D sky130_fd_sc_hd__buf_2
*CAP
1 *756:B 0
2 *755:A2 0.000182993
3 *632:A2 5.79687e-05
4 *895:X 0.00410201
5 *311:18 0.000290861
6 *311:16 0.00415191
7 *755:A2 *625:C1 3.49812e-05
8 *755:A2 *755:A1 0.000251021
9 *311:16 *322:99 1.09619e-05
10 *311:16 *323:16 0
11 *311:16 *324:16 7.74584e-05
12 *311:18 *625:C1 0.000367545
13 p *311:16 7.74584e-05
14 *625:B1 *755:A2 0.000459753
15 *632:B1 *632:A2 3.80334e-05
16 *744:A *632:A2 0.000184929
17 *755:B1 *755:A2 0.00102082
18 *757:B *755:A2 0.000391869
19 *757:B *311:16 0.000339818
20 *757:B *311:18 0.00096948
21 *757:C *311:16 0.000417026
22 *757:C *311:18 3.49812e-05
23 *866:D *632:A2 0.000945511
24 *884:A *632:A2 0
25 *891:A *311:16 7.52722e-05
26 *77:10 *755:A2 0.000242988
27 *184:24 *632:A2 0.000251021
28 *298:16 *755:A2 0.00019045
*RES
1 *895:X *311:16 30.3878 
2 *311:16 *311:18 3.49928 
3 *311:18 *632:A2 16.2711 
4 *311:18 *755:A2 20.4919 
5 *311:16 *756:B 13.8 
*END

*D_NET *312 0.0148367
*CONN
*I *751:A2 I *D sky130_fd_sc_hd__a21oi_1
*I *629:A2 I *D sky130_fd_sc_hd__a22oi_1
*I *752:B I *D sky130_fd_sc_hd__and3_1
*I *896:X O *D sky130_fd_sc_hd__buf_1
*CAP
1 *751:A2 0
2 *629:A2 0.000325561
3 *752:B 0.000140692
4 *896:X 0.00244783
5 *312:22 0.000628298
6 *312:18 0.00260988
7 *629:A2 *629:A1 0.000132487
8 *629:A2 *629:B2 0
9 *629:A2 *740:A 0.000251021
10 *629:A2 *753:A 0
11 *629:A2 *314:20 0.000136152
12 *629:A2 *369:193 4.38475e-05
13 *629:A2 *369:202 0.00031596
14 *312:18 *679:A 0.000485977
15 *312:18 *321:18 0.00209599
16 *312:18 *332:20 0.000153466
17 *312:18 *369:122 0.000320547
18 *312:18 *369:193 0
19 *312:22 *369:181 0
20 *630:A *629:A2 1.19805e-05
21 *681:A *312:18 0.000410609
22 *751:B1 *629:A2 0.000169909
23 *751:B1 *752:B 1.9321e-05
24 *751:B1 *312:22 0.000544708
25 *752:C *752:B 4.94434e-06
26 *753:B *629:A2 0
27 *905:A *312:18 0.000110188
28 *1:18 *312:18 0.00147166
29 *75:12 *629:A2 0.00113939
30 *141:14 *312:18 0.000251021
31 *159:12 *312:18 4.77432e-05
32 *164:14 *752:B 1.41294e-05
33 *169:14 *312:18 0.000390963
34 *174:14 *312:18 0.000162413
*RES
1 *896:X *312:18 36.985 
2 *312:18 *312:22 2.92208 
3 *312:22 *752:B 14.3411 
4 *312:22 *629:A2 22.4039 
5 *312:18 *751:A2 13.8 
*END

*D_NET *313 0.0236966
*CONN
*I *747:A2 I *D sky130_fd_sc_hd__a21oi_1
*I *748:B I *D sky130_fd_sc_hd__and3_1
*I *626:A2 I *D sky130_fd_sc_hd__a22oi_1
*I *897:X O *D sky130_fd_sc_hd__buf_1
*CAP
1 *747:A2 5.58267e-05
2 *748:B 0
3 *626:A2 0.000185748
4 *897:X 0.00166982
5 *313:24 0.000640554
6 *313:18 0.00258819
7 *313:12 0.00374738
8 *626:A2 *626:A1 0.000175714
9 *626:A2 *322:86 0.000635919
10 *747:A2 *322:76 8.28042e-05
11 *747:A2 *331:407 2.19237e-05
12 *313:12 *663:B 0.00161413
13 *313:12 *664:A 9.07097e-05
14 *313:12 *793:A 0.000169439
15 *313:12 *794:B 0.000459753
16 *313:12 *319:16 0.000164761
17 *313:12 *331:282 0.000465353
18 *313:18 *609:A2 0.000635919
19 *313:18 *610:B 0.000635919
20 *313:18 *322:62 1.28363e-06
21 *313:18 *322:64 8.6835e-05
22 *313:18 *331:341 0.000422149
23 *313:18 *331:345 0.000552028
24 *313:18 *331:349 6.34833e-05
25 *313:24 *331:349 0.000126967
26 *642:A *313:18 0.000209771
27 *643:C *313:18 0.000828368
28 *664:C *313:12 0.00044347
29 *748:C *626:A2 5.85715e-05
30 *748:C *313:24 4.94434e-06
31 *749:B *747:A2 0.000648983
32 *749:C *626:A2 7.90082e-05
33 *749:C *313:24 0.000403573
34 *768:B *313:18 8.62544e-05
35 *769:B *313:18 0.00044347
36 *777:B *313:18 0.00044347
37 *777:C *313:18 0.000251021
38 *794:A *313:12 2.19237e-05
39 *903:A *313:12 0
40 *13:19 *313:12 8.37187e-05
41 *74:14 *747:A2 0.000714616
42 *74:14 *313:18 8.28042e-05
43 *74:14 *313:24 1.9321e-05
44 *293:177 *313:12 0
45 *306:10 *313:12 0.000673833
46 *306:27 *313:12 0.00029179
47 *307:14 *313:18 0.00171405
48 *307:27 *313:18 0.000901017
*RES
1 *897:X *313:12 36.5179 
2 *313:12 *313:18 27.6515 
3 *313:18 *313:24 3.48124 
4 *313:24 *626:A2 12.7993 
5 *313:24 *748:B 9.3 
6 *313:18 *747:A2 21.4205 
*END

*D_NET *314 0.016101
*CONN
*I *740:B I *D sky130_fd_sc_hd__nand2_1
*I *898:X O *D sky130_fd_sc_hd__buf_1
*CAP
1 *740:B 0
2 *898:X 0.00312192
3 *314:20 0.00312192
4 *314:20 *600:B 0.000251021
5 *314:20 *602:A 0.000459753
6 *314:20 *668:A1 6.34833e-05
7 *314:20 *668:A2 0.000862408
8 *314:20 *669:B 0.000102734
9 *314:20 *740:A 0.000251021
10 *314:20 *318:24 6.67486e-05
11 *314:20 *325:8 0.00102082
12 *314:20 *329:18 7.74584e-05
13 *314:20 *331:732 0.000100591
14 *314:20 *331:743 6.77056e-05
15 *314:20 *331:764 0.00179061
16 *314:20 *333:34 1.42934e-05
17 *314:20 *333:47 8.37187e-05
18 *314:20 *362:10 7.30242e-06
19 *314:20 *369:158 0.000354281
20 *314:20 *369:162 5.13451e-05
21 *600:A *314:20 0.000130074
22 *629:A2 *314:20 0.000136152
23 *630:A *314:20 0
24 *668:B1 *314:20 0.000828368
25 *669:A *314:20 6.67486e-05
26 *670:C *314:20 0.000451989
27 *813:CLK *314:20 0.00044347
28 *813:D *314:20 0.000544708
29 *898:A *314:20 0.00044347
30 *908:A *314:20 0.000828368
31 *164:14 *314:20 0.000107539
32 *246:20 *314:20 0.000251021
*RES
1 *898:X *314:20 49.0359 
2 *314:20 *740:B 9.3 
*END

*D_NET *315 0.0065852
*CONN
*I *734:B I *D sky130_fd_sc_hd__nand2_1
*I *899:X O *D sky130_fd_sc_hd__buf_1
*CAP
1 *734:B 0.000718022
2 *899:X 0.000718022
3 *734:B *658:A 1.9321e-05
4 *734:B *734:A 0.000347517
5 *734:B *323:16 0
6 *734:B *326:10 0.0024137
7 *734:B *331:14 0.000396132
8 *734:B *331:202 0.000126967
9 *700:B *734:B 0.000828368
10 *709:A2 *734:B 0.00014057
11 *887:A *734:B 0.000828368
12 *891:A *734:B 0
13 *899:A *734:B 2.843e-05
14 *303:12 *734:B 1.97774e-05
*RES
1 *899:X *734:B 41.2724 
*END

*D_NET *316 0.00867752
*CONN
*I *728:B I *D sky130_fd_sc_hd__nand2_1
*I *900:X O *D sky130_fd_sc_hd__buf_1
*CAP
1 *728:B 0.000289551
2 *900:X 0.000289551
3 *728:B *594:B 8.28042e-05
4 *728:B *680:B2 0.000799571
5 *728:B *681:B 0.00130905
6 *728:B *682:A 0.00096948
7 *728:B *728:A 0.000828368
8 *728:B *326:10 0.000312414
9 *728:B *326:27 6.94252e-05
10 *728:B *364:10 0.000544458
11 *847:D *728:B 0.000374799
12 *141:14 *728:B 0.00275302
13 *289:10 *728:B 3.77755e-05
14 *289:12 *728:B 1.72542e-05
*RES
1 *900:X *728:B 43.3107 
*END

*D_NET *317 0.0125133
*CONN
*I *722:B I *D sky130_fd_sc_hd__nand2_1
*I *901:X O *D sky130_fd_sc_hd__buf_1
*CAP
1 *722:B 0
2 *901:X 0.00469388
3 *317:22 0.00469388
4 *317:22 *683:A2 1.41199e-05
5 *317:22 *722:A 2.78304e-05
6 *317:22 *328:16 0.000104036
7 *317:22 *331:107 7.47341e-05
8 *317:22 *363:12 2.51021e-05
9 *317:22 *369:112 0.000225895
10 *317:22 *369:185 0.000198154
11 *317:22 *369:187 0.000146288
12 *599:B *317:22 3.49812e-05
13 *684:A *317:22 9.85065e-05
14 *685:B *317:22 0.000209771
15 *753:B *317:22 0.000209771
16 *818:D *317:22 0.000462296
17 *840:D *317:22 0.000273254
18 *846:D *317:22 0.00102082
*RES
1 *901:X *317:22 43.6247 
2 *317:22 *722:B 9.3 
*END

*D_NET *318 0.00985419
*CONN
*I *716:B I *D sky130_fd_sc_hd__nand2_1
*I *902:X O *D sky130_fd_sc_hd__buf_1
*CAP
1 *716:B 0
2 *902:X 0.00191403
3 *318:24 0.00191403
4 *318:24 *597:A1 0.00044347
5 *318:24 *617:A1 5.46804e-05
6 *318:24 *680:A1 0
7 *318:24 *734:A 3.93646e-05
8 *318:24 *326:10 0
9 *318:24 *369:74 0.000635919
10 *318:24 *369:92 6.37723e-05
11 *680:B1 *318:24 1.99893e-05
12 *809:CLK *318:24 0.00133469
13 *815:CLK *318:24 0.00139425
14 *886:A *318:24 0.000187856
15 *898:A *318:24 0.000309088
16 *901:A *318:24 0.000251021
17 *902:A *318:24 0.000224211
18 *908:A *318:24 9.13237e-05
19 *35:23 *318:24 0
20 *150:10 *318:24 0.000155401
21 *164:14 *318:24 0.000251021
22 *179:16 *318:24 0.000205213
23 *302:10 *318:24 0.00029812
24 *314:20 *318:24 6.67486e-05
*RES
1 *902:X *318:24 42.1095 
2 *318:24 *716:B 9.3 
*END

*D_NET *319 0.0115367
*CONN
*I *613:A2 I *D sky130_fd_sc_hd__a21oi_1
*I *703:A2 I *D sky130_fd_sc_hd__a22oi_1
*I *614:B I *D sky130_fd_sc_hd__and3_1
*I *903:X O *D sky130_fd_sc_hd__buf_1
*CAP
1 *613:A2 0
2 *703:A2 0.000125515
3 *614:B 4.87958e-05
4 *903:X 0.00149754
5 *319:22 0.000210364
6 *319:16 0.00153359
7 *703:A2 *612:B 0.00044347
8 *703:A2 *703:A1 1.34892e-05
9 *703:A2 *322:276 0.000168666
10 *703:A2 *322:278 0.00113198
11 *319:16 *613:A1 0.000251021
12 *319:16 *664:A 6.34833e-05
13 *319:16 *322:255 0.00153959
14 *319:22 *613:A1 6.34833e-05
15 *319:22 *322:276 0.000104138
16 *612:A *703:A2 0.00044347
17 *613:B1 *614:B 7.74584e-05
18 *613:B1 *319:22 0.000190919
19 *614:C *614:B 3.49812e-05
20 *614:C *703:A2 0.000353915
21 *615:B *703:A2 0.000247367
22 *615:B *319:22 0.000247367
23 *646:C *319:16 0.000828368
24 *664:C *319:16 0.000146288
25 *703:B1 *703:A2 0.000303398
26 *305:32 *319:16 0.00044347
27 *305:38 *703:A2 0.0003448
28 *306:10 *319:16 0.000146288
29 *310:30 *319:16 0.000285933
30 *310:30 *319:22 8.28042e-05
31 *313:12 *319:16 0.000164761
*RES
1 *903:X *319:16 27.7704 
2 *319:16 *319:22 6.8539 
3 *319:22 *614:B 14.6207 
4 *319:22 *703:A2 21.2585 
5 *319:16 *613:A2 9.3 
*END

*D_NET *320 0.00591442
*CONN
*I *710:B I *D sky130_fd_sc_hd__nand2_1
*I *904:X O *D sky130_fd_sc_hd__buf_1
*CAP
1 *710:B 0.00209454
2 *904:X 0.00209454
3 *710:B *321:18 0.00069417
4 *710:B *369:386 3.49812e-05
5 *710:B *369:390 0.000251021
6 *591:B *710:B 0.000116502
7 *673:B *710:B 0
8 *816:D *710:B 0
9 *818:CLK *710:B 0.000628662
*RES
1 *904:X *710:B 43.8612 
*END

*D_NET *321 0.00994938
*CONN
*I *692:B I *D sky130_fd_sc_hd__and3_1
*I *693:A2 I *D sky130_fd_sc_hd__a21oi_1
*I *905:X O *D sky130_fd_sc_hd__buf_1
*CAP
1 *692:B 0.000227364
2 *693:A2 0
3 *905:X 0.00218182
4 *321:18 0.00240919
5 *692:B *692:A 0.00036975
6 *692:B *369:388 8.51948e-06
7 *692:B *369:390 3.93646e-05
8 *681:A *321:18 0.00118187
9 *694:C *692:B 0.00044347
10 *710:B *321:18 0.00069417
11 *818:CLK *321:18 7.72085e-05
12 *159:12 *321:18 0.000220667
13 *312:18 *321:18 0.00209599
*RES
1 *905:X *321:18 34.8085 
2 *321:18 *693:A2 9.3 
3 *321:18 *692:B 13.0879 
*END

*D_NET *322 0.105908
*CONN
*I *800:A I *D sky130_fd_sc_hd__and3_1
*I *606:A I *D sky130_fd_sc_hd__and3_1
*I *787:A1 I *D sky130_fd_sc_hd__a21oi_1
*I *788:A I *D sky130_fd_sc_hd__and3_1
*I *791:A1 I *D sky130_fd_sc_hd__a21oi_1
*I *659:A1 I *D sky130_fd_sc_hd__a22oi_1
*I *662:A1 I *D sky130_fd_sc_hd__a22oi_1
*I *792:A I *D sky130_fd_sc_hd__and3_1
*I *656:A1 I *D sky130_fd_sc_hd__a22oi_1
*I *696:A I *D sky130_fd_sc_hd__nand2_1
*I *665:A1 I *D sky130_fd_sc_hd__a22oi_1
*I *799:A1 I *D sky130_fd_sc_hd__a21oi_1
*I *795:A1 I *D sky130_fd_sc_hd__a21oi_1
*I *796:A I *D sky130_fd_sc_hd__and3_1
*I *772:A I *D sky130_fd_sc_hd__and3_1
*I *771:A1 I *D sky130_fd_sc_hd__a21oi_1
*I *614:A I *D sky130_fd_sc_hd__and3_1
*I *703:A1 I *D sky130_fd_sc_hd__a22oi_1
*I *647:A1 I *D sky130_fd_sc_hd__a22oi_1
*I *613:A1 I *D sky130_fd_sc_hd__a21oi_1
*I *644:A1 I *D sky130_fd_sc_hd__a22oi_1
*I *768:A I *D sky130_fd_sc_hd__and3_1
*I *605:A1 I *D sky130_fd_sc_hd__a21oi_1
*I *686:A1 I *D sky130_fd_sc_hd__a22oi_1
*I *767:A1 I *D sky130_fd_sc_hd__a21oi_1
*I *609:A1 I *D sky130_fd_sc_hd__a21oi_1
*I *610:A I *D sky130_fd_sc_hd__and3_1
*I *775:A1 I *D sky130_fd_sc_hd__a21oi_1
*I *776:A I *D sky130_fd_sc_hd__and3_1
*I *760:A I *D sky130_fd_sc_hd__and3_1
*I *635:A1 I *D sky130_fd_sc_hd__a22oi_1
*I *759:A1 I *D sky130_fd_sc_hd__a21oi_1
*I *747:A1 I *D sky130_fd_sc_hd__a21oi_1
*I *748:A I *D sky130_fd_sc_hd__and3_1
*I *756:A I *D sky130_fd_sc_hd__and3_1
*I *632:A1 I *D sky130_fd_sc_hd__a22oi_1
*I *626:A1 I *D sky130_fd_sc_hd__a22oi_1
*I *641:A1 I *D sky130_fd_sc_hd__a22oi_1
*I *755:A1 I *D sky130_fd_sc_hd__a21oi_1
*I *689:A1 I *D sky130_fd_sc_hd__a22oi_1
*I *920:X O *D sky130_fd_sc_hd__buf_4
*CAP
1 *800:A 4.19531e-05
2 *606:A 9.22479e-05
3 *787:A1 2.48679e-05
4 *788:A 0
5 *791:A1 7.73656e-05
6 *659:A1 8.13885e-06
7 *662:A1 0.000162386
8 *792:A 5.33961e-05
9 *656:A1 0
10 *696:A 0.000716326
11 *665:A1 0
12 *799:A1 0.00124539
13 *795:A1 0
14 *796:A 2.80564e-05
15 *772:A 0.000325857
16 *771:A1 0
17 *614:A 1.69687e-05
18 *703:A1 2.45105e-05
19 *647:A1 0.00145955
20 *613:A1 0.000231341
21 *644:A1 0
22 *768:A 0.00158948
23 *605:A1 9.22479e-05
24 *686:A1 0.000265985
25 *767:A1 0
26 *609:A1 0
27 *610:A 0
28 *775:A1 0
29 *776:A 0
30 *760:A 0
31 *635:A1 1.33454e-05
32 *759:A1 0
33 *747:A1 0
34 *748:A 0
35 *756:A 5.02669e-05
36 *632:A1 0.000195818
37 *626:A1 9.86165e-05
38 *641:A1 0
39 *755:A1 0.000770136
40 *689:A1 0
41 *920:X 0.000663315
42 *322:439 0.00051738
43 *322:422 0.000671377
44 *322:409 0.000193474
45 *322:403 0.000115308
46 *322:399 0.00020775
47 *322:351 0.00160825
48 *322:343 0.0011338
49 *322:341 3.26325e-05
50 *322:339 0.00109831
51 *322:330 0.00167566
52 *322:321 0.00207999
53 *322:278 0.00248178
54 *322:276 0.00144947
55 *322:255 0.00172433
56 *322:242 0.00120262
57 *322:229 0.00277974
58 *322:227 0.00167273
59 *322:221 0.00222088
60 *322:201 0.000344761
61 *322:197 0.001866
62 *322:190 0.00160256
63 *322:156 0.000579995
64 *322:141 0.00119648
65 *322:139 0.00079819
66 *322:135 0.00032073
67 *322:99 0.000514626
68 *322:86 0.000479174
69 *322:84 0.000777479
70 *322:76 0.00234093
71 *322:70 0.00182784
72 *322:68 0.000759427
73 *322:64 0.00207198
74 *322:62 0.00175573
75 *322:49 0.000436935
76 *322:10 0.00102859
77 *606:A *331:290 0.00140572
78 *632:A1 *754:B 0
79 *635:A1 *331:407 0.000635919
80 *647:A1 *703:B2 0.000251021
81 *647:A1 *331:455 0.00198306
82 *659:A1 *659:B2 2.0011e-05
83 *662:A1 *662:A2 6.90307e-05
84 *686:A1 *605:A2 0.000254613
85 *686:A1 *686:A2 0.000560613
86 *686:A1 *324:35 0.000544708
87 *686:A1 *331:298 0
88 *696:A *658:A 0.00044347
89 *696:A *326:10 0.00394263
90 *755:A1 *689:A2 3.49812e-05
91 *755:A1 *920:A 2.19237e-05
92 *768:A *331:298 0.000635919
93 *768:A *346:18 7.87291e-05
94 *791:A1 *791:A2 0.00076459
95 *791:A1 *336:29 3.49812e-05
96 *792:A *335:16 5.13451e-05
97 *799:A1 *324:16 0.000119686
98 *799:A1 *334:22 0.00142505
99 *799:A1 *348:18 0.000153144
100 *800:A *800:B 7.87291e-05
101 *322:10 *689:A2 6.90307e-05
102 *322:10 *920:A 0.00159816
103 *322:49 *641:B2 6.94252e-05
104 *322:49 *347:12 0
105 *322:64 *609:A2 3.93646e-05
106 *322:64 *641:B2 0.000251021
107 *322:64 *642:B 8.28042e-05
108 *322:64 *331:341 1.9321e-05
109 *322:68 *331:341 0.000276014
110 *322:68 *331:345 1.34892e-05
111 *322:76 *690:B 7.87291e-05
112 *322:84 *331:355 3.93646e-05
113 *322:84 *331:357 2.7384e-05
114 *322:99 *626:B2 0
115 *322:135 *610:B 8.37187e-05
116 *322:135 *323:31 0
117 *322:242 *346:10 0.000289345
118 *322:255 *646:A 0.000104138
119 *322:330 *796:B 9.24212e-05
120 *322:339 *796:B 3.93646e-05
121 *322:339 *335:16 0.000209771
122 *322:351 *665:A2 6.90307e-05
123 *322:351 *334:8 0.000273413
124 *322:351 *334:22 6.34833e-05
125 *322:351 *342:10 0.00017539
126 *322:399 *786:B 4.38475e-05
127 *322:399 *328:12 0
128 *322:399 *335:16 0
129 *322:409 *328:12 3.70826e-05
130 *322:409 *335:16 0.000459753
131 *322:422 *662:A2 3.47126e-05
132 *322:422 *792:B 0.000282456
133 *322:422 *331:261 9.15638e-05
134 *322:422 *335:16 0.000254863
135 *322:439 *659:B2 6.55125e-05
136 *322:439 *336:29 0.00020464
137 *606:C *606:A 0.00056898
138 *607:C *606:A 0.000149048
139 *609:B1 *322:68 0.000384898
140 *610:C *322:68 0.000184082
141 *611:C *322:135 0
142 *614:C *322:276 0.00028449
143 *615:B *322:276 0.000544708
144 *615:C *322:276 0.000251021
145 *625:A2 *632:A1 1.42934e-05
146 *626:A2 *626:A1 0.000175714
147 *626:A2 *322:86 0.000635919
148 *635:A2 *635:A1 0.000368164
149 *635:B1 *635:A1 8.28042e-05
150 *642:A *322:64 0.000126967
151 *643:C *322:64 0.000118094
152 *644:A2 *322:242 0
153 *644:A2 *322:255 0
154 *646:B *322:255 8.98444e-05
155 *646:C *322:255 0
156 *646:C *322:276 0.000206341
157 *657:A *322:343 0.000169909
158 *657:A *322:351 3.49812e-05
159 *658:B *696:A 0.00102082
160 *659:B1 *322:439 7.74584e-05
161 *662:B1 *322:439 0
162 *689:B1 *755:A1 3.49812e-05
163 *690:A *322:76 0.000209771
164 *691:B *755:A1 3.47126e-05
165 *700:A *696:A 2.19237e-05
166 *700:B *696:A 0.000465557
167 *703:A2 *703:A1 1.34892e-05
168 *703:A2 *322:276 0.000168666
169 *703:A2 *322:278 0.00113198
170 *703:B1 *647:A1 5.13451e-05
171 *703:B1 *322:278 4.79221e-05
172 *705:B *647:A1 2.7384e-05
173 *747:A2 *322:76 8.28042e-05
174 *747:B1 *322:84 0.000596614
175 *747:B1 *322:99 0
176 *749:B *322:76 1.97774e-05
177 *749:B *322:84 2.843e-05
178 *755:A2 *755:A1 0.000251021
179 *755:B1 *632:A1 0.000122515
180 *755:B1 *322:99 0.00020489
181 *756:C *756:A 5.85715e-05
182 *757:B *322:99 0.000208276
183 *757:C *322:84 8.28042e-05
184 *768:B *322:62 0.000232194
185 *768:B *322:190 9.6605e-06
186 *768:C *768:A 0.000376531
187 *769:B *768:A 8.28042e-05
188 *769:C *768:A 6.34833e-05
189 *770:A *768:A 8.28042e-05
190 *770:A *322:229 0.000209771
191 *770:A *322:242 0.000799571
192 *770:A *322:255 8.49544e-05
193 *771:A2 *322:227 0.000289844
194 *772:C *772:A 0.000572979
195 *772:C *322:229 0.00044347
196 *774:A *647:A1 0.00020489
197 *776:B *322:135 0
198 *776:B *322:139 0.00102082
199 *776:C *322:139 0.00056898
200 *777:B *322:135 0.000153144
201 *787:A2 *787:A1 0.00102082
202 *787:A2 *322:399 3.3013e-05
203 *787:B1 *787:A1 0.000384898
204 *788:B *787:A1 2.7384e-05
205 *788:B *322:403 1.19805e-05
206 *788:C *787:A1 0.000376531
207 *789:C *696:A 6.34833e-05
208 *791:B1 *322:422 0.00122434
209 *791:B1 *322:439 0
210 *793:C *791:A1 0.000312413
211 *793:C *322:439 5.20689e-05
212 *796:C *796:A 0
213 *796:C *322:330 0.00056898
214 *800:C *800:A 0.00056898
215 *801:B *800:A 0.000336737
216 *801:C *800:A 0.000262235
217 *808:CLK *696:A 0
218 *810:D *322:242 0
219 *812:D *755:A1 6.4847e-05
220 *812:D *322:10 0.000346447
221 *812:D *322:49 0.000251021
222 *821:D *322:422 0.000374799
223 *825:D *755:A1 0
224 *825:D *322:76 9.67224e-05
225 *825:D *322:135 5.67438e-05
226 *826:D *768:A 0.000170955
227 *826:D *322:229 3.87941e-05
228 *830:D *322:84 0.000153144
229 *830:D *322:99 0.000289844
230 *830:D *322:156 0.000374799
231 *852:CLK *686:A1 2.19237e-05
232 *859:CLK *322:276 0.000113187
233 *859:D *322:255 0.000544708
234 *860:CLK *755:A1 0.000208276
235 *886:A *696:A 0
236 *911:A *787:A1 0.000149048
237 *911:A *322:403 0.000156176
238 *911:A *322:409 0.00044347
239 *74:14 *755:A1 0.00020489
240 *77:10 *755:A1 0
241 *77:10 *322:99 0
242 *150:10 *696:A 0.00035078
243 *184:24 *322:10 0.00103964
244 *189:10 *322:141 5.13451e-05
245 *189:10 *322:156 8.52899e-05
246 *195:6 *756:A 6.34833e-05
247 *204:10 *322:49 0.000131542
248 *207:8 *322:229 3.93646e-05
249 *219:10 *322:399 6.94252e-05
250 *228:14 *799:A1 0.00044347
251 *228:14 *800:A 0.000384898
252 *249:10 *686:A1 0.000396132
253 *252:12 *322:76 9.67224e-05
254 *252:12 *322:135 9.02742e-06
255 *266:12 *322:339 2.843e-05
256 *266:20 *322:339 0.000251021
257 *266:20 *322:341 0.000424772
258 *266:20 *322:343 3.49812e-05
259 *266:20 *322:399 8.49544e-05
260 *269:21 *647:A1 3.49812e-05
261 *270:10 *322:255 0.000374799
262 *271:12 *322:49 0.000222569
263 *271:27 *322:49 0.000459753
264 *275:10 *632:A1 0
265 *293:23 *755:A1 0.000685895
266 *293:27 *755:A1 0.000241512
267 *293:177 *322:227 0
268 *298:16 *755:A1 4.82073e-05
269 *298:66 *755:A1 0
270 *301:29 *322:255 0
271 *301:33 *322:227 0.000459253
272 *301:81 *322:409 8.57605e-05
273 *301:81 *322:422 4.38475e-05
274 *302:10 *696:A 0
275 *302:10 *322:341 3.49812e-05
276 *302:10 *322:343 0.00020489
277 *302:10 *322:351 0.000714616
278 *302:23 *322:341 0.000424772
279 *302:23 *322:399 0.000714616
280 *305:32 *791:A1 8.28042e-05
281 *305:38 *647:A1 1.97774e-05
282 *305:38 *322:276 5.68599e-05
283 *305:53 *647:A1 0
284 *305:53 *322:135 3.49812e-05
285 *307:12 *799:A1 1.04972e-05
286 *307:14 *322:197 0.000717637
287 *307:14 *322:221 0.000400221
288 *307:14 *322:321 0.000717637
289 *307:27 *322:190 0.000175767
290 *307:27 *322:197 3.93646e-05
291 *310:30 *791:A1 8.28042e-05
292 *310:30 *322:255 0.000162413
293 *311:16 *322:99 1.09619e-05
294 *313:18 *322:62 1.28363e-06
295 *313:18 *322:64 8.6835e-05
296 *319:16 *613:A1 0.000251021
297 *319:16 *322:255 0.00153959
298 *319:22 *613:A1 6.34833e-05
299 *319:22 *322:276 0.000104138
*RES
1 *920:X *322:10 15.4463 
2 *322:10 *689:A1 9.3 
3 *322:10 *755:A1 37.631 
4 *920:X *322:49 25.7134 
5 *322:49 *641:A1 9.3 
6 *322:49 *322:62 0.94697 
7 *322:62 *322:64 5.4789 
8 *322:64 *322:68 3.4632 
9 *322:68 *322:70 4.5 
10 *322:70 *322:76 12.202 
11 *322:76 *322:84 12.9683 
12 *322:84 *322:86 1.37085 
13 *322:86 *626:A1 10.256 
14 *322:86 *322:99 9.65873 
15 *322:99 *632:A1 17.2632 
16 *322:99 *756:A 14.3411 
17 *322:84 *748:A 9.3 
18 *322:76 *747:A1 9.3 
19 *322:70 *322:135 7.69264 
20 *322:135 *322:139 3.4632 
21 *322:139 *322:141 5.51948 
22 *322:141 *759:A1 9.3 
23 *322:141 *322:156 12.5714 
24 *322:156 *635:A1 10.6709 
25 *322:156 *760:A 9.3 
26 *322:139 *776:A 9.3 
27 *322:135 *775:A1 9.3 
28 *322:68 *610:A 9.3 
29 *322:64 *609:A1 9.3 
30 *322:62 *322:190 1.8263 
31 *322:190 *767:A1 9.3 
32 *322:190 *322:197 5.10462 
33 *322:197 *322:201 5.54618 
34 *322:201 *686:A1 19.3916 
35 *322:201 *605:A1 13.8 
36 *322:197 *322:221 2.61544 
37 *322:221 *322:227 14.0325 
38 *322:227 *322:229 4.27489 
39 *322:229 *768:A 16.0821 
40 *322:229 *322:242 7.99928 
41 *322:242 *644:A1 13.8 
42 *322:242 *322:255 13.5909 
43 *322:255 *613:A1 10.256 
44 *322:255 *322:276 15.6919 
45 *322:276 *322:278 4.27489 
46 *322:278 *647:A1 24.9739 
47 *322:278 *703:A1 9.7329 
48 *322:276 *614:A 9.7329 
49 *322:227 *771:A1 9.3 
50 *322:227 *772:A 11.1038 
51 *322:221 *322:321 5.51948 
52 *322:321 *796:A 9.7329 
53 *322:321 *322:330 3.0303 
54 *322:330 *795:A1 9.3 
55 *322:330 *322:339 8.36003 
56 *322:339 *322:341 1.65945 
57 *322:341 *322:343 0.739538 
58 *322:343 *322:351 11.0657 
59 *322:351 *799:A1 24.8837 
60 *322:351 *665:A1 9.3 
61 *322:343 *696:A 40.8916 
62 *322:341 *656:A1 13.8 
63 *322:339 *322:399 8.12554 
64 *322:399 *322:403 1.38889 
65 *322:403 *322:409 7.11544 
66 *322:409 *792:A 14.3411 
67 *322:409 *322:422 9.53247 
68 *322:422 *662:A1 10.6709 
69 *322:422 *322:439 7.58442 
70 *322:439 *659:A1 13.9308 
71 *322:439 *791:A1 17.2271 
72 *322:403 *788:A 9.3 
73 *322:399 *787:A1 11.9154 
74 *605:A1 *606:A 22.0632 
75 *799:A1 *800:A 22.0632 
*END

*D_NET *323 0.0166091
*CONN
*I *609:A2 I *D sky130_fd_sc_hd__a21oi_1
*I *610:B I *D sky130_fd_sc_hd__and3_1
*I *689:A2 I *D sky130_fd_sc_hd__a22oi_1
*I *906:X O *D sky130_fd_sc_hd__buf_1
*CAP
1 *609:A2 4.23458e-05
2 *610:B 3.65928e-05
3 *689:A2 7.04109e-06
4 *906:X 0.00365856
5 *323:31 0.000256562
6 *323:16 0.00384322
7 *609:A2 *331:341 0.000384898
8 *610:B *331:341 0.000635919
9 *610:B *331:441 0
10 *323:16 *682:A 0.000188286
11 *323:16 *332:20 0.000263085
12 *323:16 *337:12 3.47556e-05
13 *323:31 *691:A 0.000381839
14 *323:31 *331:337 0.000173563
15 *323:31 *331:441 3.47126e-05
16 *611:C *610:B 1.42934e-05
17 *689:B1 *689:A2 1.73563e-05
18 *689:B1 *323:31 0.000295057
19 *691:C *323:31 0
20 *697:A *323:16 0.000288609
21 *709:A2 *323:16 0.000743258
22 *709:B1 *323:16 0.00207389
23 *734:B *323:16 0
24 *755:A1 *689:A2 3.49812e-05
25 *812:D *689:A2 6.90307e-05
26 *860:CLK *689:A2 7.74584e-05
27 *860:CLK *323:31 0.000587185
28 *891:A *323:16 0.000112505
29 *902:A *323:16 0.000313024
30 *906:A *323:16 0.000146288
31 *252:12 *323:31 0.000257282
32 *261:10 *323:16 5.51318e-05
33 *286:10 *323:31 0
34 *289:10 *323:16 0.000118431
35 *293:124 *323:16 0
36 *311:16 *323:16 0
37 *313:18 *609:A2 0.000635919
38 *313:18 *610:B 0.000635919
39 *322:10 *689:A2 6.90307e-05
40 *322:64 *609:A2 3.93646e-05
41 *322:135 *610:B 8.37187e-05
42 *322:135 *323:31 0
*RES
1 *906:X *323:16 41.9775 
2 *323:16 *689:A2 14.2284 
3 *323:16 *323:31 11.8323 
4 *323:31 *610:B 20.4104 
5 *323:31 *609:A2 11.1038 
*END

*D_NET *324 0.019748
*CONN
*I *605:A2 I *D sky130_fd_sc_hd__a21oi_1
*I *606:B I *D sky130_fd_sc_hd__and3_1
*I *686:A2 I *D sky130_fd_sc_hd__a22oi_1
*I *907:X O *D sky130_fd_sc_hd__buf_1
*CAP
1 *605:A2 3.54268e-05
2 *606:B 0.000632988
3 *686:A2 0.000102795
4 *907:X 0.00295787
5 *324:35 0.000693105
6 *324:24 0.00229003
7 *324:16 0.00512041
8 *606:B *331:290 0.00019045
9 *324:16 *331:10 0.000381731
10 *324:16 *331:14 0.000118582
11 *324:16 *331:216 0.000294036
12 *324:16 *334:8 0.00198306
13 *324:16 *334:22 0.000416561
14 *324:16 *339:20 6.9221e-05
15 *324:16 *341:12 0.000118431
16 *324:16 *348:18 8.75015e-05
17 p *324:16 0.000902528
18 *607:B *606:B 0.000635919
19 *665:B1 *324:24 0.000463704
20 *686:A1 *605:A2 0.000254613
21 *686:A1 *686:A2 0.000560613
22 *686:A1 *324:35 0.000544708
23 *799:A1 *324:16 0.000119686
24 *808:D *324:16 0.000295733
25 *852:CLK *605:A2 8.36166e-05
26 *852:CLK *324:35 0.000222569
27 *917:A *324:16 3.77672e-05
28 *228:14 *324:24 5.68599e-05
29 *293:177 *605:A2 0
30 *311:16 *324:16 7.74584e-05
*RES
1 *907:X *324:16 46.2307 
2 *324:16 *324:24 15.4488 
3 *324:24 *686:A2 10.9234 
4 *324:24 *324:35 6.46609 
5 *324:35 *606:B 16.4154 
6 *324:35 *605:A2 14.8462 
*END

*D_NET *325 0.00944801
*CONN
*I *683:A2 I *D sky130_fd_sc_hd__a22oi_1
*I *601:A2 I *D sky130_fd_sc_hd__a21oi_1
*I *602:B I *D sky130_fd_sc_hd__and3_1
*I *908:X O *D sky130_fd_sc_hd__buf_1
*CAP
1 *683:A2 0.00014441
2 *601:A2 0
3 *602:B 0.000223515
4 *908:X 0.000528646
5 *325:16 0.000885699
6 *325:8 0.00133524
7 *602:B *601:A1 8.28042e-05
8 *602:B *331:732 0.000289844
9 *602:B *331:743 3.49812e-05
10 *683:A2 *369:112 6.90307e-05
11 *600:A *683:A2 0.000208276
12 *600:A *325:16 0.000374549
13 *602:C *602:B 0.000761429
14 *603:B *602:B 0.000251021
15 *603:C *602:B 8.55644e-05
16 *893:A *325:16 0.000913563
17 *908:A *325:16 0
18 *174:20 *602:B 0.00159816
19 *174:20 *325:16 2.7384e-05
20 *246:20 *325:16 0.00050223
21 *293:154 *325:16 8.76949e-05
22 *309:18 *602:B 9.02742e-06
23 *314:20 *325:8 0.00102082
24 *317:22 *683:A2 1.41199e-05
*RES
1 *908:X *325:8 16.0006 
2 *325:8 *325:16 10.1097 
3 *325:16 *602:B 23.3325 
4 *325:16 *601:A2 9.3 
5 *325:8 *683:A2 16.456 
*END

*D_NET *326 0.0215462
*CONN
*I *597:A2 I *D sky130_fd_sc_hd__a21oi_1
*I *598:B I *D sky130_fd_sc_hd__and3_1
*I *680:A2 I *D sky130_fd_sc_hd__a22oi_1
*I *909:X O *D sky130_fd_sc_hd__buf_1
*CAP
1 *597:A2 6.80348e-05
2 *598:B 0.000337177
3 *680:A2 4.47183e-05
4 *909:X 0.00126514
5 *326:27 0.00149006
6 *326:10 0.00239471
7 *597:A2 *617:A1 0.000466999
8 *597:A2 *329:18 0.000884275
9 *597:A2 *369:59 0.000119686
10 *597:A2 *369:92 0.000297091
11 *326:10 *659:B2 0
12 *326:10 *662:A2 0
13 *326:10 *680:A1 3.47126e-05
14 *326:10 *682:A 3.28211e-05
15 *326:10 *699:B 0.000109619
16 *326:10 *791:A2 0
17 *326:10 *331:10 0.000372703
18 *326:10 *331:14 4.3783e-05
19 *326:10 *331:216 0.000495218
20 *326:10 *337:12 0.0002282
21 *326:27 *680:A1 0.000222569
22 *326:27 *680:B2 0.000374799
23 *659:B1 *326:10 0
24 *661:B *326:10 0.000289844
25 *682:B *680:A2 6.90307e-05
26 *696:A *326:10 0.00394263
27 *709:A2 *326:10 0
28 *728:B *326:10 0.000312414
29 *728:B *326:27 6.94252e-05
30 *734:B *326:10 0.0024137
31 *789:B *326:10 0.00113939
32 *822:CLK *326:10 0
33 *822:D *326:10 0.000312414
34 *847:D *326:10 0.000374799
35 *854:D *326:10 0.000104138
36 *35:23 *680:A2 1.9321e-05
37 *35:23 *326:10 0.000459753
38 *174:14 *326:27 0.000236187
39 *174:20 *326:27 0.000126967
40 *222:18 *326:10 0.000544708
41 *302:10 *326:10 0
42 *305:32 *326:10 0.000828368
43 *308:6 *598:B 0.000635919
44 *308:6 *326:27 0.000384898
45 *318:24 *326:10 0
*RES
1 *909:X *326:10 49.1355 
2 *326:10 *680:A2 14.4899 
3 *326:10 *326:27 10.741 
4 *326:27 *598:B 10.6709 
5 *326:27 *597:A2 21.4926 
*END

*D_NET *327 0.0120516
*CONN
*I *593:A2 I *D sky130_fd_sc_hd__a21oi_1
*I *594:B I *D sky130_fd_sc_hd__and3_1
*I *677:A2 I *D sky130_fd_sc_hd__a22oi_1
*I *910:X O *D sky130_fd_sc_hd__buf_1
*CAP
1 *593:A2 0
2 *594:B 0.000127175
3 *677:A2 0
4 *910:X 0.00202427
5 *327:40 0.00027267
6 *327:34 0.00216976
7 *594:B *728:A 2.7384e-05
8 *594:B *369:43 0.000433011
9 *327:34 *680:A1 0.000289844
10 *327:34 *328:12 3.92935e-05
11 *327:34 *328:16 0.000214482
12 *327:34 *331:101 0
13 *327:34 *364:10 0.000187754
14 *327:40 *681:B 0.000534881
15 *327:40 *364:10 3.47126e-05
16 *327:40 *369:43 6.90307e-05
17 *593:B1 *327:40 0.000315895
18 *599:B *327:34 3.49812e-05
19 *599:C *327:34 0.000386767
20 *677:B1 *327:40 3.49812e-05
21 *679:B *594:B 0.00031563
22 *679:B *327:40 1.41199e-05
23 *706:A2 *327:34 0.00102082
24 *708:B *327:34 0.000251021
25 *728:B *594:B 8.28042e-05
26 *815:D *327:34 0.000654745
27 *892:A *327:34 0.00044347
28 *174:14 *327:34 0.000288973
29 *174:20 *327:34 0.00133684
30 *240:10 *327:40 4.3783e-05
31 *243:20 *327:34 3.15476e-05
32 *308:6 *327:34 0.000251021
33 *308:25 *327:34 0.000119936
*RES
1 *910:X *327:34 38.4746 
2 *327:34 *327:40 9.68128 
3 *327:40 *677:A2 9.3 
4 *327:40 *594:B 12.3619 
5 *327:34 *593:A2 13.8 
*END

*D_NET *328 0.0227861
*CONN
*I *590:B I *D sky130_fd_sc_hd__and3_1
*I *674:A2 I *D sky130_fd_sc_hd__a22oi_1
*I *589:A2 I *D sky130_fd_sc_hd__a21oi_1
*I *911:X O *D sky130_fd_sc_hd__buf_1
*CAP
1 *590:B 0
2 *674:A2 0.00272971
3 *589:A2 0.000113212
4 *911:X 0.000789198
5 *328:31 0.00286121
6 *328:16 0.000677373
7 *328:12 0.00122186
8 *589:A2 *590:A 0.0002297
9 *674:A2 *369:128 3.09212e-05
10 *328:12 *617:A1 0
11 *328:12 *734:A 0.00036142
12 *328:12 *786:B 0.000509726
13 *328:12 *329:18 1.09619e-05
14 *328:12 *331:65 0.00139425
15 *328:12 *331:69 0.000671639
16 *328:12 *335:16 0.000544708
17 *328:12 *342:10 0.00258336
18 *328:12 *342:19 0.000169909
19 *328:12 *348:18 0.000714456
20 *328:16 *329:18 0.00122384
21 *328:16 *331:107 0
22 *328:16 *363:12 0.000118431
23 *328:16 *369:10 0.000122515
24 *328:16 *369:14 0.000153466
25 *328:16 *369:59 8.96294e-05
26 *589:B1 *589:A2 0.000251021
27 *591:B *589:A2 8.37187e-05
28 *591:C *589:A2 1.28963e-05
29 *591:C *328:16 1.42934e-05
30 *598:C *328:16 0.000374549
31 *599:B *328:16 0.000272177
32 *616:A *328:12 3.77755e-05
33 *617:B1 *328:12 0.000131349
34 *618:B *328:12 0.000629662
35 *619:B *328:12 0.000153144
36 *809:D *328:12 0
37 *814:D *328:16 0
38 *816:CLK *589:A2 0
39 *840:CLK *328:16 0
40 *848:CLK *589:A2 0.000762885
41 *848:CLK *674:A2 0.000209771
42 *848:CLK *328:31 6.34833e-05
43 *876:A *674:A2 0.000149756
44 *243:20 *328:16 7.74584e-05
45 *293:154 *674:A2 7.10274e-05
46 *296:12 *674:A2 0.000635919
47 *296:82 *674:A2 0.000251021
48 *302:10 *328:12 0
49 *308:25 *328:12 0.000842048
50 *308:25 *328:16 4.57819e-05
51 *317:22 *328:16 0.000104036
52 *322:399 *328:12 0
53 *322:409 *328:12 3.70826e-05
54 *327:34 *328:12 3.92935e-05
55 *327:34 *328:16 0.000214482
*RES
1 *911:X *328:12 40.1077 
2 *328:12 *328:16 11.2464 
3 *328:16 *589:A2 17.0468 
4 *328:16 *328:31 5.04113 
5 *328:31 *674:A2 20.7764 
6 *328:31 *590:B 9.3 
*END

*D_NET *329 0.0122166
*CONN
*I *807:A2 I *D sky130_fd_sc_hd__a21oi_1
*I *671:A2 I *D sky130_fd_sc_hd__a22oi_1
*I *586:B I *D sky130_fd_sc_hd__and3_1
*I *912:X O *D sky130_fd_sc_hd__buf_1
*CAP
1 *807:A2 0
2 *671:A2 0.00046604
3 *586:B 3.9554e-05
4 *912:X 0.000979362
5 *329:22 0.000631945
6 *329:18 0.00110571
7 *586:B *586:A 0.000459753
8 *586:B *674:B2 3.47126e-05
9 *586:B *333:34 0.000714616
10 *586:B *366:14 0.000104138
11 *329:18 *587:A 0.000465557
12 *329:18 *617:A1 0.000104138
13 *329:18 *331:743 5.19668e-05
14 *329:18 *333:34 0.00029784
15 *329:18 *369:59 5.20689e-05
16 *329:18 *369:100 0.000141907
17 *329:22 *587:A 0.000153208
18 *329:22 *674:B2 1.42934e-05
19 *329:22 *333:34 0.000244122
20 *587:B *329:22 0.000374549
21 *587:C *671:A2 0.00044347
22 *587:C *329:22 2.19237e-05
23 *597:A2 *329:18 0.000884275
24 *671:B1 *671:A2 0.000254243
25 *676:B *329:22 0
26 *817:D *586:B 3.47126e-05
27 *901:A *329:18 8.37794e-05
28 *908:A *329:18 0.000887013
29 *1:18 *329:18 0.000652771
30 *33:27 *329:18 6.22333e-05
31 *35:23 *329:18 1.3692e-05
32 *243:20 *329:18 0.000220848
33 *246:20 *329:18 0.000273942
34 *292:25 *671:A2 0.000635919
35 *314:20 *329:18 7.74584e-05
36 *328:12 *329:18 1.09619e-05
37 *328:16 *329:18 0.00122384
*RES
1 *912:X *329:18 32.7558 
2 *329:18 *329:22 3.73377 
3 *329:22 *586:B 16.686 
4 *329:22 *671:A2 18.8325 
5 *329:18 *807:A2 13.8 
*END

*D_NET *330 0.00495384
*CONN
*I *695:B_N I *D sky130_fd_sc_hd__nor2b_1
*I *913:X O *D sky130_fd_sc_hd__buf_1
*CAP
1 *695:B_N 0.000509677
2 *913:X 0.000509677
3 *695:B_N *677:B2 0.000372639
4 *695:B_N *678:B 7.47986e-05
5 *695:B_N *331:107 0.00159816
6 *695:B_N *365:21 4.38475e-05
7 *695:B_N *369:10 0.000459503
8 *695:B_N *369:14 0.00096898
9 *591:C *695:B_N 0.000416551
10 *593:B1 *695:B_N 0
11 *240:10 *695:B_N 0
*RES
1 *913:X *695:B_N 39.7573 
*END

*D_NET *331 0.177737
*CONN
*I *685:A I *D sky130_fd_sc_hd__nor3_1
*I *676:A I *D sky130_fd_sc_hd__nor3_1
*I *591:A I *D sky130_fd_sc_hd__nor3_1
*I *673:A I *D sky130_fd_sc_hd__nor3_1
*I *702:A I *D sky130_fd_sc_hd__nor2b_1
*I *620:C1 I *D sky130_fd_sc_hd__a211oi_1
*I *587:A I *D sky130_fd_sc_hd__nor3_1
*I *603:A I *D sky130_fd_sc_hd__nor3_1
*I *670:A I *D sky130_fd_sc_hd__nor3_1
*I *805:A I *D sky130_fd_sc_hd__nor3_1
*I *694:A I *D sky130_fd_sc_hd__nor3_1
*I *765:A I *D sky130_fd_sc_hd__nor3_1
*I *739:A I *D sky130_fd_sc_hd__nor2_1
*I *640:A I *D sky130_fd_sc_hd__nor3_1
*I *621:C1 I *D sky130_fd_sc_hd__a211oi_1
*I *624:C1 I *D sky130_fd_sc_hd__a211oi_1
*I *623:C1 I *D sky130_fd_sc_hd__a211oi_1
*I *733:A I *D sky130_fd_sc_hd__nor2_1
*I *721:A I *D sky130_fd_sc_hd__nor2_1
*I *727:A I *D sky130_fd_sc_hd__nor2_1
*I *622:C1 I *D sky130_fd_sc_hd__a211oi_1
*I *631:A I *D sky130_fd_sc_hd__nor3_1
*I *715:A I *D sky130_fd_sc_hd__nor2_1
*I *753:A I *D sky130_fd_sc_hd__nor3_2
*I *652:A I *D sky130_fd_sc_hd__nor3_1
*I *661:A I *D sky130_fd_sc_hd__nor3_1
*I *797:A I *D sky130_fd_sc_hd__nor3_1
*I *667:A I *D sky130_fd_sc_hd__nor3_1
*I *607:A I *D sky130_fd_sc_hd__nor3_1
*I *643:A I *D sky130_fd_sc_hd__nor3_1
*I *611:A I *D sky130_fd_sc_hd__nor3_1
*I *705:A I *D sky130_fd_sc_hd__nor3_1
*I *649:A I *D sky130_fd_sc_hd__nor3_1
*I *761:A I *D sky130_fd_sc_hd__nor3_1
*I *777:A I *D sky130_fd_sc_hd__nor3_1
*I *749:A I *D sky130_fd_sc_hd__nor3_1
*I *628:A I *D sky130_fd_sc_hd__nor3_1
*I *637:A I *D sky130_fd_sc_hd__nor3_1
*I *625:C1 I *D sky130_fd_sc_hd__a211oi_1
*I *757:A I *D sky130_fd_sc_hd__nor3_1
*I *745:A I *D sky130_fd_sc_hd__nor2_1
*I *634:A I *D sky130_fd_sc_hd__nor3_1
*I *691:A I *D sky130_fd_sc_hd__nor3_1
*I *769:A I *D sky130_fd_sc_hd__nor3_1
*I *615:A I *D sky130_fd_sc_hd__nor3_1
*I *773:A I *D sky130_fd_sc_hd__nor3_1
*I *793:A I *D sky130_fd_sc_hd__nor3_1
*I *664:A I *D sky130_fd_sc_hd__nor3_1
*I *646:A I *D sky130_fd_sc_hd__nor3_1
*I *789:A I *D sky130_fd_sc_hd__nor3_1
*I *658:A I *D sky130_fd_sc_hd__nor3_1
*I *701:A I *D sky130_fd_sc_hd__nor2_1
*I *709:C1 I *D sky130_fd_sc_hd__a211oi_1
*I *785:A I *D sky130_fd_sc_hd__nor3_1
*I *682:A I *D sky130_fd_sc_hd__nor3_1
*I *619:A I *D sky130_fd_sc_hd__nor3_1
*I *599:A I *D sky130_fd_sc_hd__nor3_1
*I *595:A I *D sky130_fd_sc_hd__nor3_1
*I *679:A I *D sky130_fd_sc_hd__nor3_1
*I *695:A I *D sky130_fd_sc_hd__nor2b_1
*I *708:A I *D sky130_fd_sc_hd__nor3_1
*I *781:A I *D sky130_fd_sc_hd__nor3_1
*I *801:A I *D sky130_fd_sc_hd__nor3_1
*I *688:A I *D sky130_fd_sc_hd__nor3_1
*I *655:A I *D sky130_fd_sc_hd__nor3_1
*I *914:X O *D sky130_fd_sc_hd__clkbuf_8
*CAP
1 *685:A 5.54314e-06
2 *676:A 1.27188e-05
3 *591:A 0.000608536
4 *673:A 0
5 *702:A 0.000234237
6 *620:C1 0.00056694
7 *587:A 0.000350071
8 *603:A 4.18358e-05
9 *670:A 0
10 *805:A 4.9421e-06
11 *694:A 0
12 *765:A 0
13 *739:A 0.000913885
14 *640:A 4.78107e-05
15 *621:C1 0
16 *624:C1 0
17 *623:C1 0
18 *733:A 0.000208199
19 *721:A 2.46965e-05
20 *727:A 0.000336954
21 *622:C1 0.000287709
22 *631:A 9.75745e-05
23 *715:A 0
24 *753:A 0.000836591
25 *652:A 5.55433e-06
26 *661:A 2.82401e-05
27 *797:A 3.8865e-05
28 *667:A 2.646e-05
29 *607:A 0
30 *643:A 3.0066e-05
31 *611:A 0
32 *705:A 0
33 *649:A 0
34 *761:A 0.00037155
35 *777:A 0
36 *749:A 0
37 *628:A 0
38 *637:A 0.000389751
39 *625:C1 0.000102551
40 *757:A 0
41 *745:A 0
42 *634:A 0.000322174
43 *691:A 0.000254712
44 *769:A 0
45 *615:A 0.000192785
46 *773:A 4.93413e-05
47 *793:A 4.83142e-05
48 *664:A 1.47404e-05
49 *646:A 0.000729929
50 *789:A 0
51 *658:A 0.000101427
52 *701:A 0.000603232
53 *709:C1 7.67124e-06
54 *785:A 0
55 *682:A 0.00054508
56 *619:A 4.99051e-05
57 *599:A 5.18678e-05
58 *595:A 0
59 *679:A 0.000159829
60 *695:A 0
61 *708:A 0.000288672
62 *781:A 1.87705e-05
63 *801:A 9.63918e-05
64 *688:A 0.000271846
65 *655:A 0
66 *914:X 6.58211e-05
67 *331:782 0.00149704
68 *331:780 0.00331504
69 *331:774 0.00347857
70 *331:766 0.000486714
71 *331:764 0.00119994
72 *331:743 0.00147915
73 *331:732 0.000385432
74 *331:695 0.00193402
75 *331:678 0.00127928
76 *331:646 0.000447132
77 *331:644 0.000642091
78 *331:634 0.000438659
79 *331:601 0.00102043
80 *331:595 0.000701029
81 *331:589 0.0023734
82 *331:585 0.00239413
83 *331:574 0.000302776
84 *331:565 0.000401776
85 *331:561 0.000769838
86 *331:559 0.000902465
87 *331:538 0.00136839
88 *331:536 0.000180333
89 *331:525 0.000192308
90 *331:523 0.000293047
91 *331:455 0.000607325
92 *331:449 0.000753978
93 *331:441 0.000640239
94 *331:407 0.00255195
95 *331:363 0.000966219
96 *331:357 0.000700973
97 *331:355 0.000251531
98 *331:349 0.00242045
99 *331:345 0.000549579
100 *331:341 0.000457239
101 *331:337 0.000231284
102 *331:324 0.000969796
103 *331:320 0.00198757
104 *331:298 0.000789519
105 *331:290 0.00239311
106 *331:282 0.000917564
107 *331:269 0.000938472
108 *331:261 0.000747681
109 *331:241 0.000157914
110 *331:222 0.000907429
111 *331:220 0.000930374
112 *331:216 0.000875487
113 *331:202 0.00012737
114 *331:145 0.000717211
115 *331:116 0.000356015
116 *331:107 0.000515798
117 *331:101 0.000613824
118 *331:79 0.00100082
119 *331:71 0.00101387
120 *331:69 0.000240063
121 *331:65 0.000123882
122 *331:41 0.000438454
123 *331:32 0.000829188
124 *331:26 0.000963239
125 *331:22 0.0016376
126 *331:14 0.00218638
127 *331:10 0.000215186
128 *331:8 0.000354736
129 *587:A *369:128 0
130 *587:A *369:154 0
131 *615:A *346:18 0
132 *620:C1 *711:B 0
133 *637:A *635:B2 0
134 *637:A *636:B 0.000242988
135 *637:A *350:28 0.000222569
136 *676:A *588:B 0.000209771
137 *676:A *333:28 0.000635919
138 *679:A *332:20 0.00198868
139 *679:A *333:28 0.000635919
140 *685:A *363:14 0.000251021
141 *691:A *642:B 0
142 *691:A *347:12 0
143 *753:A *669:B 0.000130074
144 *753:A *369:181 3.46105e-05
145 *773:A *794:B 8.28042e-05
146 *797:A *792:B 1.9321e-05
147 *805:A *671:B2 6.34833e-05
148 *331:22 *342:10 0.000250188
149 *331:65 *348:18 0.000290597
150 *331:69 *618:A 0.000153144
151 *331:69 *348:18 2.19237e-05
152 *331:69 *348:26 1.28963e-05
153 *331:101 *348:18 0
154 *331:101 *348:26 0.00109235
155 *331:107 *598:A 6.63623e-05
156 *331:107 *363:12 0.000463704
157 *331:216 *341:12 0
158 *331:261 *662:A2 0.000544708
159 *331:261 *662:B2 0.000326707
160 *331:261 *792:B 0.000146508
161 *331:261 *335:16 4.9006e-05
162 *331:269 *794:B 6.34833e-05
163 *331:282 *339:16 0
164 *331:282 *339:20 0
165 *331:320 *766:B 3.93646e-05
166 *331:320 *347:16 3.93646e-05
167 *331:449 *703:B2 0.000459753
168 *331:536 *338:10 0.000509726
169 *331:536 *338:14 3.49812e-05
170 *331:538 *668:A1 8.98444e-05
171 *331:538 *669:B 2.19237e-05
172 *331:538 *338:14 0.000714616
173 *331:559 *668:A1 0.000374799
174 *331:559 *367:8 0
175 *331:559 *369:181 0
176 *331:559 *369:386 0
177 *331:561 *671:B2 0.000146288
178 *331:585 *369:193 0
179 *331:589 *719:B 0.00019045
180 *331:595 *719:B 0.000828368
181 *331:601 *356:14 0.000209771
182 *331:634 *718:B 3.16497e-05
183 *331:634 *358:19 9.86568e-05
184 *331:644 *718:B 2.19237e-05
185 *331:678 *639:B 0
186 *331:678 *349:27 0
187 *331:678 *352:10 0.00147921
188 *331:695 *762:B 0
189 *331:743 *602:A 0.000187856
190 *331:743 *369:154 0
191 *331:764 *600:B 0.000594431
192 *331:766 *600:B 0.000119936
193 *331:766 *369:128 0.00055193
194 *331:766 *369:154 1.73563e-05
195 *331:774 *588:B 4.38475e-05
196 *331:774 *333:28 0
197 *331:780 *588:B 2.843e-05
198 *331:780 *366:14 0.000122372
199 *587:C *587:A 0.000146288
200 *588:A *331:774 0
201 *591:B *591:A 0.000146288
202 *591:C *591:A 3.93646e-05
203 *595:B *331:116 0.00044347
204 *599:B *331:107 6.77057e-05
205 *602:B *331:732 0.000289844
206 *602:B *331:743 3.49812e-05
207 *606:A *331:290 0.00140572
208 *606:B *331:290 0.00019045
209 *607:B *331:290 0.00115469
210 *607:B *331:320 0.00044347
211 *607:C *331:290 3.93646e-05
212 *607:C *331:320 0.000323436
213 *609:A2 *331:341 0.000384898
214 *609:B1 *331:341 0.00044347
215 *610:B *331:341 0.000635919
216 *610:B *331:441 0
217 *610:C *331:341 0.000184082
218 *611:B *331:441 0.000153144
219 *611:C *331:441 1.28963e-05
220 *611:C *331:449 4.9006e-05
221 *616:A *331:69 0.000162163
222 *616:A *331:101 0.000492577
223 *617:B1 *619:A 7.72085e-05
224 *623:A2 *733:A 0.000251021
225 *624:A1 *331:646 6.67486e-05
226 *624:A2 *331:646 0.000251021
227 *624:B1 *331:644 0.000251021
228 *624:B1 *331:646 0.000251021
229 *627:A *331:407 0.00025954
230 *628:B *637:A 0.000119936
231 *628:C *637:A 0.000209771
232 *628:C *331:407 6.67486e-05
233 *629:A2 *753:A 0
234 *631:C *331:585 0.000206341
235 *631:C *331:678 0.000275981
236 *635:A1 *331:407 0.000635919
237 *635:A2 *331:407 0.000107646
238 *635:B1 *331:407 3.93646e-05
239 *637:B *637:A 0.00184745
240 *637:B *331:407 1.04972e-05
241 *637:C *637:A 8.28042e-05
242 *639:A *640:A 0.000251021
243 *643:B *331:320 0.00019045
244 *643:B *331:324 0.000146288
245 *643:C *691:A 5.28749e-05
246 *643:C *331:337 0.000118646
247 *643:C *331:441 3.09512e-05
248 *647:A1 *331:455 0.00198306
249 *647:A2 *331:455 0.000205295
250 *649:B *761:A 4.41623e-05
251 *649:B *331:455 0.000251021
252 *649:C *761:A 0.00044347
253 *651:A *652:A 0.000251021
254 *651:A *331:525 0.000828368
255 *655:C *688:A 0.000146288
256 *659:B1 *331:220 0.000320547
257 *661:B *661:A 3.47126e-05
258 *661:C *661:A 0.000417026
259 *661:C *331:216 0.000756844
260 *663:A *331:241 0
261 *663:A *331:261 0
262 *666:A *667:A 0.000273254
263 *667:C *667:A 0.000377987
264 *667:C *331:290 8.51948e-06
265 *672:A *331:780 0.00102934
266 *673:C *331:780 7.87291e-05
267 *673:C *331:782 0.000209771
268 *676:B *331:766 0
269 *680:B1 *682:A 0
270 *684:A *685:A 0.000251021
271 *686:A1 *331:298 0
272 *694:B *331:561 0.000384898
273 *694:B *331:565 0.00044347
274 *694:C *331:561 0.000251021
275 *694:C *331:565 0.000635919
276 *695:B_N *331:107 0.00159816
277 *696:A *658:A 0.00044347
278 *697:A *682:A 3.16497e-05
279 *701:B *701:A 5.28538e-05
280 *701:B *331:22 0.000118094
281 *702:B_N *702:A 0.000635919
282 *704:A *331:449 0
283 *705:B *331:455 0.000146288
284 *706:A2 *331:101 8.37187e-05
285 *708:C *708:A 0.000146288
286 *709:A1 *709:C1 6.34833e-05
287 *709:A1 *331:26 0.00044347
288 *709:A2 *709:C1 0.000251021
289 *709:A2 *331:26 0.000198969
290 *715:B *631:A 5.13451e-05
291 *715:B *331:565 4.62487e-05
292 *719:A *331:634 0.000173563
293 *719:A *331:644 0.000119936
294 *720:A *331:644 6.94252e-05
295 *721:B *721:A 1.34892e-05
296 *721:B *331:595 3.93646e-05
297 *721:B *331:601 0.000146288
298 *726:A *622:C1 0
299 *726:B *622:C1 0.000629412
300 *726:B *727:A 0.000209771
301 *727:B *727:A 0.000168808
302 *728:B *682:A 0.00096948
303 *732:A *733:A 0.000153466
304 *734:B *658:A 1.9321e-05
305 *734:B *331:14 0.000396132
306 *734:B *331:202 0.000126967
307 *739:B *739:A 0.000286048
308 *744:A *634:A 3.49812e-05
309 *745:B *634:A 0.000251021
310 *745:B *331:363 0.000769797
311 *747:A2 *331:407 2.19237e-05
312 *747:B1 *331:355 0.000146288
313 *747:B1 *331:357 1.9321e-05
314 *749:B *331:355 0.000508302
315 *749:B *331:407 4.9006e-05
316 *749:C *331:349 0.000251021
317 *753:B *753:A 3.49812e-05
318 *755:A2 *625:C1 3.49812e-05
319 *757:B *331:363 0.000251021
320 *757:C *625:C1 0.000459503
321 *757:C *331:357 0.000251021
322 *757:C *331:363 0.000635919
323 *760:C *331:407 9.20409e-05
324 *762:A *331:695 0
325 *763:B1 *331:695 0
326 *765:B *739:A 9.07096e-05
327 *765:B *331:695 3.02746e-05
328 *768:A *331:298 0.000635919
329 *768:B *615:A 0
330 *768:C *331:298 0
331 *769:B *615:A 0.000119686
332 *769:B *331:298 0
333 *770:A *615:A 0
334 *777:C *331:345 0.000251021
335 *781:C *331:79 6.94252e-05
336 *781:C *331:525 0.000251021
337 *789:C *658:A 0.000251021
338 *792:C *331:269 0
339 *793:B *793:A 0.000422932
340 *793:C *793:A 6.34833e-05
341 *794:A *331:261 0
342 *794:A *331:269 0.00044347
343 *797:C *331:269 3.93646e-05
344 *805:B *805:A 0.000251021
345 *805:B *331:561 0.000251021
346 *805:C *331:559 0
347 *805:C *331:561 6.34833e-05
348 *809:D *619:A 1.19805e-05
349 *811:D *331:449 0.000152838
350 *813:D *331:732 0.000222569
351 *814:D *331:107 0.000499964
352 *817:D *331:780 0.000126967
353 *818:D *331:559 0.000153144
354 *821:D *331:261 0.000121392
355 *823:D *331:65 0.000629662
356 *824:D *331:79 0.000417276
357 *825:CLK *331:695 0.000861381
358 *826:D *331:298 9.39425e-05
359 *827:D *615:A 4.38475e-05
360 *828:D *739:A 2.843e-05
361 *836:D *331:601 0
362 *837:D *622:C1 0
363 *837:D *331:601 0
364 *840:D *331:107 0.00324387
365 *840:D *331:116 0.000154807
366 *846:D *587:A 0.000291994
367 *849:CLK *331:780 5.97886e-05
368 *849:D *331:774 0.000222569
369 *849:D *331:780 0.000132487
370 *851:D *753:A 0.000209771
371 *851:D *331:538 0
372 *852:CLK *688:A 6.55125e-05
373 *852:CLK *801:A 0.00014057
374 *852:CLK *331:290 0.000251021
375 *852:D *667:A 0.000107646
376 *852:D *331:290 0.00219434
377 *854:D *661:A 0.000212386
378 *854:D *331:216 0.000332072
379 *860:CLK *691:A 0.000119936
380 *860:D *691:A 0.000222569
381 *860:D *331:324 1.3692e-05
382 *861:D *331:678 0.00050027
383 *863:CLK *634:A 0
384 *863:D *634:A 0.000187856
385 *864:CLK *331:589 5.13451e-05
386 *864:D *331:589 0.000153584
387 *865:D *637:A 0.000251021
388 *866:D *625:C1 5.85715e-05
389 *868:D *733:A 0.00102082
390 *868:D *331:646 0.000192449
391 *870:D *331:644 0.000187856
392 *872:CLK *620:C1 0.000273254
393 *872:D *620:C1 0.00123209
394 *872:D *702:A 0.000544708
395 *883:A *708:A 0.000251021
396 *888:A *682:A 0.00113683
397 *888:A *331:71 0.000220848
398 *888:A *331:79 0.000637201
399 *888:A *331:145 0.00047066
400 *891:A *701:A 0.000126967
401 *891:A *331:14 0.000239925
402 *891:A *331:22 1.9321e-05
403 *892:A *682:A 1.04972e-05
404 *899:A *331:202 8.28042e-05
405 *901:A *331:107 0.000101075
406 *914:A *331:8 0.000635919
407 *916:A *679:A 0.000635919
408 *1:18 *331:559 3.59082e-05
409 *16:21 *331:101 0.000188093
410 *74:14 *331:407 0
411 *77:10 *625:C1 0.001394
412 *77:10 *331:355 0.000257282
413 *77:10 *331:407 0.000520383
414 *141:14 *682:A 1.9321e-05
415 *174:14 *679:A 0.000799321
416 *174:20 *753:A 7.30242e-06
417 *174:24 *733:A 3.09512e-05
418 *179:16 *331:79 0.000241948
419 *184:24 *625:C1 0.000251021
420 *204:10 *331:298 0
421 *204:10 *331:320 5.13451e-05
422 *213:10 *331:525 5.68599e-05
423 *225:12 *331:269 0.000251021
424 *225:12 *331:282 0
425 *249:10 *331:298 0
426 *262:12 *331:538 0.000544708
427 *263:12 *667:A 8.28042e-05
428 *268:14 *331:525 0.00115469
429 *271:12 *331:320 0.000126967
430 *271:27 *331:320 0.000251021
431 *272:21 *331:101 8.37187e-05
432 *273:8 *331:678 0
433 *276:12 *331:585 1.42934e-05
434 *276:12 *331:678 0.00013885
435 *276:18 *331:678 0
436 *279:16 *331:695 0
437 *282:10 *331:644 0
438 *285:16 *702:A 0
439 *285:16 *331:782 3.70826e-05
440 *289:10 *682:A 0.000289844
441 *291:10 *591:A 0.000207662
442 *291:10 *331:774 0
443 *293:52 *331:644 0
444 *293:86 *331:407 0
445 *293:130 *331:32 0.000146288
446 *293:139 *331:32 8.28042e-05
447 *293:154 *331:764 0.00025718
448 *293:154 *331:766 0.000534676
449 *293:177 *801:A 0
450 *293:177 *331:282 0
451 *295:27 *331:644 0
452 *295:33 *331:644 0
453 *295:80 *331:644 0.000192449
454 *295:80 *331:646 0.00179061
455 *295:90 *733:A 0
456 *297:14 *331:101 0.000714616
457 *297:31 *331:732 0.000118646
458 *297:48 *331:79 0.000239925
459 *299:57 *637:A 0.000251021
460 *299:61 *637:A 0
461 *300:12 *331:32 0.00179061
462 *300:63 *688:A 3.70826e-05
463 *300:101 *331:26 7.87291e-05
464 *300:101 *331:32 5.13451e-05
465 *302:10 *619:A 9.65295e-05
466 *302:10 *331:22 0.00096948
467 *305:32 *664:A 0.000251021
468 *305:32 *793:A 0.00128166
469 *305:32 *331:241 0.000332322
470 *305:32 *331:261 0
471 *305:38 *331:455 6.67486e-05
472 *305:53 *331:449 0
473 *307:12 *331:22 0.000104972
474 *307:12 *331:282 0.000714616
475 *308:25 *331:101 8.76949e-05
476 *309:18 *652:A 0.000251021
477 *309:18 *708:A 6.67486e-05
478 *309:18 *331:523 0.000192449
479 *309:18 *331:525 0.00307919
480 *309:18 *331:732 0
481 *310:30 *646:A 0.00246442
482 *310:30 *331:220 0.000304119
483 *310:30 *331:222 0.000304119
484 *310:30 *331:241 0
485 *310:42 *331:407 3.14917e-05
486 *310:44 *331:407 8.03455e-05
487 *311:18 *625:C1 0.000367545
488 *312:18 *679:A 0.000485977
489 *313:12 *664:A 9.07097e-05
490 *313:12 *793:A 0.000169439
491 *313:12 *331:282 0.000465353
492 *313:18 *331:341 0.000422149
493 *313:18 *331:345 0.000552028
494 *313:18 *331:349 6.34833e-05
495 *313:24 *331:349 0.000126967
496 *314:20 *331:732 0.000100591
497 *314:20 *331:743 6.77056e-05
498 *314:20 *331:764 0.00179061
499 *317:22 *331:107 7.47341e-05
500 *319:16 *664:A 6.34833e-05
501 *322:64 *331:341 1.9321e-05
502 *322:68 *331:341 0.000276014
503 *322:68 *331:345 1.34892e-05
504 *322:84 *331:355 3.93646e-05
505 *322:84 *331:357 2.7384e-05
506 *322:255 *646:A 0.000104138
507 *322:422 *331:261 9.15638e-05
508 *323:16 *682:A 0.000188286
509 *323:31 *691:A 0.000381839
510 *323:31 *331:337 0.000173563
511 *323:31 *331:441 3.47126e-05
512 *324:16 *331:10 0.000381731
513 *324:16 *331:14 0.000118582
514 *324:16 *331:216 0.000294036
515 *326:10 *682:A 3.28211e-05
516 *326:10 *331:10 0.000372703
517 *326:10 *331:14 4.3783e-05
518 *326:10 *331:216 0.000495218
519 *327:34 *331:101 0
520 *328:12 *331:65 0.00139425
521 *328:12 *331:69 0.000671639
522 *328:16 *331:107 0
523 *329:18 *587:A 0.000465557
524 *329:18 *331:743 5.19668e-05
525 *329:22 *587:A 0.000153208
*RES
1 *914:X *331:8 15.1709 
2 *331:8 *331:10 5.33911 
3 *331:10 *331:14 8.61255 
4 *331:14 *331:22 18.0188 
5 *331:22 *331:26 2.63348 
6 *331:26 *331:32 10.5339 
7 *331:32 *655:A 9.3 
8 *331:32 *331:41 0.974026 
9 *331:41 *688:A 12.3483 
10 *331:41 *801:A 20.2661 
11 *331:26 *331:65 9.53247 
12 *331:65 *331:69 5.83605 
13 *331:69 *331:71 0.193064 
14 *331:71 *331:79 11.824 
15 *331:79 *781:A 9.3 
16 *331:79 *708:A 13.16 
17 *331:71 *331:101 12.2574 
18 *331:101 *331:107 17.2345 
19 *331:107 *695:A 9.3 
20 *331:107 *331:116 3.04834 
21 *331:116 *679:A 27.2646 
22 *331:116 *595:A 9.3 
23 *331:101 *599:A 14.3411 
24 *331:69 *331:145 0.411447 
25 *331:145 *619:A 18.0307 
26 *331:145 *682:A 23.1371 
27 *331:65 *785:A 13.8 
28 *331:22 *709:C1 9.84113 
29 *331:14 *701:A 12.2401 
30 *331:10 *331:202 5.45599 
31 *331:202 *658:A 11.0857 
32 *331:202 *789:A 9.3 
33 *331:8 *331:216 8.25217 
34 *331:216 *331:220 4.91337 
35 *331:220 *331:222 0.265858 
36 *331:222 *646:A 20.7291 
37 *331:222 *331:241 9.41613 
38 *331:241 *664:A 10.256 
39 *331:241 *793:A 12.7452 
40 *331:220 *331:261 13.7091 
41 *331:261 *331:269 5.88023 
42 *331:269 *773:A 9.84113 
43 *331:269 *331:282 16.1789 
44 *331:282 *331:290 11.9048 
45 *331:290 *331:298 17.5498 
46 *331:298 *615:A 21.186 
47 *331:298 *769:A 9.3 
48 *331:290 *331:320 7.52165 
49 *331:320 *331:324 7.11544 
50 *331:324 *691:A 18.9768 
51 *331:324 *331:337 1.65945 
52 *331:337 *331:341 8.36003 
53 *331:341 *331:345 4.70779 
54 *331:345 *331:349 6.28571 
55 *331:349 *331:355 8.14358 
56 *331:355 *331:357 0.955989 
57 *331:357 *331:363 8.56782 
58 *331:363 *634:A 23.567 
59 *331:363 *745:A 9.3 
60 *331:357 *757:A 9.3 
61 *331:355 *625:C1 23.8736 
62 *331:349 *331:407 17.2525 
63 *331:407 *637:A 28.9602 
64 *331:407 *628:A 9.3 
65 *331:345 *749:A 9.3 
66 *331:341 *777:A 9.3 
67 *331:337 *331:441 2.57937 
68 *331:441 *331:449 12.7612 
69 *331:449 *331:455 6.49351 
70 *331:455 *761:A 13.1781 
71 *331:455 *649:A 9.3 
72 *331:449 *705:A 9.3 
73 *331:441 *611:A 13.8 
74 *331:320 *643:A 9.7329 
75 *331:290 *607:A 9.3 
76 *331:282 *667:A 11.5006 
77 *331:261 *797:A 9.84113 
78 *331:216 *661:A 15.3061 
79 *781:A *331:523 9.84113 
80 *331:523 *331:525 6.76407 
81 *331:525 *652:A 9.84113 
82 *331:525 *331:536 6.46609 
83 *331:536 *331:538 3.49928 
84 *331:538 *753:A 27.4898 
85 *331:538 *331:559 11.9134 
86 *331:559 *331:561 5.93434 
87 *331:561 *331:565 4.70779 
88 *331:565 *715:A 9.3 
89 *331:565 *331:574 0.974026 
90 *331:574 *631:A 10.256 
91 *331:574 *331:585 7.386 
92 *331:585 *331:589 12.5087 
93 *331:589 *331:595 3.48124 
94 *331:595 *331:601 10.2179 
95 *331:601 *622:C1 18.0569 
96 *331:601 *727:A 17.6781 
97 *331:595 *721:A 9.7329 
98 *331:589 *331:634 6.15945 
99 *331:634 *331:644 11.1558 
100 *331:644 *331:646 5.51948 
101 *331:646 *733:A 23.0799 
102 *331:646 *623:C1 9.3 
103 *331:644 *624:C1 9.3 
104 *331:634 *621:C1 13.8 
105 *331:585 *331:678 8.71212 
106 *331:678 *640:A 14.3411 
107 *331:678 *331:695 12.2742 
108 *331:695 *739:A 18.1564 
109 *331:695 *765:A 9.3 
110 *331:561 *694:A 9.3 
111 *331:559 *805:A 9.84113 
112 *331:536 *670:A 13.8 
113 *331:523 *331:732 9.22583 
114 *331:732 *603:A 14.3411 
115 *331:732 *331:743 3.19264 
116 *331:743 *587:A 21.4479 
117 *331:743 *331:764 15.1328 
118 *331:764 *331:766 6.56566 
119 *331:766 *331:774 8.66667 
120 *331:774 *331:780 11.3636 
121 *331:780 *331:782 6.76407 
122 *331:782 *620:C1 15.6672 
123 *331:782 *702:A 22.8635 
124 *331:780 *673:A 9.3 
125 *331:774 *591:A 15.6492 
126 *331:766 *676:A 15.1709 
127 *331:764 *685:A 14.3411 
*END

*D_NET *332 0.00807049
*CONN
*I *696:B I *D sky130_fd_sc_hd__nand2_1
*I *915:X O *D sky130_fd_sc_hd__buf_1
*CAP
1 *696:B 0
2 *915:X 0.00146555
3 *332:20 0.00146555
4 *332:20 *698:B 0.00056835
5 *679:A *332:20 0.00198868
6 *697:A *332:20 0.000755855
7 *900:A *332:20 0.000555647
8 *905:A *332:20 8.28042e-05
9 *906:A *332:20 0
10 *150:10 *332:20 0.000251021
11 *174:14 *332:20 0.000520485
12 *289:10 *332:20 0
13 *289:12 *332:20 0
14 *312:18 *332:20 0.000153466
15 *323:16 *332:20 0.000263085
*RES
1 *915:X *332:20 46.5287 
2 *332:20 *696:B 9.3 
*END

*D_NET *333 0.023631
*CONN
*I *668:A2 I *D sky130_fd_sc_hd__a22oi_1
*I *803:A2 I *D sky130_fd_sc_hd__a21oi_1
*I *804:B I *D sky130_fd_sc_hd__and3_1
*I *916:X O *D sky130_fd_sc_hd__buf_1
*CAP
1 *668:A2 0.000300713
2 *803:A2 0
3 *804:B 0.000265041
4 *916:X 0.00544258
5 *333:47 0.000308015
6 *333:34 0.00046683
7 *333:28 0.00563707
8 *668:A2 *362:10 0.000189958
9 *804:B *369:162 3.93646e-05
10 *804:B *369:171 0.000336737
11 *333:28 *586:A 9.07096e-05
12 *333:28 *588:B 0.000210333
13 *333:28 *675:B 5.13451e-05
14 *333:28 *365:8 3.46865e-05
15 *333:28 *366:14 0
16 *333:34 *807:A1 0.00105443
17 *333:34 *367:8 5.51318e-05
18 *333:47 *807:A1 0.000169909
19 *586:B *333:34 0.000714616
20 *586:C *333:34 0.000174965
21 *587:B *333:34 0.000374549
22 *589:B1 *333:28 0.00044347
23 *592:A *333:28 0.000146288
24 *674:B1 *333:28 0.000115234
25 *676:A *333:28 0.000635919
26 *676:B *333:28 0.000286002
27 *676:C *333:28 6.34833e-05
28 *679:A *333:28 0.000635919
29 *807:B1 *333:34 0.000713617
30 *817:D *333:34 0.000629662
31 *1:18 *668:A2 0
32 *231:10 *668:A2 0
33 *237:8 *333:28 0.00198306
34 *240:10 *333:28 2.64522e-05
35 *291:18 *333:28 0.000532548
36 *314:20 *668:A2 0.000862408
37 *314:20 *333:34 1.42934e-05
38 *314:20 *333:47 8.37187e-05
39 *329:18 *333:34 0.00029784
40 *329:22 *333:34 0.000244122
41 *331:774 *333:28 0
*RES
1 *916:X *333:28 48.3772 
2 *333:28 *333:34 10.6061 
3 *333:34 *804:B 16.8483 
4 *333:34 *333:47 0.739538 
5 *333:47 *803:A2 13.8 
6 *333:47 *668:A2 21.5381 
*END

*D_NET *334 0.00812642
*CONN
*I *665:A2 I *D sky130_fd_sc_hd__a22oi_1
*I *799:A2 I *D sky130_fd_sc_hd__a21oi_1
*I *800:B I *D sky130_fd_sc_hd__and3_1
*I *917:X O *D sky130_fd_sc_hd__buf_1
*CAP
1 *665:A2 2.86913e-05
2 *799:A2 0
3 *800:B 0.000691645
4 *917:X 9.13306e-05
5 *334:22 0.000946123
6 *334:8 0.0003745
7 *334:22 *665:B2 0.00020464
8 *334:22 *339:20 3.49812e-05
9 *665:B1 *334:22 0.000251021
10 *799:A1 *334:22 0.00142505
11 *800:A *800:B 7.87291e-05
12 *801:B *800:B 0.000635919
13 *917:A *334:8 6.55125e-05
14 *228:14 *800:B 1.97774e-05
15 *228:14 *334:22 0.000251021
16 *307:12 *334:22 0.000221925
17 *322:351 *665:A2 6.90307e-05
18 *322:351 *334:8 0.000273413
19 *322:351 *334:22 6.34833e-05
20 *324:16 *334:8 0.00198306
21 *324:16 *334:22 0.000416561
*RES
1 *917:X *334:8 14.0078 
2 *334:8 *334:22 17.0628 
3 *334:22 *800:B 12.9616 
4 *334:22 *799:A2 9.3 
5 *334:8 *665:A2 9.88171 
*END

*D_NET *335 0.00997254
*CONN
*I *662:A2 I *D sky130_fd_sc_hd__a22oi_1
*I *796:B I *D sky130_fd_sc_hd__and3_1
*I *795:A2 I *D sky130_fd_sc_hd__a21oi_1
*I *918:X O *D sky130_fd_sc_hd__buf_1
*CAP
1 *662:A2 0.000728667
2 *796:B 0.000143668
3 *795:A2 0
4 *918:X 0
5 *335:16 0.000527086
6 *335:4 0.00111209
7 *662:A2 *659:B2 6.94252e-05
8 *662:A2 *792:B 0.000101245
9 *662:A2 *336:29 0.000459753
10 *335:16 *792:B 0.00044347
11 *335:16 *348:18 0.000257282
12 *662:A1 *662:A2 6.90307e-05
13 *792:A *335:16 5.13451e-05
14 *793:C *335:16 0.000251021
15 *796:C *796:B 0.000196209
16 *797:B *796:B 0.000126967
17 *797:B *335:16 0.000197314
18 *797:C *796:B 0.00044347
19 *821:D *662:A2 0.000710774
20 *854:CLK *662:A2 0.000755855
21 *219:10 *335:16 0
22 *222:18 *662:A2 0
23 *222:18 *335:16 0.00102082
24 *266:12 *796:B 0
25 *266:20 *796:B 0
26 *301:14 *662:A2 1.19805e-05
27 *301:81 *662:A2 6.57712e-05
28 *322:330 *796:B 9.24212e-05
29 *322:339 *796:B 3.93646e-05
30 *322:339 *335:16 0.000209771
31 *322:399 *335:16 0
32 *322:409 *335:16 0.000459753
33 *322:422 *662:A2 3.47126e-05
34 *322:422 *335:16 0.000254863
35 *326:10 *662:A2 0
36 *328:12 *335:16 0.000544708
37 *331:261 *662:A2 0.000544708
38 *331:261 *335:16 4.9006e-05
*RES
1 *918:X *335:4 9.3 
2 *335:4 *335:16 19.4798 
3 *335:16 *795:A2 9.3 
4 *335:16 *796:B 13.0879 
5 *335:4 *662:A2 35.9986 
*END

*D_NET *336 0.00637756
*CONN
*I *659:A2 I *D sky130_fd_sc_hd__a22oi_1
*I *791:A2 I *D sky130_fd_sc_hd__a21oi_1
*I *792:B I *D sky130_fd_sc_hd__and3_1
*I *919:X O *D sky130_fd_sc_hd__buf_1
*CAP
1 *659:A2 6.64794e-05
2 *791:A2 0.000136987
3 *792:B 0.00106347
4 *919:X 0.000103201
5 *336:29 0.000267657
6 *336:6 0.00123086
7 *659:A2 *659:B2 5.7963e-05
8 *791:A2 *659:B2 4.38475e-05
9 *661:B *791:A2 0
10 *662:A2 *792:B 0.000101245
11 *662:A2 *336:29 0.000459753
12 *791:A1 *791:A2 0.00076459
13 *791:A1 *336:29 3.49812e-05
14 *793:C *336:29 7.86675e-05
15 *797:A *792:B 1.9321e-05
16 *854:CLK *791:A2 1.42934e-05
17 *854:CLK *792:B 2.843e-05
18 *854:CLK *336:29 0.000173563
19 *919:A *792:B 0.000251021
20 *919:A *336:6 0.000251021
21 *301:81 *336:29 0.000153144
22 *322:422 *792:B 0.000282456
23 *322:439 *336:29 0.00020464
24 *326:10 *791:A2 0
25 *331:261 *792:B 0.000146508
26 *335:16 *792:B 0.00044347
*RES
1 *919:X *336:6 9.84113 
2 *336:6 *792:B 23.9999 
3 *336:6 *336:29 7.69264 
4 *336:29 *791:A2 17.2271 
5 *336:29 *659:A2 14.7199 
*END

*D_NET *2 0.0050015
*CONN
*P p O
*I *808:Q O *D sky130_fd_sc_hd__dfxtp_1
*CAP
1 p 0.00105473
2 *808:Q 0.00105473
3 p *894:A 0.000384546
4 p *909:A 0
5 p *911:A 0.000320455
6 p *914:A 0.000914288
7 p *918:A 0.000132495
8 p *13:11 0.000160274
9 p *311:16 7.74584e-05
10 p *324:16 0.000902528
*RES
1 *808:Q p 28.6525 
*END

*D_NET *3 0.00746996
*CONN
*P rst I
*I *914:A I *D sky130_fd_sc_hd__clkbuf_8
*CAP
1 rst 0.000605865
2 *914:A 0.000605865
3 *914:A *789:B 3.70826e-05
4 *914:A *911:A 0.0042445
5 *914:A *918:A 0.000426449
6 *914:A *331:8 0.000635919
7 p *914:A 0.000914288
*RES
1 rst *914:A 32.4803 
*END

*D_NET *337 0.00345011
*CONN
*I *699:B I *D sky130_fd_sc_hd__xnor2_1
*I *698:B I *D sky130_fd_sc_hd__nor2_1
*I *697:B I *D sky130_fd_sc_hd__nand2_1
*I *809:Q O *D sky130_fd_sc_hd__dfxtp_1
*CAP
1 *699:B 2.33222e-05
2 *698:B 0.000193965
3 *697:B 0
4 *809:Q 0.000364804
5 *337:12 0.000254794
6 *337:8 0.000448955
7 *697:A *337:12 1.42934e-05
8 *709:A2 *699:B 0.000459753
9 *709:A2 *337:12 0.000714616
10 *886:A *337:8 3.46865e-05
11 *323:16 *337:12 3.47556e-05
12 *326:10 *699:B 0.000109619
13 *326:10 *337:12 0.0002282
14 *332:20 *698:B 0.00056835
*RES
1 *809:Q *337:8 15.1709 
2 *337:8 *337:12 7.69264 
3 *337:12 *697:B 9.3 
4 *337:12 *698:B 12.6369 
5 *337:8 *699:B 15.4595 
*END

*D_NET *338 0.00807743
*CONN
*I *668:B2 I *D sky130_fd_sc_hd__a22oi_1
*I *802:B I *D sky130_fd_sc_hd__xor2_1
*I *669:B I *D sky130_fd_sc_hd__nor2_1
*I *819:Q O *D sky130_fd_sc_hd__dfxtp_1
*CAP
1 *668:B2 0
2 *802:B 2.45833e-05
3 *669:B 0.000222421
4 *819:Q 0.000944283
5 *338:14 0.000278507
6 *338:10 0.000975786
7 *669:B *778:B 0
8 *669:B *369:181 0
9 *338:10 *650:B2 0.00121327
10 *338:10 *668:A1 3.49812e-05
11 *338:10 *778:B 0
12 *338:14 *668:A1 0.000714616
13 *652:B *338:10 0.000465557
14 *669:A *669:B 0.000113187
15 *670:C *669:B 5.85715e-05
16 *753:A *669:B 0.000130074
17 *802:A *669:B 0.000192449
18 *802:A *802:B 0.000251021
19 *851:D *669:B 0.000459753
20 *857:D *338:10 0
21 *1:18 *338:10 3.1193e-05
22 *174:20 *669:B 0.000126967
23 *262:12 *669:B 0.000456233
24 *314:20 *669:B 0.000102734
25 *331:536 *338:10 0.000509726
26 *331:536 *338:14 3.49812e-05
27 *331:538 *669:B 2.19237e-05
28 *331:538 *338:14 0.000714616
*RES
1 *819:Q *338:10 22.9811 
2 *338:10 *338:14 7.07937 
3 *338:14 *669:B 24.4147 
4 *338:14 *802:B 9.84113 
5 *338:10 *668:B2 13.8 
*END

*D_NET *339 0.00510906
*CONN
*I *666:B I *D sky130_fd_sc_hd__nor2_1
*I *798:B I *D sky130_fd_sc_hd__xor2_1
*I *665:B2 I *D sky130_fd_sc_hd__a22oi_1
*I *820:Q O *D sky130_fd_sc_hd__dfxtp_1
*CAP
1 *666:B 0
2 *798:B 1.41402e-05
3 *665:B2 3.22068e-05
4 *820:Q 0.000578871
5 *339:20 0.000260192
6 *339:16 0.000792716
7 *339:16 *348:18 0.00070721
8 *339:20 *348:18 0
9 *665:B1 *798:B 0.000828368
10 *667:B *798:B 6.34833e-05
11 *667:B *339:20 0.000153144
12 *797:B *339:16 0.000289844
13 *797:C *339:16 0.000374799
14 *225:12 *339:16 6.93231e-05
15 *228:14 *798:B 0.000635919
16 *263:12 *665:B2 0
17 *263:12 *339:20 0
18 *307:12 *665:B2 0
19 *324:16 *339:20 6.9221e-05
20 *331:282 *339:16 0
21 *331:282 *339:20 0
22 *334:22 *665:B2 0.00020464
23 *334:22 *339:20 3.49812e-05
*RES
1 *820:Q *339:16 20.4919 
2 *339:16 *339:20 3.12049 
3 *339:20 *665:B2 14.5395 
4 *339:20 *798:B 15.5857 
5 *339:16 *666:B 13.8 
*END

*D_NET *340 0.00952296
*CONN
*I *662:B2 I *D sky130_fd_sc_hd__a22oi_1
*I *663:B I *D sky130_fd_sc_hd__nor2_1
*I *794:B I *D sky130_fd_sc_hd__xor2_1
*I *821:Q O *D sky130_fd_sc_hd__dfxtp_1
*CAP
1 *662:B2 0.00105884
2 *663:B 8.53866e-05
3 *794:B 0.000109027
4 *821:Q 0.000335376
5 *340:8 0.000194414
6 *340:6 0.00139422
7 *662:B1 *662:B2 0.000251021
8 *663:A *662:B2 0
9 *663:A *663:B 0.000381737
10 *664:B *662:B2 8.6526e-06
11 *773:A *794:B 8.28042e-05
12 *794:A *662:B2 0
13 *794:A *663:B 0.000291994
14 *794:A *794:B 0.000438877
15 *301:14 *662:B2 0.00179061
16 *301:14 *340:6 0.000635919
17 *313:12 *663:B 0.00161413
18 *313:12 *794:B 0.000459753
19 *331:261 *662:B2 0.000326707
20 *331:269 *794:B 6.34833e-05
*RES
1 *821:Q *340:6 10.6709 
2 *340:6 *340:8 4.5 
3 *340:8 *794:B 16.8303 
4 *340:8 *663:B 19.7524 
5 *340:6 *662:B2 25.5872 
*END

*D_NET *341 0.00755911
*CONN
*I *660:B I *D sky130_fd_sc_hd__nor2_1
*I *790:B I *D sky130_fd_sc_hd__xor2_1
*I *659:B2 I *D sky130_fd_sc_hd__a22oi_1
*I *822:Q O *D sky130_fd_sc_hd__dfxtp_1
*CAP
1 *660:B 2.45105e-05
2 *790:B 0
3 *659:B2 0.000262242
4 *822:Q 0.000121253
5 *341:14 0.000294863
6 *341:12 0.000178384
7 *659:A1 *659:B2 2.0011e-05
8 *659:A2 *659:B2 5.7963e-05
9 *659:B1 *659:B2 0.000239925
10 *660:A *660:B 1.34892e-05
11 *661:B *659:B2 0.00121327
12 *662:A2 *659:B2 6.94252e-05
13 *791:A2 *659:B2 4.38475e-05
14 *854:CLK *659:B2 0.000544708
15 *907:A *341:12 0.000828368
16 *919:A *659:B2 0.000251021
17 *919:A *341:12 0.00134714
18 *919:A *341:14 0.00115469
19 *265:10 *341:12 4.41623e-05
20 *265:16 *660:B 0
21 *265:16 *341:12 0.000146288
22 *265:16 *341:14 0.000519597
23 *322:439 *659:B2 6.55125e-05
24 *324:16 *341:12 0.000118431
25 *326:10 *659:B2 0
26 *331:216 *341:12 0
*RES
1 *822:Q *341:12 22.9898 
2 *341:12 *341:14 2.61544 
3 *341:14 *659:B2 25.9299 
4 *341:14 *790:B 9.3 
5 *341:12 *660:B 9.7329 
*END

*D_NET *342 0.00638127
*CONN
*I *786:B I *D sky130_fd_sc_hd__xor2_1
*I *657:B I *D sky130_fd_sc_hd__nor2_1
*I *656:B2 I *D sky130_fd_sc_hd__a22oi_1
*I *823:Q O *D sky130_fd_sc_hd__dfxtp_1
*CAP
1 *786:B 2.97007e-05
2 *657:B 0.000385696
3 *656:B2 0
4 *823:Q 0.000479694
5 *342:19 0.000426076
6 *342:10 0.000490374
7 *342:10 *734:A 5.13451e-05
8 *657:A *657:B 1.34892e-05
9 *657:A *342:10 8.36166e-05
10 *657:A *342:19 1.42934e-05
11 *658:C *657:B 0.00044347
12 *666:A *657:B 8.51948e-06
13 *266:20 *786:B 0.000153144
14 *266:20 *342:19 6.94252e-05
15 *302:10 *342:10 0
16 *322:351 *342:10 0.00017539
17 *322:399 *786:B 4.38475e-05
18 *328:12 *786:B 0.000509726
19 *328:12 *342:10 0.00258336
20 *328:12 *342:19 0.000169909
21 *331:22 *342:10 0.000250188
*RES
1 *823:Q *342:10 24.0814 
2 *342:10 *656:B2 13.8 
3 *342:10 *342:19 0.739538 
4 *342:19 *657:B 15.9104 
5 *342:19 *786:B 15.7661 
*END

*D_NET *343 0.00426416
*CONN
*I *782:B I *D sky130_fd_sc_hd__xor2_1
*I *653:B2 I *D sky130_fd_sc_hd__a22oi_1
*I *654:B I *D sky130_fd_sc_hd__nor2_1
*I *824:Q O *D sky130_fd_sc_hd__dfxtp_1
*CAP
1 *782:B 0.000119283
2 *653:B2 0
3 *654:B 2.79481e-05
4 *824:Q 0.000203792
5 *343:20 0.000452831
6 *343:10 0.000747957
7 *654:B *369:295 7.87291e-05
8 *654:B *369:299 0
9 *654:A *654:B 0.00044347
10 *779:A2 *654:B 0.000113187
11 *781:B *343:20 0
12 *782:A *782:B 0.000119936
13 *888:A *343:10 0
14 *267:16 *654:B 0
15 *293:148 *782:B 0
16 *293:148 *343:10 0
17 *293:148 *343:20 0.000187856
18 *297:48 *343:20 9.02742e-06
19 *304:14 *654:B 0.000828368
20 *304:14 *782:B 0.000339818
21 *304:14 *343:10 0.000540615
22 *304:14 *343:20 5.13451e-05
*RES
1 *824:Q *343:10 15.6939 
2 *343:10 *343:20 18.1898 
3 *343:20 *654:B 11.5186 
4 *343:20 *653:B2 9.3 
5 *343:10 *782:B 16.0727 
*END

*D_NET *344 0.0110455
*CONN
*I *650:B2 I *D sky130_fd_sc_hd__a22oi_1
*I *651:B I *D sky130_fd_sc_hd__nor2_1
*I *778:B I *D sky130_fd_sc_hd__xor2_1
*I *825:Q O *D sky130_fd_sc_hd__dfxtp_1
*CAP
1 *650:B2 0.000582344
2 *651:B 0
3 *778:B 0.00112211
4 *825:Q 0.000237491
5 *344:14 0.00128317
6 *344:6 0.00098089
7 *650:B2 *763:A1 0.000251021
8 *651:A *778:B 3.93646e-05
9 *652:B *650:B2 0.000336737
10 *652:B *778:B 0.000400221
11 *669:B *778:B 0
12 *763:A2 *650:B2 0.00044347
13 *763:A2 *344:6 4.41623e-05
14 *763:A2 *344:14 0.000714616
15 *763:B1 *344:6 0.000251021
16 *819:CLK *650:B2 0.000126967
17 *819:D *650:B2 0.000847195
18 *857:D *778:B 1.42934e-05
19 *75:12 *344:14 0.00122434
20 *268:14 *778:B 5.13451e-05
21 *309:18 *344:14 0.000336737
22 *309:33 *344:14 0.000544708
23 *338:10 *650:B2 0.00121327
24 *338:10 *778:B 0
*RES
1 *825:Q *344:6 10.256 
2 *344:6 *344:14 15.6198 
3 *344:14 *778:B 25.4429 
4 *344:14 *651:B 9.3 
5 *344:6 *650:B2 18.1564 
*END

*D_NET *345 0.00438464
*CONN
*I *774:B I *D sky130_fd_sc_hd__xor2_1
*I *648:B I *D sky130_fd_sc_hd__nor2_1
*I *647:B2 I *D sky130_fd_sc_hd__a22oi_1
*I *826:Q O *D sky130_fd_sc_hd__dfxtp_1
*CAP
1 *774:B 0
2 *648:B 8.31611e-05
3 *647:B2 0
4 *826:Q 0.000583143
5 *345:18 0.000304908
6 *345:12 0.00080489
7 *649:C *648:B 0.000222569
8 *811:CLK *345:12 0.000208803
9 *843:CLK *648:B 0.000251021
10 *858:D *648:B 0
11 *77:10 *345:18 0
12 *210:10 *345:12 7.47986e-05
13 *269:10 *648:B 0.000251021
14 *269:21 *648:B 0.000104138
15 *293:86 *345:18 4.9006e-05
16 *299:33 *648:B 0
17 *299:33 *345:18 0
18 *305:53 *345:12 0
19 *310:42 *648:B 0.000629662
20 *310:42 *345:12 0.000187856
21 *310:42 *345:18 0.000629662
*RES
1 *826:Q *345:12 22.16 
2 *345:12 *345:18 8.14358 
3 *345:18 *647:B2 13.8 
4 *345:18 *648:B 17.5338 
5 *345:12 *774:B 9.3 
*END

*D_NET *346 0.00321054
*CONN
*I *770:B I *D sky130_fd_sc_hd__xor2_1
*I *644:B2 I *D sky130_fd_sc_hd__a22oi_1
*I *645:B I *D sky130_fd_sc_hd__nor2_1
*I *827:Q O *D sky130_fd_sc_hd__dfxtp_1
*CAP
1 *770:B 5.63323e-06
2 *644:B2 0
3 *645:B 7.23388e-05
4 *827:Q 0.000130715
5 *346:18 0.000224824
6 *346:10 0.000288833
7 *615:A *346:18 0
8 *615:B *346:18 0
9 *615:C *645:B 0
10 *644:A2 *645:B 0
11 *645:A *645:B 0.000129306
12 *646:B *346:18 0.000119936
13 *768:A *346:18 7.87291e-05
14 *770:A *770:B 0.000192449
15 *770:A *346:18 0.000686458
16 *810:D *645:B 0.000635919
17 *810:D *346:10 0
18 *826:D *770:B 8.28042e-05
19 *826:D *346:18 0.000273254
20 *322:242 *346:10 0.000289345
*RES
1 *827:Q *346:10 20.2661 
2 *346:10 *346:18 13.3651 
3 *346:18 *645:B 11.5367 
4 *346:18 *644:B2 9.3 
5 *346:10 *770:B 9.84113 
*END

*D_NET *347 0.00604229
*CONN
*I *642:B I *D sky130_fd_sc_hd__nor2_1
*I *766:B I *D sky130_fd_sc_hd__xor2_1
*I *641:B2 I *D sky130_fd_sc_hd__a22oi_1
*I *828:Q O *D sky130_fd_sc_hd__dfxtp_1
*CAP
1 *642:B 0.000138424
2 *766:B 2.62303e-05
3 *641:B2 5.65894e-05
4 *828:Q 0.000601975
5 *347:16 0.000223414
6 *347:12 0.000880994
7 *347:12 *920:A 0
8 *642:A *641:B2 0.000251021
9 *643:B *641:B2 0.000544208
10 *643:B *347:16 0.000828368
11 *643:C *642:B 0.000508302
12 *691:A *642:B 0
13 *691:A *347:12 0
14 *819:CLK *347:12 3.47126e-05
15 *845:CLK *347:12 0.000118431
16 *860:CLK *347:12 0
17 *860:D *347:12 0.00014057
18 *75:12 *347:12 0.000289595
19 *184:24 *347:12 0.000129608
20 *271:27 *641:B2 0.000459503
21 *271:27 *766:B 1.9321e-05
22 *293:23 *347:12 0.000309044
23 *322:49 *641:B2 6.94252e-05
24 *322:49 *347:12 0
25 *322:64 *641:B2 0.000251021
26 *322:64 *642:B 8.28042e-05
27 *331:320 *766:B 3.93646e-05
28 *331:320 *347:16 3.93646e-05
*RES
1 *828:Q *347:12 24.7127 
2 *347:12 *347:16 6.70058 
3 *347:16 *641:B2 21.1139 
4 *347:16 *766:B 9.84113 
5 *347:12 *642:B 16.9205 
*END

*D_NET *348 0.0164447
*CONN
*I *616:B I *D sky130_fd_sc_hd__xor2_1
*I *707:B I *D sky130_fd_sc_hd__nor2_1
*I *706:B2 I *D sky130_fd_sc_hd__a22oi_1
*I *810:Q O *D sky130_fd_sc_hd__dfxtp_1
*CAP
1 *616:B 0.000255052
2 *707:B 4.54716e-05
3 *706:B2 0.000239629
4 *810:Q 0.00217854
5 *348:26 0.000527734
6 *348:18 0.00267623
7 *348:18 *618:A 0.000374799
8 *348:26 *618:A 3.49812e-05
9 *616:A *616:B 0.000828368
10 *616:A *348:26 5.20689e-05
11 *706:B1 *706:B2 0.000222569
12 *706:B1 *707:B 1.97774e-05
13 *707:A *707:B 9.62935e-05
14 *708:C *706:B2 0.00140572
15 *708:C *707:B 0.000828368
16 *797:B *348:18 0.000374799
17 *799:A1 *348:18 0.000153144
18 *820:CLK *348:18 5.13451e-05
19 *820:D *348:18 0.000281566
20 *823:D *348:18 0.000629662
21 *16:21 *706:B2 0
22 *16:21 *348:26 0.000153144
23 *33:27 *706:B2 1.99248e-05
24 *35:23 *707:B 2.06902e-05
25 *293:154 *706:B2 0
26 *297:14 *706:B2 0.00140572
27 *297:14 *707:B 0.000384898
28 *324:16 *348:18 8.75015e-05
29 *328:12 *348:18 0.000714456
30 *331:65 *348:18 0.000290597
31 *331:69 *348:18 2.19237e-05
32 *331:69 *348:26 1.28963e-05
33 *331:101 *348:18 0
34 *331:101 *348:26 0.00109235
35 *335:16 *348:18 0.000257282
36 *339:16 *348:18 0.00070721
37 *339:20 *348:18 0
*RES
1 *810:Q *348:18 40.2069 
2 *348:18 *348:26 10.1999 
3 *348:26 *706:B2 24.8296 
4 *348:26 *707:B 11.5186 
5 *348:18 *616:B 16.7401 
*END

*D_NET *349 0.00554795
*CONN
*I *762:B I *D sky130_fd_sc_hd__xor2_1
*I *638:B2 I *D sky130_fd_sc_hd__a22oi_1
*I *639:B I *D sky130_fd_sc_hd__nor2_1
*I *829:Q O *D sky130_fd_sc_hd__dfxtp_1
*CAP
1 *762:B 0.000120911
2 *638:B2 4.78223e-05
3 *639:B 0.000138198
4 *829:Q 0.000144913
5 *349:27 0.00106909
6 *349:6 0.00118347
7 *349:27 *630:B 7.87291e-05
8 *630:A *349:27 0.00102082
9 *631:B *349:6 8.6526e-06
10 *631:B *349:27 1.97774e-05
11 *639:A *638:B2 0.000251021
12 *639:A *639:B 0.000113187
13 *640:C *639:B 5.85715e-05
14 *762:A *762:B 0.00076459
15 *861:D *639:B 0.000118431
16 *74:14 *639:B 0
17 *273:8 *762:B 3.49812e-05
18 *273:8 *349:27 0.000374799
19 *331:678 *639:B 0
20 *331:678 *349:27 0
21 *331:695 *762:B 0
*RES
1 *829:Q *349:6 9.84113 
2 *349:6 *639:B 20.6268 
3 *349:6 *349:27 9.29798 
4 *349:27 *638:B2 14.3411 
5 *349:27 *762:B 16.686 
*END

*D_NET *350 0.00343759
*CONN
*I *636:B I *D sky130_fd_sc_hd__nor2_1
*I *758:B I *D sky130_fd_sc_hd__xor2_1
*I *635:B2 I *D sky130_fd_sc_hd__a22oi_1
*I *830:Q O *D sky130_fd_sc_hd__dfxtp_1
*CAP
1 *636:B 7.67451e-05
2 *758:B 0.000172142
3 *635:B2 0.000292291
4 *830:Q 0.000810803
5 *350:28 0.000767399
6 *635:B2 *627:B 9.02742e-06
7 *635:B1 *350:28 0
8 *636:A *636:B 0.000222569
9 *636:A *758:B 0.000146288
10 *637:A *635:B2 0
11 *637:A *636:B 0.000242988
12 *637:A *350:28 0.000222569
13 *830:D *635:B2 0.000251021
14 *830:D *350:28 0.000133041
15 *274:8 *758:B 9.07096e-05
*RES
1 *830:Q *635:B2 30.1072 
2 *830:Q *350:28 17.5518 
3 *350:28 *758:B 16.4154 
4 *350:28 *636:B 16.3794 
*END

*D_NET *351 0.00927537
*CONN
*I *754:B I *D sky130_fd_sc_hd__xor2_1
*I *632:B2 I *D sky130_fd_sc_hd__a22oi_1
*I *633:B I *D sky130_fd_sc_hd__nor2_1
*I *831:Q O *D sky130_fd_sc_hd__dfxtp_1
*CAP
1 *754:B 0.000244304
2 *632:B2 2.12318e-05
3 *633:B 0
4 *831:Q 0.000497421
5 *351:27 0.000302955
6 *351:18 0.000534841
7 *351:18 *354:29 0.00013885
8 *625:B1 *351:18 0.000544905
9 *632:A1 *754:B 0
10 *632:B1 *632:B2 0.000635919
11 *633:A *351:18 1.42934e-05
12 *633:A *351:27 0.000291994
13 *634:B *632:B2 0.000126967
14 *744:A *632:B2 0.00102082
15 *744:B *351:18 1.19805e-05
16 *745:B *754:B 0.000679635
17 *745:B *351:18 0.00020489
18 *745:B *351:27 0.00076459
19 *754:A *754:B 0.00044347
20 *831:CLK *351:18 0.000459753
21 *831:D *351:18 0.00164438
22 *866:D *351:18 1.28963e-05
23 *867:CLK *351:18 0.000251021
24 *867:D *351:18 0.000126967
25 *275:10 *754:B 0.000266586
26 *275:10 *351:27 3.47126e-05
*RES
1 *831:Q *351:18 23.9551 
2 *351:18 *633:B 13.8 
3 *351:18 *351:27 2.886 
4 *351:27 *632:B2 16.0006 
5 *351:27 *754:B 18.9948 
*END

*D_NET *352 0.00415439
*CONN
*I *750:B I *D sky130_fd_sc_hd__xor2_1
*I *629:B2 I *D sky130_fd_sc_hd__a22oi_1
*I *630:B I *D sky130_fd_sc_hd__nor2_1
*I *832:Q O *D sky130_fd_sc_hd__dfxtp_1
*CAP
1 *750:B 8.87532e-05
2 *629:B2 1.66234e-05
3 *630:B 4.97434e-05
4 *832:Q 0
5 *352:10 0.000154705
6 *352:4 0.000177092
7 *629:A2 *629:B2 0
8 *630:A *629:B2 0.000104813
9 *630:A *630:B 0.000159777
10 *631:B *629:B2 0.000192449
11 *631:B *630:B 0.000828368
12 *164:14 *750:B 3.93646e-05
13 *276:12 *750:B 0.000251021
14 *276:12 *352:10 0.00020489
15 *276:18 *352:10 0.000328856
16 *331:678 *352:10 0.00147921
17 *349:27 *630:B 7.87291e-05
*RES
1 *832:Q *352:4 9.3 
2 *352:4 *352:10 14.3391 
3 *352:10 *630:B 11.5186 
4 *352:10 *629:B2 10.274 
5 *352:4 *750:B 10.6889 
*END

*D_NET *353 0.00388081
*CONN
*I *627:B I *D sky130_fd_sc_hd__nor2_1
*I *746:B I *D sky130_fd_sc_hd__xor2_1
*I *626:B2 I *D sky130_fd_sc_hd__a22oi_1
*I *833:Q O *D sky130_fd_sc_hd__dfxtp_1
*CAP
1 *627:B 5.01756e-05
2 *746:B 0.000150795
3 *626:B2 0.00011245
4 *833:Q 0.000178702
5 *353:24 0.000267223
6 *626:B1 *626:B2 0.00044347
7 *626:B1 *627:B 0.000289595
8 *626:B1 *353:24 0.000627262
9 *627:A *627:B 0.000339318
10 *628:B *627:B 0.00017539
11 *628:B *353:24 0.000562116
12 *635:B2 *627:B 9.02742e-06
13 *746:A *746:B 0.000635919
14 *277:8 *746:B 3.93646e-05
15 *322:99 *626:B2 0
*RES
1 *833:Q *626:B2 19.9889 
2 *833:Q *353:24 16.7221 
3 *353:24 *746:B 16.0006 
4 *353:24 *627:B 16.3794 
*END

*D_NET *354 0.0125409
*CONN
*I *743:B I *D sky130_fd_sc_hd__xnor2_1
*I *742:B I *D sky130_fd_sc_hd__nor2_1
*I *741:B I *D sky130_fd_sc_hd__nand2_1
*I *834:Q O *D sky130_fd_sc_hd__dfxtp_1
*CAP
1 *743:B 0
2 *742:B 0.000141809
3 *741:B 0.000873414
4 *834:Q 0.00193701
5 *354:29 0.000203249
6 *354:12 0.00287186
7 *625:A2 *741:B 4.82073e-05
8 *625:A2 *354:12 0.000110487
9 *625:B1 *742:B 3.93646e-05
10 *634:C *741:B 1.04972e-05
11 *741:A *741:B 0.00106707
12 *741:A *354:12 0
13 *741:A *354:29 0.000459753
14 *742:A *742:B 0.00044347
15 *742:A *354:29 0.000251021
16 *744:B *354:29 0.000478182
17 *745:B *354:29 3.49812e-05
18 *831:CLK *354:12 0.000451989
19 *831:CLK *354:29 1.28963e-05
20 *834:D *354:12 0.000654745
21 *278:14 *354:29 0.000312385
22 *278:16 *354:29 0.000192449
23 *298:16 *354:12 0.00180725
24 *351:18 *354:29 0.00013885
*RES
1 *834:Q *354:12 18.7156 
2 *354:12 *741:B 13.4847 
3 *354:12 *354:29 12.3369 
4 *354:29 *742:B 11.5186 
5 *354:29 *743:B 9.3 
*END

*D_NET *355 0.00180426
*CONN
*I *735:B I *D sky130_fd_sc_hd__nand2_1
*I *737:B I *D sky130_fd_sc_hd__xnor2_1
*I *736:B I *D sky130_fd_sc_hd__nor2_1
*I *835:Q O *D sky130_fd_sc_hd__dfxtp_1
*CAP
1 *735:B 0.00010487
2 *737:B 0
3 *736:B 0.000298156
4 *835:Q 0
5 *355:12 0.000431775
6 *355:6 0.00023849
7 *624:A2 *735:B 1.42934e-05
8 *624:A2 *355:12 0.00018755
9 *735:A *735:B 6.57067e-05
10 *737:A *736:B 0.000195992
11 *279:25 *736:B 0.000267422
*RES
1 *835:Q *355:6 13.8 
2 *355:6 *355:12 6.70058 
3 *355:12 *736:B 13.0879 
4 *355:12 *737:B 9.3 
5 *355:6 *735:B 15.3873 
*END

*D_NET *356 0.00397493
*CONN
*I *731:B I *D sky130_fd_sc_hd__xnor2_1
*I *730:B I *D sky130_fd_sc_hd__nor2_1
*I *729:B I *D sky130_fd_sc_hd__nand2_1
*I *836:Q O *D sky130_fd_sc_hd__dfxtp_1
*CAP
1 *731:B 3.53168e-05
2 *730:B 1.07987e-05
3 *729:B 0.000135339
4 *836:Q 0.00073242
5 *356:16 0.000395213
6 *356:14 0.00101681
7 *729:A *729:B 9.62935e-05
8 *729:A *730:B 4.65022e-05
9 *729:A *731:B 0
10 *729:A *356:16 0.000126967
11 *868:D *356:14 0
12 *280:12 *356:14 9.67224e-05
13 *280:14 *356:16 0.000635919
14 *295:90 *729:B 7.87291e-05
15 *295:90 *731:B 0.000284034
16 *295:90 *356:14 4.6705e-05
17 *295:90 *356:16 2.7384e-05
18 *331:601 *356:14 0.000209771
*RES
1 *836:Q *356:14 24.4328 
2 *356:14 *356:16 3.0303 
3 *356:16 *729:B 11.1038 
4 *356:16 *730:B 9.7329 
5 *356:14 *731:B 10.5807 
*END

*D_NET *357 0.0063538
*CONN
*I *725:B I *D sky130_fd_sc_hd__xnor2_1
*I *723:B I *D sky130_fd_sc_hd__nand2_1
*I *724:B I *D sky130_fd_sc_hd__nor2_1
*I *837:Q O *D sky130_fd_sc_hd__dfxtp_1
*CAP
1 *725:B 0
2 *723:B 0.0001974
3 *724:B 0.00031962
4 *837:Q 0.00140943
5 *357:23 0.000516616
6 *357:6 0.00204827
7 *622:A2 *723:B 0.000273254
8 *723:A *723:B 0.00121327
9 *726:B *724:B 0
10 *837:CLK *357:6 6.92589e-05
11 *837:CLK *357:23 9.07097e-05
12 *837:D *357:6 0.000215981
13 *281:12 *724:B 0
*RES
1 *837:Q *357:6 14.8195 
2 *357:6 *724:B 21.7993 
3 *357:6 *357:23 4.20274 
4 *357:23 *723:B 13.5929 
5 *357:23 *725:B 9.3 
*END

*D_NET *358 0.0052765
*CONN
*I *717:B I *D sky130_fd_sc_hd__nand2_1
*I *718:B I *D sky130_fd_sc_hd__nor2_1
*I *719:B I *D sky130_fd_sc_hd__xnor2_1
*I *838:Q O *D sky130_fd_sc_hd__dfxtp_1
*CAP
1 *717:B 0.000333489
2 *718:B 6.08937e-05
3 *719:B 0.000126375
4 *838:Q 0.00026235
5 *358:19 0.000451425
6 *358:8 0.000445768
7 *621:A2 *717:B 3.93646e-05
8 *621:B1 *717:B 0.000635919
9 *715:B *358:8 0
10 *717:A *717:B 0.000209771
11 *719:A *719:B 0.000251021
12 *719:A *358:19 0
13 *720:A *358:8 0
14 *720:B *358:8 0.000118431
15 *721:B *358:8 0
16 *282:10 *718:B 3.49812e-05
17 *282:18 *717:B 0.000614599
18 *293:52 *718:B 2.38582e-05
19 *293:52 *358:8 0.000257282
20 *293:52 *358:19 0.000239925
21 *331:589 *719:B 0.00019045
22 *331:595 *719:B 0.000828368
23 *331:634 *718:B 3.16497e-05
24 *331:634 *358:19 9.86568e-05
25 *331:644 *718:B 2.19237e-05
*RES
1 *838:Q *358:8 18.2192 
2 *358:8 *719:B 16.8303 
3 *358:8 *358:19 2.11941 
4 *358:19 *718:B 14.9273 
5 *358:19 *717:B 18.8144 
*END

*D_NET *359 0.00478671
*CONN
*I *612:B I *D sky130_fd_sc_hd__xor2_1
*I *704:B I *D sky130_fd_sc_hd__nor2_1
*I *703:B2 I *D sky130_fd_sc_hd__a22oi_1
*I *811:Q O *D sky130_fd_sc_hd__dfxtp_1
*CAP
1 *612:B 0.000186954
2 *704:B 2.80564e-05
3 *703:B2 0.000114345
4 *811:Q 0.000314415
5 *359:14 0.000531809
6 *359:10 0.000890776
7 *614:C *612:B 5.28104e-05
8 *647:A1 *703:B2 0.000251021
9 *703:A2 *612:B 0.00044347
10 *704:A *359:14 0.00044347
11 *705:B *703:B2 1.9321e-05
12 *705:C *703:B2 0.000251021
13 *705:C *359:14 0.000251021
14 *768:B *359:10 1.42934e-05
15 *826:D *359:10 5.13451e-05
16 *305:38 *612:B 0.00044347
17 *305:38 *703:B2 3.93646e-05
18 *331:449 *703:B2 0.000459753
*RES
1 *811:Q *359:10 16.6139 
2 *359:10 *359:14 8.36003 
3 *359:14 *703:B2 21.0417 
4 *359:14 *704:B 9.7329 
5 *359:10 *612:B 17.0287 
*END

*D_NET *360 0.00851525
*CONN
*I *712:B I *D sky130_fd_sc_hd__nor2_1
*I *713:B I *D sky130_fd_sc_hd__xnor2_1
*I *711:B I *D sky130_fd_sc_hd__nand2_1
*I *839:Q O *D sky130_fd_sc_hd__dfxtp_1
*CAP
1 *712:B 0
2 *713:B 0.000113888
3 *711:B 0.000794344
4 *839:Q 0.00113858
5 *360:18 0.000958728
6 *360:12 0.00118908
7 *620:A1 *711:B 0.000629662
8 *620:A1 *360:12 0
9 *620:A1 *360:18 0.000169909
10 *620:A2 *711:B 0.00044347
11 *620:B1 *711:B 0
12 *620:C1 *711:B 0
13 *712:A *713:B 0.000284034
14 *712:A *360:18 0.000828368
15 *714:B *360:18 0.000126967
16 *838:D *360:12 0.000251021
17 *839:D *360:12 0.000571349
18 *871:D *711:B 0.000374799
19 *871:D *360:12 3.09512e-05
20 *871:D *360:18 0.000455911
21 *872:CLK *711:B 9.07096e-05
22 *284:21 *713:B 6.34833e-05
23 *294:53 *713:B 0
*RES
1 *839:Q *360:12 24.2343 
2 *360:12 *360:18 7.02525 
3 *360:18 *711:B 20.041 
4 *360:18 *713:B 15.1889 
5 *360:12 *712:B 9.3 
*END

*D_NET *361 0.00348338
*CONN
*I *608:B I *D sky130_fd_sc_hd__xor2_1
*I *690:B I *D sky130_fd_sc_hd__nor2_1
*I *689:B2 I *D sky130_fd_sc_hd__a22oi_1
*I *812:Q O *D sky130_fd_sc_hd__dfxtp_1
*CAP
1 *608:B 0
2 *690:B 5.06775e-05
3 *689:B2 2.1635e-05
4 *812:Q 0.000131053
5 *361:23 0.000115257
6 *361:8 0.000217268
7 *690:A *690:B 0.00044347
8 *691:B *689:B2 5.28749e-05
9 *691:B *361:23 0.000109619
10 *691:C *690:B 0.000273254
11 *691:C *361:23 6.94252e-05
12 *812:D *689:B2 0.00044347
13 *812:D *361:8 0.000251021
14 *825:D *689:B2 8.37187e-05
15 *825:D *361:23 0.000451162
16 *184:24 *689:B2 0.000146288
17 *286:10 *361:23 0.000544458
18 *322:76 *690:B 7.87291e-05
*RES
1 *812:Q *361:8 14.3411 
2 *361:8 *689:B2 15.4955 
3 *361:8 *361:23 8.61255 
4 *361:23 *690:B 11.5186 
5 *361:23 *608:B 9.3 
*END

*D_NET *362 0.0114016
*CONN
*I *686:B2 I *D sky130_fd_sc_hd__a22oi_1
*I *687:B I *D sky130_fd_sc_hd__nor2_1
*I *604:B I *D sky130_fd_sc_hd__xor2_1
*I *813:Q O *D sky130_fd_sc_hd__dfxtp_1
*CAP
1 *686:B2 0.000162419
2 *687:B 4.68501e-05
3 *604:B 0
4 *813:Q 0.00241273
5 *362:12 4.68501e-05
6 *362:10 0.00257515
7 *650:B1 *362:10 0.000277701
8 *655:B *362:10 0
9 *668:A2 *362:10 0.000189958
10 *686:B1 *686:B2 0.000627262
11 *687:A *687:B 0.000861381
12 *688:B *686:B2 0.000799571
13 *688:B *362:10 0.000544708
14 *688:C *362:10 0
15 *781:B *362:10 0
16 *812:D *686:B2 0
17 *813:CLK *362:10 0.000216006
18 *813:D *362:10 1.58314e-05
19 *819:D *687:B 0.000273254
20 *819:D *362:10 0
21 *852:CLK *362:10 0
22 *1:18 *362:10 0.000830293
23 *268:14 *362:10 0.000257282
24 *287:10 *686:B2 8.49544e-05
25 *287:10 *362:10 0.000884525
26 *297:18 *362:10 0.000287532
27 *300:63 *362:10 0
28 *314:20 *362:10 7.30242e-06
*RES
1 *813:Q *362:10 36.852 
2 *362:10 *362:12 4.5 
3 *362:12 *604:B 9.3 
4 *362:12 *687:B 11.5186 
5 *362:10 *686:B2 18.0749 
*END

*D_NET *363 0.0124377
*CONN
*I *683:B2 I *D sky130_fd_sc_hd__a22oi_1
*I *600:B I *D sky130_fd_sc_hd__xor2_1
*I *684:B I *D sky130_fd_sc_hd__nor2_1
*I *814:Q O *D sky130_fd_sc_hd__dfxtp_1
*CAP
1 *683:B2 2.29185e-05
2 *600:B 7.59559e-05
3 *684:B 0.00066651
4 *814:Q 0.00214448
5 *363:14 0.00104785
6 *363:12 0.00247278
7 *600:B *369:154 0.000884025
8 *363:12 *369:10 0.000289844
9 *363:12 *369:112 0.00159816
10 *684:A *683:B2 2.20087e-05
11 *684:A *684:B 0.000874617
12 *684:A *363:12 0.000146288
13 *684:A *363:14 0.000166217
14 *685:A *363:14 0.000251021
15 *685:C *684:B 3.93646e-05
16 *840:D *363:12 3.93646e-05
17 *846:D *684:B 2.843e-05
18 *164:14 *600:B 5.13451e-05
19 *293:154 *600:B 4.38475e-05
20 *314:20 *600:B 0.000251021
21 *317:22 *363:12 2.51021e-05
22 *328:16 *363:12 0.000118431
23 *331:107 *363:12 0.000463704
24 *331:764 *600:B 0.000594431
25 *331:766 *600:B 0.000119936
*RES
1 *814:Q *363:12 28.1846 
2 *363:12 *363:14 1.37085 
3 *363:14 *684:B 12.655 
4 *363:14 *600:B 22.0338 
5 *363:12 *683:B2 9.7329 
*END

*D_NET *364 0.0144153
*CONN
*I *680:B2 I *D sky130_fd_sc_hd__a22oi_1
*I *596:B I *D sky130_fd_sc_hd__xor2_1
*I *681:B I *D sky130_fd_sc_hd__nor2_1
*I *815:Q O *D sky130_fd_sc_hd__dfxtp_1
*CAP
1 *680:B2 0.000124633
2 *596:B 0
3 *681:B 0.000822855
4 *815:Q 0.000749924
5 *364:10 0.000854807
6 *364:8 0.00090651
7 *680:B2 *680:A1 0.000100591
8 *681:B *678:B 0.000251021
9 *591:B *681:B 8.28042e-05
10 *677:B1 *681:B 0.000487472
11 *678:A *681:B 0.000799571
12 *679:B *681:B 0.000497813
13 *679:C *681:B 0.000222569
14 *681:A *681:B 0.000584839
15 *682:B *680:B2 0.000828368
16 *728:B *680:B2 0.000799571
17 *728:B *681:B 0.00130905
18 *728:B *364:10 0.000544458
19 *815:D *364:8 0.000828368
20 *848:D *681:B 0.000153144
21 *892:A *680:B2 0.00121327
22 *913:A *681:B 0
23 *33:27 *364:8 0.00044347
24 *35:23 *680:B2 5.68599e-05
25 *141:14 *681:B 0.000117228
26 *174:14 *364:8 4.41623e-05
27 *290:10 *681:B 0.000459753
28 *326:27 *680:B2 0.000374799
29 *327:34 *364:10 0.000187754
30 *327:40 *681:B 0.000534881
31 *327:40 *364:10 3.47126e-05
*RES
1 *815:Q *364:8 16.8303 
2 *364:8 *364:10 1.96609 
3 *364:10 *681:B 33.1182 
4 *364:10 *596:B 13.8 
5 *364:8 *680:B2 20.041 
*END

*D_NET *365 0.00391674
*CONN
*I *677:B2 I *D sky130_fd_sc_hd__a22oi_1
*I *592:B I *D sky130_fd_sc_hd__xor2_1
*I *678:B I *D sky130_fd_sc_hd__nor2_1
*I *816:Q O *D sky130_fd_sc_hd__dfxtp_1
*CAP
1 *677:B2 7.64932e-05
2 *592:B 0
3 *678:B 7.73231e-05
4 *816:Q 0.00035841
5 *365:21 8.33219e-05
6 *365:8 0.000442562
7 *678:A *678:B 0.000131542
8 *681:A *678:B 0.000251021
9 *681:B *678:B 0.000251021
10 *695:B_N *677:B2 0.000372639
11 *695:B_N *678:B 7.47986e-05
12 *695:B_N *365:21 4.38475e-05
13 *913:A *678:B 0
14 *240:10 *677:B2 0.00147921
15 *240:10 *678:B 3.49812e-05
16 *240:10 *365:21 0.00020489
17 *333:28 *365:8 3.46865e-05
*RES
1 *816:Q *365:8 15.1709 
2 *365:8 *678:B 16.3072 
3 *365:8 *365:21 0.739538 
4 *365:21 *592:B 13.8 
5 *365:21 *677:B2 19.1391 
*END

*D_NET *366 0.00527844
*CONN
*I *588:B I *D sky130_fd_sc_hd__xor2_1
*I *674:B2 I *D sky130_fd_sc_hd__a22oi_1
*I *675:B I *D sky130_fd_sc_hd__nor2_1
*I *817:Q O *D sky130_fd_sc_hd__dfxtp_1
*CAP
1 *588:B 0.000151828
2 *674:B2 3.0974e-05
3 *675:B 8.17513e-06
4 *817:Q 0
5 *366:14 0.000208765
6 *366:4 0.000321444
7 *674:B2 *586:A 0.000424772
8 *366:14 *586:A 3.49812e-05
9 *586:B *674:B2 3.47126e-05
10 *586:B *366:14 0.000104138
11 *587:C *674:B2 0.000374799
12 *587:C *675:B 8.28042e-05
13 *674:B1 *674:B2 5.40034e-05
14 *676:A *588:B 0.000209771
15 *817:D *366:14 0
16 *849:CLK *588:B 0.000251021
17 *849:CLK *366:14 0.000828368
18 *849:D *588:B 0.00021964
19 *291:18 *588:B 0.00140572
20 *291:18 *674:B2 9.02742e-06
21 *291:18 *366:14 5.28749e-05
22 *329:22 *674:B2 1.42934e-05
23 *331:774 *588:B 4.38475e-05
24 *331:780 *588:B 2.843e-05
25 *331:780 *366:14 0.000122372
26 *333:28 *588:B 0.000210333
27 *333:28 *675:B 5.13451e-05
28 *333:28 *366:14 0
*RES
1 *817:Q *366:4 9.3 
2 *366:4 *366:14 9.22583 
3 *366:14 *675:B 14.3411 
4 *366:14 *674:B2 15.7661 
5 *366:4 *588:B 24.5049 
*END

*D_NET *367 0.00847361
*CONN
*I *672:B I *D sky130_fd_sc_hd__nor2_1
*I *671:B2 I *D sky130_fd_sc_hd__a22oi_1
*I *806:B I *D sky130_fd_sc_hd__xor2_1
*I *818:Q O *D sky130_fd_sc_hd__dfxtp_1
*CAP
1 *672:B 0.000366555
2 *671:B2 0.000628072
3 *806:B 0.000150968
4 *818:Q 6.32356e-05
5 *367:27 0.00149952
6 *367:8 0.0007191
7 *671:B2 *369:386 0.000184074
8 *367:8 *807:A1 0.000289844
9 *586:C *806:B 1.42934e-05
10 *672:A *672:B 0
11 *673:B *671:B2 0.000119936
12 *673:B *672:B 0
13 *805:A *671:B2 6.34833e-05
14 *805:B *671:B2 7.87291e-05
15 *805:B *367:8 0.000459503
16 *805:B *367:27 3.93646e-05
17 *807:B1 *806:B 0.000420089
18 *807:B1 *367:8 0.000289595
19 *817:CLK *672:B 0.000173375
20 *850:D *672:B 0
21 *292:25 *806:B 0.000251021
22 *296:24 *672:B 0.0010187
23 *296:24 *806:B 1.99248e-05
24 *296:24 *367:27 0.000828368
25 *296:26 *672:B 0.000594431
26 *331:559 *367:8 0
27 *331:561 *671:B2 0.000146288
28 *333:34 *367:8 5.51318e-05
*RES
1 *818:Q *367:8 16.3794 
2 *367:8 *806:B 16.668 
3 *367:8 *367:27 6.70058 
4 *367:27 *671:B2 23.1341 
5 *367:27 *672:B 26.2545 
*END

*D_NET *4 0.0205828
*CONN
*P x[0] I
*I *915:A I *D sky130_fd_sc_hd__buf_1
*CAP
1 x[0] 0.00120228
2 *915:A 0.000198439
3 *4:11 0.00140072
4 *915:A *905:A 0.00775654
5 *915:A *916:A 0
6 *915:A *19:15 0.00268562
7 *4:11 *902:A 7.64942e-05
8 *4:11 *5:11 0.0069503
9 *4:11 *19:15 0.000312413
*RES
1 x[0] *4:11 36.8398 
2 *4:11 *915:A 27.6802 
*END

*D_NET *5 0.0154878
*CONN
*P x[10] I
*I *916:A I *D sky130_fd_sc_hd__buf_1
*CAP
1 x[10] 0.000328767
2 *916:A 0.00121384
3 *5:11 0.0015426
4 *916:A *679:A 0.000635919
5 *916:A *905:A 0
6 *5:11 *901:A 0.00013885
7 *5:11 *902:A 2.13637e-05
8 *5:11 *906:A 0.000118384
9 *5:11 *16:21 0.00050223
10 *5:11 *19:15 0.00347563
11 *5:11 *28:11 0.000354649
12 *5:11 *35:23 0.000205213
13 *915:A *916:A 0
14 *4:11 *5:11 0.0069503
*RES
1 x[10] *5:11 32.9263 
2 *5:11 *916:A 27.6802 
*END

*D_NET *6 0.009905
*CONN
*P x[11] I
*I *917:A I *D sky130_fd_sc_hd__buf_1
*CAP
1 x[11] 0.00273279
2 *917:A 0.00273279
3 *917:A *808:D 0.00219434
4 *917:A *887:A 0.0012472
5 *917:A *891:A 2.13637e-05
6 *917:A *900:A 0.000830509
7 *917:A *902:A 4.27273e-05
8 *917:A *324:16 3.77672e-05
9 *917:A *334:8 6.55125e-05
*RES
1 x[11] *917:A 37.7653 
*END

*D_NET *7 0.00952971
*CONN
*P x[12] I
*I *918:A I *D sky130_fd_sc_hd__buf_1
*CAP
1 x[12] 0.00307848
2 *918:A 0.00307848
3 *918:A *792:C 3.53711e-06
4 *918:A *822:CLK 8.28042e-05
5 *918:A *822:D 0.000462296
6 *918:A *889:A 0.00135177
7 *918:A *909:A 7.64942e-05
8 *918:A *911:A 0.00026186
9 *918:A *919:A 0
10 *918:A *20:17 7.64942e-05
11 *918:A *222:18 0.000498548
12 p *918:A 0.000132495
13 *914:A *918:A 0.000426449
*RES
1 x[12] *918:A 48.1059 
*END

*D_NET *8 0.00905295
*CONN
*P x[13] I
*I *919:A I *D sky130_fd_sc_hd__buf_1
*CAP
1 x[13] 0.00161194
2 *919:A 0.00161194
3 *919:A *659:B2 0.000251021
4 *919:A *792:B 0.000251021
5 *919:A *854:CLK 0.000130074
6 *919:A *894:A 0
7 *919:A *903:A 0.0012913
8 *919:A *907:A 0.000825282
9 *919:A *909:A 0
10 *919:A *20:17 7.64942e-05
11 *919:A *222:18 0.000251021
12 *919:A *265:16 0
13 *919:A *336:6 0.000251021
14 *919:A *341:12 0.00134714
15 *919:A *341:14 0.00115469
16 *918:A *919:A 0
*RES
1 x[13] *919:A 37.753 
*END

*D_NET *9 0.00688231
*CONN
*P x[14] I
*I *886:A I *D sky130_fd_sc_hd__buf_1
*CAP
1 x[14] 0.00239344
2 *886:A 0.00239344
3 *886:A *696:A 0
4 *886:A *887:A 0
5 *886:A *888:A 0.000914288
6 *886:A *900:A 3.15476e-05
7 *886:A *906:A 0.000341819
8 *886:A *28:11 0.000244053
9 *886:A *150:10 0.000289844
10 *886:A *302:10 5.13451e-05
11 *886:A *318:24 0.000187856
12 *886:A *337:8 3.46865e-05
*RES
1 x[14] *886:A 44.9254 
*END

*D_NET *10 0.00752862
*CONN
*P x[15] I
*I *887:A I *D sky130_fd_sc_hd__buf_1
*CAP
1 x[15] 0.00140156
2 *887:A 0.00140156
3 *887:A *699:A 0.000400221
4 *887:A *700:B 1.97774e-05
5 *887:A *734:A 0
6 *887:A *734:B 0.000828368
7 *887:A *891:A 0.000872399
8 *887:A *900:A 0.00126682
9 *887:A *303:12 9.07096e-05
10 *886:A *887:A 0
11 *917:A *887:A 0.0012472
*RES
1 x[15] *887:A 40.849 
*END

*D_NET *11 0.00756619
*CONN
*P x[16] I
*I *888:A I *D sky130_fd_sc_hd__buf_1
*CAP
1 x[16] 0.00171856
2 *888:A 0.00171856
3 *888:A *682:A 0.00113683
4 *888:A *892:A 0
5 *888:A *906:A 0
6 *888:A *27:11 4.27273e-05
7 *888:A *35:23 0.000202163
8 *888:A *179:16 0.000358074
9 *888:A *304:14 0.000146288
10 *888:A *331:71 0.000220848
11 *888:A *331:79 0.000637201
12 *888:A *331:145 0.00047066
13 *888:A *343:10 0
14 *886:A *888:A 0.000914288
*RES
1 x[16] *888:A 24.3802 
*END

*D_NET *12 0.0121465
*CONN
*P x[17] I
*I *889:A I *D sky130_fd_sc_hd__buf_1
*CAP
1 x[17] 0.00123774
2 *889:A 0.00123774
3 *889:A *894:A 0.00467735
4 *889:A *899:A 0.000118384
5 *889:A *907:A 0.000673684
6 *889:A *13:11 0.00203141
7 *889:A *13:19 0
8 *889:A *20:17 0.000672139
9 *889:A *305:32 0.000146288
10 *918:A *889:A 0.00135177
*RES
1 x[17] *889:A 48.8461 
*END

*D_NET *13 0.0261813
*CONN
*P x[18] I
*I *890:A I *D sky130_fd_sc_hd__buf_1
*CAP
1 x[18] 0.000316705
2 *890:A 0
3 *13:19 0.00104718
4 *13:11 0.00136388
5 *13:11 *894:A 0.000160274
6 *13:11 *907:A 0.000672139
7 *13:11 *20:17 0.000208174
8 *13:19 *894:A 2.09945e-05
9 *13:19 *903:A 0.00698674
10 *13:19 *909:A 0.000369589
11 *13:19 *20:17 0.0127602
12 *13:19 *313:12 8.37187e-05
13 p *13:11 0.000160274
14 *889:A *13:11 0.00203141
15 *889:A *13:19 0
*RES
1 x[18] *13:11 17.3606 
2 *13:11 *13:19 43.8665 
3 *13:19 *890:A 9.3 
*END

*D_NET *14 0.00422362
*CONN
*P x[19] I
*I *891:A I *D sky130_fd_sc_hd__buf_1
*CAP
1 x[19] 0.00101334
2 *891:A 0.00101334
3 *891:A *701:A 0.000126967
4 *891:A *701:B 0.00044347
5 *891:A *734:B 0
6 *891:A *808:D 0.000187856
7 *891:A *895:A 7.64942e-05
8 *891:A *899:A 2.13637e-05
9 *891:A *902:A 0
10 *891:A *907:A 0
11 *891:A *911:A 0
12 *891:A *311:16 7.52722e-05
13 *891:A *323:16 0.000112505
14 *891:A *331:14 0.000239925
15 *891:A *331:22 1.9321e-05
16 *887:A *891:A 0.000872399
17 *917:A *891:A 2.13637e-05
*RES
1 x[19] *891:A 24.3074 
*END

*D_NET *15 0.0103066
*CONN
*P x[1] I
*I *892:A I *D sky130_fd_sc_hd__buf_1
*CAP
1 x[1] 0.00306918
2 *892:A 0.00306918
3 *892:A *617:A1 0.000544708
4 *892:A *680:B2 0.00121327
5 *892:A *682:A 1.04972e-05
6 *892:A *682:B 6.34833e-05
7 *892:A *815:CLK 0.000544708
8 *892:A *898:A 0
9 *892:A *901:A 2.13637e-05
10 *892:A *906:A 0.000366262
11 *892:A *16:21 0.000160274
12 *892:A *27:11 0.000285943
13 *892:A *33:27 0
14 *892:A *35:23 3.14917e-05
15 *892:A *141:14 3.93646e-05
16 *892:A *174:20 0.00044347
17 *892:A *327:34 0.00044347
18 *888:A *892:A 0
*RES
1 x[1] *892:A 49.038 
*END

*D_NET *16 0.0241657
*CONN
*P x[20] I
*I *893:A I *D sky130_fd_sc_hd__buf_1
*CAP
1 x[20] 0.00352508
2 *893:A 0.000727278
3 *16:21 0.00425236
4 *893:A *706:A1 0.00044347
5 *893:A *174:20 0.000482215
6 *893:A *325:16 0.000913563
7 *16:21 *617:A2 0.000470854
8 *16:21 *706:A2 0.00020464
9 *16:21 *706:B1 0.000140441
10 *16:21 *706:B2 0
11 *16:21 *847:D 0.00103964
12 *16:21 *901:A 0.000160274
13 *16:21 *906:A 0
14 *16:21 *28:11 0.000205213
15 *16:21 *35:23 0.00863398
16 *16:21 *289:10 0.000828368
17 *16:21 *293:154 0
18 *16:21 *297:14 7.87291e-05
19 *16:21 *297:80 0.00102082
20 *16:21 *331:101 0.000188093
21 *16:21 *348:26 0.000153144
22 *16:21 *369:106 3.49812e-05
23 *892:A *16:21 0.000160274
24 *5:11 *16:21 0.00050223
*RES
1 x[20] *16:21 48.8447 
2 *16:21 *893:A 19.4818 
*END

*D_NET *17 0.0144622
*CONN
*P x[21] I
*I *894:A I *D sky130_fd_sc_hd__buf_1
*CAP
1 x[21] 0.000713328
2 *894:A 0.000713328
3 *894:A *661:C 0.000635919
4 *894:A *909:A 0.00700696
5 *894:A *305:32 6.67486e-05
6 *894:A *310:30 8.28042e-05
7 p *894:A 0.000384546
8 *889:A *894:A 0.00467735
9 *919:A *894:A 0
10 *13:11 *894:A 0.000160274
11 *13:19 *894:A 2.09945e-05
*RES
1 x[21] *894:A 48.8396 
*END

*D_NET *18 0.0102558
*CONN
*P x[22] I
*I *895:A I *D sky130_fd_sc_hd__buf_2
*CAP
1 x[22] 0.000788231
2 *895:A 0.000788231
3 *895:A *899:A 0.00860283
4 *891:A *895:A 7.64942e-05
*RES
1 x[22] *895:A 37.3375 
*END

*D_NET *19 0.0149949
*CONN
*P x[23] I
*I *896:A I *D sky130_fd_sc_hd__buf_1
*CAP
1 x[23] 0.00124045
2 *896:A 0
3 *19:15 0.00124045
4 *19:15 *681:A 0.000118094
5 *19:15 *898:A 0.000160274
6 *19:15 *901:A 0.000704981
7 *19:15 *904:A 0.0014428
8 *19:15 *905:A 0.000173672
9 *19:15 *28:11 0.000332833
10 *19:15 *36:15 0.00310772
11 *915:A *19:15 0.00268562
12 *4:11 *19:15 0.000312413
13 *5:11 *19:15 0.00347563
*RES
1 x[23] *19:15 44.8859 
2 *19:15 *896:A 9.3 
*END

*D_NET *20 0.0166599
*CONN
*P x[24] I
*I *897:A I *D sky130_fd_sc_hd__buf_1
*CAP
1 x[24] 0.00137389
2 *897:A 0
3 *20:17 0.00137389
4 *20:17 *903:A 0.000118646
5 *20:17 *310:30 0
6 *889:A *20:17 0.000672139
7 *918:A *20:17 7.64942e-05
8 *919:A *20:17 7.64942e-05
9 *13:11 *20:17 0.000208174
10 *13:19 *20:17 0.0127602
*RES
1 x[24] *20:17 47.7251 
2 *20:17 *897:A 13.8 
*END

*D_NET *21 0.0144856
*CONN
*P x[25] I
*I *898:A I *D sky130_fd_sc_hd__buf_1
*CAP
1 x[25] 0.00286789
2 *898:A 0.00286789
3 *898:A *595:B 0.00198306
4 *898:A *597:A1 6.55125e-05
5 *898:A *815:D 0.000671889
6 *898:A *901:A 0.00374079
7 *898:A *908:A 0
8 *898:A *33:27 0.000570394
9 *898:A *174:14 0.000671889
10 *898:A *314:20 0.00044347
11 *898:A *318:24 0.000309088
12 *898:A *369:74 0.000133497
13 *892:A *898:A 0
14 *19:15 *898:A 0.000160274
*RES
1 x[25] *898:A 35.021 
*END

*D_NET *22 0.0106859
*CONN
*P x[26] I
*I *899:A I *D sky130_fd_sc_hd__buf_1
*CAP
1 x[26] 0.000916035
2 *899:A 0.000916035
3 *899:A *734:B 2.843e-05
4 *899:A *331:202 8.28042e-05
5 *889:A *899:A 0.000118384
6 *891:A *899:A 2.13637e-05
7 *895:A *899:A 0.00860283
*RES
1 x[26] *899:A 37.753 
*END

*D_NET *23 0.00816005
*CONN
*P x[27] I
*I *900:A I *D sky130_fd_sc_hd__buf_1
*CAP
1 x[27] 0.00200455
2 *900:A 0.00200455
3 *900:A *697:A 0.000635919
4 *900:A *902:A 0.000830509
5 *900:A *35:23 0
6 *900:A *332:20 0.000555647
7 *886:A *900:A 3.15476e-05
8 *887:A *900:A 0.00126682
9 *917:A *900:A 0.000830509
*RES
1 x[27] *900:A 43.1392 
*END

*D_NET *24 0.0110286
*CONN
*P x[28] I
*I *901:A I *D sky130_fd_sc_hd__buf_1
*CAP
1 x[28] 0.000516674
2 *901:A 0.000516674
3 *901:A *599:B 0.000247117
4 *901:A *908:A 0.00131541
5 *901:A *28:11 0.000884525
6 *901:A *33:27 0.000905145
7 *901:A *243:20 0.000887013
8 *901:A *318:24 0.000251021
9 *901:A *329:18 8.37794e-05
10 *901:A *331:107 0.000101075
11 *901:A *369:96 0.000499624
12 *901:A *369:100 5.43069e-05
13 *892:A *901:A 2.13637e-05
14 *898:A *901:A 0.00374079
15 *5:11 *901:A 0.00013885
16 *16:21 *901:A 0.000160274
17 *19:15 *901:A 0.000704981
*RES
1 x[28] *901:A 33.5687 
*END

*D_NET *25 0.00581854
*CONN
*P x[29] I
*I *902:A I *D sky130_fd_sc_hd__buf_1
*CAP
1 x[29] 0.00145779
2 *902:A 0.00145779
3 *902:A *700:A 0
4 *902:A *709:A1 3.16497e-05
5 *902:A *734:A 0.00044347
6 *902:A *841:CLK 0.000162413
7 *902:A *906:A 0
8 *902:A *179:16 0
9 *902:A *302:10 0.000757094
10 *902:A *318:24 0.000224211
11 *902:A *323:16 0.000313024
12 *891:A *902:A 0
13 *900:A *902:A 0.000830509
14 *917:A *902:A 4.27273e-05
15 *4:11 *902:A 7.64942e-05
16 *5:11 *902:A 2.13637e-05
*RES
1 x[29] *902:A 25.2537 
*END

*D_NET *26 0.0167308
*CONN
*P x[2] I
*I *903:A I *D sky130_fd_sc_hd__buf_1
*CAP
1 x[2] 0.00403613
2 *903:A 0.00403613
3 *903:A *663:A 0
4 *903:A *909:A 0.00026186
5 *903:A *313:12 0
6 *919:A *903:A 0.0012913
7 *13:19 *903:A 0.00698674
8 *20:17 *903:A 0.000118646
*RES
1 x[2] *903:A 47.1177 
*END

*D_NET *27 0.0260306
*CONN
*P x[30] I
*I *904:A I *D sky130_fd_sc_hd__buf_1
*CAP
1 x[30] 0.000865319
2 *904:A 0.00272902
3 *27:11 0.00359434
4 *904:A *913:A 0
5 *904:A *36:15 0.0106433
6 *27:11 *28:11 0.00551454
7 *27:11 *33:27 0.00050223
8 *27:11 *35:23 0.000202163
9 *27:11 *36:15 0.000208276
10 *888:A *27:11 4.27273e-05
11 *892:A *27:11 0.000285943
12 *19:15 *904:A 0.0014428
*RES
1 x[30] *27:11 30.1511 
2 *27:11 *904:A 45.3924 
*END

*D_NET *28 0.0214934
*CONN
*P x[31] I
*I *905:A I *D sky130_fd_sc_hd__buf_1
*CAP
1 x[31] 0.000404327
2 *905:A 0.000616227
3 *28:11 0.00102055
4 *905:A *681:A 0.000251021
5 *905:A *312:18 0.000110188
6 *905:A *332:20 8.28042e-05
7 *28:11 *906:A 0.000244053
8 *28:11 *35:23 0.00050223
9 *28:11 *36:15 0.002796
10 *886:A *28:11 0.000244053
11 *901:A *28:11 0.000884525
12 *915:A *905:A 0.00775654
13 *916:A *905:A 0
14 *5:11 *28:11 0.000354649
15 *16:21 *28:11 0.000205213
16 *19:15 *905:A 0.000173672
17 *19:15 *28:11 0.000332833
18 *27:11 *28:11 0.00551454
*RES
1 x[31] *28:11 33.1447 
2 *28:11 *905:A 27.8245 
*END

*D_NET *29 0.00432492
*CONN
*P x[3] I
*I *906:A I *D sky130_fd_sc_hd__buf_1
*CAP
1 x[3] 0.00155406
2 *906:A 0.00155406
3 *906:A *697:A 0
4 *906:A *261:10 0
5 *906:A *323:16 0.000146288
6 *906:A *332:20 0
7 *886:A *906:A 0.000341819
8 *888:A *906:A 0
9 *892:A *906:A 0.000366262
10 *902:A *906:A 0
11 *5:11 *906:A 0.000118384
12 *16:21 *906:A 0
13 *28:11 *906:A 0.000244053
*RES
1 x[3] *906:A 32.6162 
*END

*D_NET *30 0.0067551
*CONN
*P x[4] I
*I *907:A I *D sky130_fd_sc_hd__buf_1
*CAP
1 x[4] 0.00126632
2 *907:A 0.00126632
3 *907:A *911:A 0.000202163
4 *907:A *265:10 0.00102082
5 *907:A *341:12 0.000828368
6 *889:A *907:A 0.000673684
7 *891:A *907:A 0
8 *919:A *907:A 0.000825282
9 *13:11 *907:A 0.000672139
*RES
1 x[4] *907:A 42.8589 
*END

*D_NET *31 0.00776301
*CONN
*P x[5] I
*I *908:A I *D sky130_fd_sc_hd__buf_1
*CAP
1 x[5] 0.000905688
2 *908:A 0.000905688
3 *908:A *600:A 0
4 *908:A *33:27 0.000327832
5 *908:A *36:15 0.000202163
6 *908:A *164:14 0.000118094
7 *908:A *243:20 0.000335118
8 *908:A *314:20 0.000828368
9 *908:A *318:24 9.13237e-05
10 *908:A *325:16 0
11 *908:A *329:18 0.000887013
12 *908:A *369:112 0.000246867
13 *898:A *908:A 0
14 *901:A *908:A 0.00131541
15 *1:18 *908:A 0.00159944
*RES
1 x[5] *908:A 25.6228 
*END

*D_NET *32 0.0126707
*CONN
*P x[6] I
*I *909:A I *D sky130_fd_sc_hd__buf_1
*CAP
1 x[6] 0.00178392
2 *909:A 0.00178392
3 *909:A *661:C 0.000102734
4 *909:A *793:B 0
5 *909:A *305:32 0.00108121
6 *909:A *310:30 0.000204049
7 p *909:A 0
8 *894:A *909:A 0.00700696
9 *903:A *909:A 0.00026186
10 *918:A *909:A 7.64942e-05
11 *919:A *909:A 0
12 *13:19 *909:A 0.000369589
*RES
1 x[6] *909:A 40.5263 
*END

*D_NET *33 0.0090141
*CONN
*P x[7] I
*I *910:A I *D sky130_fd_sc_hd__buf_1
*CAP
1 x[7] 0.00220623
2 *910:A 0
3 *33:27 0.00220623
4 *33:27 *680:B1 0.000112504
5 *33:27 *706:B2 1.99248e-05
6 *33:27 *815:D 3.49812e-05
7 *33:27 *174:14 0.000328479
8 *33:27 *246:20 0.000220848
9 *33:27 *289:12 1.73563e-05
10 *33:27 *293:154 3.16497e-05
11 *33:27 *329:18 6.22333e-05
12 *33:27 *364:8 0.00044347
13 *33:27 *369:96 0.000553931
14 *33:27 *369:100 0.00047066
15 *892:A *33:27 0
16 *898:A *33:27 0.000570394
17 *901:A *33:27 0.000905145
18 *908:A *33:27 0.000327832
19 *27:11 *33:27 0.00050223
*RES
1 x[7] *33:27 45.158 
2 *33:27 *910:A 9.3 
*END

*D_NET *34 0.0128134
*CONN
*P x[8] I
*I *911:A I *D sky130_fd_sc_hd__buf_1
*CAP
1 x[8] 0.00308455
2 *911:A 0.00308455
3 *911:A *787:A1 0.000149048
4 *911:A *787:A2 3.93646e-05
5 *911:A *787:B1 0.00044347
6 *911:A *788:C 0.000376531
7 *911:A *789:B 7.30242e-06
8 *911:A *322:403 0.000156176
9 *911:A *322:409 0.00044347
10 p *911:A 0.000320455
11 *891:A *911:A 0
12 *907:A *911:A 0.000202163
13 *914:A *911:A 0.0042445
14 *918:A *911:A 0.00026186
*RES
1 x[8] *911:A 35.0152 
*END

*D_NET *35 0.0152563
*CONN
*P x[9] I
*I *912:A I *D sky130_fd_sc_hd__buf_1
*CAP
1 x[9] 0.00217677
2 *912:A 0
3 *35:23 0.00217677
4 *35:23 *680:A2 1.9321e-05
5 *35:23 *680:B2 5.68599e-05
6 *35:23 *682:B 7.87291e-05
7 *35:23 *707:A 3.3013e-05
8 *35:23 *707:B 2.06902e-05
9 *35:23 *847:D 0.00044347
10 *35:23 *318:24 0
11 *35:23 *326:10 0.000459753
12 *35:23 *329:18 1.3692e-05
13 *888:A *35:23 0.000202163
14 *892:A *35:23 3.14917e-05
15 *900:A *35:23 0
16 *5:11 *35:23 0.000205213
17 *16:21 *35:23 0.00863398
18 *27:11 *35:23 0.000202163
19 *28:11 *35:23 0.00050223
*RES
1 x[9] *35:23 46.2025 
2 *35:23 *912:A 9.3 
*END

*D_NET *36 0.0194937
*CONN
*P y I
*I *913:A I *D sky130_fd_sc_hd__buf_1
*CAP
1 y 0.0010103
2 *913:A 0.000156747
3 *36:15 0.00116705
4 *913:A *678:B 0
5 *913:A *681:B 0
6 *904:A *913:A 0
7 *904:A *36:15 0.0106433
8 *908:A *36:15 0.000202163
9 *1:18 *36:15 0.000202163
10 *19:15 *36:15 0.00310772
11 *27:11 *36:15 0.000208276
12 *28:11 *36:15 0.002796
*RES
1 y *36:15 48.7732 
2 *36:15 *913:A 15.7661 
*END

*D_NET *369 0.0844326
*CONN
*I *617:A1 I *D sky130_fd_sc_hd__a21oi_1
*I *598:A I *D sky130_fd_sc_hd__and3_1
*I *706:A1 I *D sky130_fd_sc_hd__a22oi_1
*I *716:A I *D sky130_fd_sc_hd__nand2_1
*I *683:A1 I *D sky130_fd_sc_hd__a22oi_1
*I *601:A1 I *D sky130_fd_sc_hd__a21oi_1
*I *602:A I *D sky130_fd_sc_hd__and3_1
*I *807:A1 I *D sky130_fd_sc_hd__a21oi_1
*I *804:A I *D sky130_fd_sc_hd__and3_1
*I *668:A1 I *D sky130_fd_sc_hd__a22oi_1
*I *710:A I *D sky130_fd_sc_hd__nand2_1
*I *671:A1 I *D sky130_fd_sc_hd__a22oi_1
*I *692:A I *D sky130_fd_sc_hd__and3_1
*I *693:A1 I *D sky130_fd_sc_hd__a21oi_1
*I *722:A I *D sky130_fd_sc_hd__nand2_1
*I *751:A1 I *D sky130_fd_sc_hd__a21oi_1
*I *740:A I *D sky130_fd_sc_hd__nand2_1
*I *920:A I *D sky130_fd_sc_hd__buf_4
*I *653:A1 I *D sky130_fd_sc_hd__a22oi_1
*I *784:A I *D sky130_fd_sc_hd__and3_1
*I *783:A1 I *D sky130_fd_sc_hd__a21oi_1
*I *734:A I *D sky130_fd_sc_hd__nand2_1
*I *618:A I *D sky130_fd_sc_hd__and3_1
*I *779:A1 I *D sky130_fd_sc_hd__a21oi_1
*I *650:A1 I *D sky130_fd_sc_hd__a22oi_1
*I *780:A I *D sky130_fd_sc_hd__and3_1
*I *763:A1 I *D sky130_fd_sc_hd__a21oi_1
*I *764:A I *D sky130_fd_sc_hd__and3_1
*I *638:A1 I *D sky130_fd_sc_hd__a22oi_1
*I *629:A1 I *D sky130_fd_sc_hd__a22oi_1
*I *752:A I *D sky130_fd_sc_hd__and3_1
*I *803:A1 I *D sky130_fd_sc_hd__a21oi_1
*I *674:A1 I *D sky130_fd_sc_hd__a22oi_1
*I *586:A I *D sky130_fd_sc_hd__and3_1
*I *593:A1 I *D sky130_fd_sc_hd__a21oi_1
*I *680:A1 I *D sky130_fd_sc_hd__a22oi_1
*I *597:A1 I *D sky130_fd_sc_hd__a21oi_1
*I *728:A I *D sky130_fd_sc_hd__nand2_1
*I *594:A I *D sky130_fd_sc_hd__and3_1
*I *677:A1 I *D sky130_fd_sc_hd__a22oi_1
*I *589:A1 I *D sky130_fd_sc_hd__a21oi_1
*I *590:A I *D sky130_fd_sc_hd__and3_1
*I *840:Q O *D sky130_fd_sc_hd__dfxtp_4
*CAP
1 *617:A1 0.000190481
2 *598:A 1.54418e-05
3 *706:A1 6.75067e-05
4 *716:A 0
5 *683:A1 0
6 *601:A1 0.000236878
7 *602:A 4.15829e-05
8 *807:A1 0.000426506
9 *804:A 0
10 *668:A1 0.000121156
11 *710:A 0
12 *671:A1 0.000233979
13 *692:A 0.000180122
14 *693:A1 0
15 *722:A 2.27317e-05
16 *751:A1 0
17 *740:A 4.07145e-05
18 *920:A 0.00038101
19 *653:A1 0
20 *784:A 0
21 *783:A1 0
22 *734:A 0.000161483
23 *618:A 2.34111e-05
24 *779:A1 1.54005e-05
25 *650:A1 0
26 *780:A 2.42813e-05
27 *763:A1 0.000192131
28 *764:A 0
29 *638:A1 9.42623e-05
30 *629:A1 0.000168059
31 *752:A 0
32 *803:A1 0
33 *674:A1 2.97911e-05
34 *586:A 0.000598488
35 *593:A1 0
36 *680:A1 0.000239264
37 *597:A1 1.58663e-05
38 *728:A 0.000254224
39 *594:A 0
40 *677:A1 0
41 *589:A1 0
42 *590:A 0.000574542
43 *840:Q 0.000328861
44 *369:390 0.000363994
45 *369:388 0.000440122
46 *369:386 0.000195226
47 *369:316 0.00066998
48 *369:303 0.00119553
49 *369:299 0.000956163
50 *369:295 0.000555206
51 *369:282 0.000458486
52 *369:273 0.000332974
53 *369:258 0.00221814
54 *369:243 0.00293486
55 *369:234 0.000701431
56 *369:232 0.000426596
57 *369:219 0.000272009
58 *369:204 0.000328739
59 *369:202 0.00030728
60 *369:193 0.000588303
61 *369:187 0.000503131
62 *369:185 0.000252727
63 *369:181 0.000549637
64 *369:173 0.000433318
65 *369:171 9.8539e-05
66 *369:162 0.000574268
67 *369:158 0.000140864
68 *369:154 0.000495082
69 *369:128 0.00140775
70 *369:122 0.00111391
71 *369:112 0.000275013
72 *369:106 0.000238589
73 *369:100 0.000221109
74 *369:96 0.000151624
75 *369:92 0.000296226
76 *369:74 0.000578404
77 *369:61 0.000355006
78 *369:59 0.000172845
79 *369:43 0.000270506
80 *369:36 0.000271442
81 *369:14 0.00062934
82 *369:10 0.0003959
83 *369:8 0.000541753
84 *586:B *586:A 0.000459753
85 *586:C *586:A 0.000476939
86 *587:A *369:128 0
87 *587:A *369:154 0
88 *587:C *586:A 0.000146288
89 *589:A2 *590:A 0.0002297
90 *589:B1 *590:A 0.000251021
91 *590:C *590:A 9.20409e-05
92 *591:C *369:14 0.000374549
93 *593:B1 *369:10 0
94 *593:B1 *369:59 0
95 *594:B *728:A 2.7384e-05
96 *594:B *369:43 0.000433011
97 *594:C *728:A 0.000476939
98 *594:C *369:36 0.00044347
99 *594:C *369:43 0.000635919
100 *595:B *369:74 3.17579e-05
101 *597:A2 *617:A1 0.000466999
102 *597:A2 *369:59 0.000119686
103 *597:A2 *369:92 0.000297091
104 *599:B *598:A 0.000162163
105 *599:C *706:A1 5.37032e-05
106 *600:A *369:122 3.49812e-05
107 *600:B *369:154 0.000884025
108 *602:B *601:A1 8.28042e-05
109 *603:C *602:A 0.00044347
110 *617:B1 *617:A1 1.42934e-05
111 *629:A2 *629:A1 0.000132487
112 *629:A2 *740:A 0.000251021
113 *629:A2 *369:193 4.38475e-05
114 *629:A2 *369:202 0.00031596
115 *638:A2 *638:A1 8.47137e-05
116 *639:A *638:A1 3.3013e-05
117 *650:A2 *779:A1 2.86822e-05
118 *650:A2 *369:282 0.000543597
119 *650:B1 *369:273 0.000374799
120 *650:B2 *763:A1 0.000251021
121 *653:A2 *369:299 0.00022076
122 *654:A *369:295 0.000126967
123 *654:B *369:295 7.87291e-05
124 *654:B *369:299 0
125 *655:B *369:295 0.000828368
126 *668:B1 *668:A1 0.000251021
127 *669:B *369:181 0
128 *671:B1 *671:A1 8.28042e-05
129 *671:B2 *369:386 0.000184074
130 *674:A2 *369:128 3.09212e-05
131 *674:B2 *586:A 0.000424772
132 *676:B *586:A 0
133 *676:B *369:128 0
134 *676:C *586:A 0
135 *679:B *369:36 9.39425e-05
136 *679:B *369:43 1.97774e-05
137 *680:B1 *680:A1 7.74584e-05
138 *680:B2 *680:A1 0.000100591
139 *683:A2 *369:112 6.90307e-05
140 *692:B *692:A 0.00036975
141 *692:B *369:388 8.51948e-06
142 *692:B *369:390 3.93646e-05
143 *692:C *692:A 0.00056898
144 *695:B_N *369:10 0.000459503
145 *695:B_N *369:14 0.00096898
146 *706:A2 *706:A1 0.000368164
147 *710:B *369:386 3.49812e-05
148 *710:B *369:390 0.000251021
149 *728:B *728:A 0.000828368
150 *734:B *734:A 0.000347517
151 *751:B1 *369:193 0.000291994
152 *753:A *369:181 3.46105e-05
153 *753:B *369:181 0.000544208
154 *753:B *369:187 5.68599e-05
155 *753:B *369:193 6.55125e-05
156 *753:C *369:181 8.28042e-05
157 *755:A1 *920:A 2.19237e-05
158 *762:A *369:219 0
159 *762:A *369:232 0.000153466
160 *763:B1 *920:A 0.000424772
161 *763:B1 *369:232 0.00020489
162 *764:C *369:243 0.000232497
163 *765:C *369:243 5.19156e-05
164 *779:A2 *779:A1 3.3013e-05
165 *779:B1 *369:273 0.000289844
166 *779:B1 *369:282 5.78543e-05
167 *781:B *369:273 2.19237e-05
168 *782:A *369:299 0.00044347
169 *783:B1 *369:303 0.000736327
170 *783:B1 *369:316 0.000377987
171 *803:B1 *369:171 0.000192449
172 *804:B *369:162 3.93646e-05
173 *804:B *369:171 0.000336737
174 *804:C *369:171 0.000376531
175 *805:B *807:A1 0.000277701
176 *807:B1 *807:A1 8.28042e-05
177 *809:CLK *617:A1 3.49812e-05
178 *809:D *734:A 4.9006e-05
179 *812:D *920:A 0.00159816
180 *814:D *369:106 0.000458754
181 *814:D *369:112 0.000883526
182 *815:CLK *617:A1 0.000332833
183 *818:CLK *369:181 0.000119686
184 *818:CLK *369:386 0.000474031
185 *818:D *369:386 9.67224e-05
186 *825:CLK *920:A 0
187 *840:CLK *369:112 0.000119686
188 *840:CLK *369:122 0
189 *840:D *369:8 0.000209771
190 *846:D *369:128 0
191 *846:D *369:154 0
192 *848:CLK *590:A 0.00019045
193 *857:CLK *780:A 3.3013e-05
194 *857:CLK *369:258 0.00339369
195 *857:CLK *369:273 6.34833e-05
196 *860:CLK *920:A 0.000544708
197 *876:A *369:128 8.28042e-05
198 *887:A *734:A 0
199 *892:A *617:A1 0.000544708
200 *893:A *706:A1 0.00044347
201 *898:A *597:A1 6.55125e-05
202 *898:A *369:74 0.000133497
203 *901:A *369:96 0.000499624
204 *901:A *369:100 5.43069e-05
205 *902:A *734:A 0.00044347
206 *908:A *369:112 0.000246867
207 *1:18 *668:A1 0.000359001
208 *1:18 *807:A1 0
209 *1:18 *369:122 0.000320547
210 *16:21 *369:106 3.49812e-05
211 *33:27 *369:96 0.000553931
212 *33:27 *369:100 0.00047066
213 *75:12 *763:A1 0.000289844
214 *75:12 *369:202 0
215 *75:12 *369:204 0
216 *75:12 *369:219 0
217 *159:12 *369:386 7.74584e-05
218 *164:14 *369:158 0.00179061
219 *164:14 *369:162 0.000828368
220 *164:14 *369:171 0.000237372
221 *164:14 *369:173 0.000251021
222 *164:14 *369:181 0.00121327
223 *174:20 *602:A 0.000146288
224 *174:20 *706:A1 8.83245e-05
225 *184:24 *920:A 0.00102096
226 *184:24 *369:219 0.000544708
227 *184:24 *369:232 0.000312413
228 *216:12 *369:299 0.000251021
229 *216:12 *369:303 0.000213176
230 *243:20 *369:74 0.000251021
231 *246:20 *601:A1 7.72085e-05
232 *246:20 *369:106 0
233 *246:20 *369:112 0
234 *267:16 *369:295 0.000523644
235 *267:16 *369:299 3.3013e-05
236 *273:8 *369:202 0
237 *273:8 *369:204 0
238 *273:8 *369:219 0
239 *276:12 *369:193 0
240 *276:18 *369:193 0
241 *276:18 *369:202 0
242 *288:10 *369:122 0.000162413
243 *293:154 *601:A1 0
244 *293:154 *369:154 0
245 *296:24 *807:A1 5.68599e-05
246 *297:48 *780:A 0
247 *298:40 *920:A 0
248 *298:66 *920:A 0
249 *302:10 *734:A 5.67438e-05
250 *303:12 *734:A 0.00100816
251 *303:25 *369:316 7.87291e-05
252 *304:14 *369:295 4.82073e-05
253 *304:14 *369:299 0.000635919
254 *304:16 *369:282 4.32154e-05
255 *304:16 *369:295 2.843e-05
256 *312:18 *369:122 0.000320547
257 *312:18 *369:193 0
258 *312:22 *369:181 0
259 *314:20 *602:A 0.000459753
260 *314:20 *668:A1 6.34833e-05
261 *314:20 *740:A 0.000251021
262 *314:20 *369:158 0.000354281
263 *314:20 *369:162 5.13451e-05
264 *317:22 *722:A 2.78304e-05
265 *317:22 *369:112 0.000225895
266 *317:22 *369:185 0.000198154
267 *317:22 *369:187 0.000146288
268 *318:24 *597:A1 0.00044347
269 *318:24 *617:A1 5.46804e-05
270 *318:24 *680:A1 0
271 *318:24 *734:A 3.93646e-05
272 *318:24 *369:74 0.000635919
273 *318:24 *369:92 6.37723e-05
274 *322:10 *920:A 0.00159816
275 *326:10 *680:A1 3.47126e-05
276 *326:27 *680:A1 0.000222569
277 *327:34 *680:A1 0.000289844
278 *327:40 *369:43 6.90307e-05
279 *328:12 *617:A1 0
280 *328:12 *734:A 0.00036142
281 *328:16 *369:10 0.000122515
282 *328:16 *369:14 0.000153466
283 *328:16 *369:59 8.96294e-05
284 *329:18 *617:A1 0.000104138
285 *329:18 *369:59 5.20689e-05
286 *329:18 *369:100 0.000141907
287 *331:69 *618:A 0.000153144
288 *331:107 *598:A 6.63623e-05
289 *331:538 *668:A1 8.98444e-05
290 *331:559 *668:A1 0.000374799
291 *331:559 *369:181 0
292 *331:559 *369:386 0
293 *331:585 *369:193 0
294 *331:743 *602:A 0.000187856
295 *331:743 *369:154 0
296 *331:766 *369:128 0.00055193
297 *331:766 *369:154 1.73563e-05
298 *333:28 *586:A 9.07096e-05
299 *333:34 *807:A1 0.00105443
300 *333:47 *807:A1 0.000169909
301 *338:10 *668:A1 3.49812e-05
302 *338:14 *668:A1 0.000714616
303 *342:10 *734:A 5.13451e-05
304 *347:12 *920:A 0
305 *348:18 *618:A 0.000374799
306 *348:26 *618:A 3.49812e-05
307 *363:12 *369:10 0.000289844
308 *363:12 *369:112 0.00159816
309 *366:14 *586:A 3.49812e-05
310 *367:8 *807:A1 0.000289844
*RES
1 *840:Q *369:8 15.1709 
2 *369:8 *369:10 2.886 
3 *369:10 *369:14 7.99928 
4 *369:14 *590:A 13.3224 
5 *369:14 *589:A1 9.3 
6 *369:10 *369:36 7.5303 
7 *369:36 *677:A1 9.3 
8 *369:36 *369:43 1.37085 
9 *369:43 *594:A 9.3 
10 *369:43 *728:A 12.7632 
11 *369:8 *369:59 2.27273 
12 *369:59 *369:61 4.5 
13 *369:61 *597:A1 10.256 
14 *369:61 *369:74 3.58947 
15 *369:74 *680:A1 23.0258 
16 *369:74 *593:A1 9.3 
17 *369:59 *369:92 1.1995 
18 *369:92 *369:96 3.89424 
19 *369:96 *369:100 3.82145 
20 *369:100 *369:106 1.65945 
21 *369:106 *369:112 11.1378 
22 *369:112 *369:122 12.4633 
23 *369:122 *369:128 11.5797 
24 *369:128 *586:A 23.5489 
25 *369:128 *674:A1 9.7329 
26 *369:122 *369:154 3.95924 
27 *369:154 *369:158 8.36003 
28 *369:158 *369:162 2.21862 
29 *369:162 *803:A1 9.3 
30 *369:162 *369:171 3.4632 
31 *369:171 *369:173 0.541126 
32 *369:173 *369:181 11.1558 
33 *369:181 *369:185 5.45599 
34 *369:185 *369:187 1.78571 
35 *369:187 *369:193 9.78499 
36 *369:193 *752:A 13.8 
37 *369:193 *369:202 4.72583 
38 *369:202 *369:204 0.4329 
39 *369:204 *629:A1 15.712 
40 *369:204 *369:219 2.81385 
41 *369:219 *638:A1 15.1889 
42 *369:219 *369:232 2.886 
43 *369:232 *369:234 4.5 
44 *369:234 *764:A 9.3 
45 *369:234 *369:243 3.04834 
46 *369:243 *763:A1 19.8873 
47 *369:243 *369:258 8.42352 
48 *369:258 *780:A 9.7329 
49 *369:258 *369:273 10.8939 
50 *369:273 *650:A1 9.3 
51 *369:273 *369:282 2.94012 
52 *369:282 *779:A1 9.7329 
53 *369:282 *369:295 5.03247 
54 *369:295 *369:299 4.70779 
55 *369:299 *369:303 3.04834 
56 *369:303 *618:A 19.6528 
57 *369:303 *369:316 2.20058 
58 *369:316 *734:A 25.3707 
59 *369:316 *783:A1 9.3 
60 *369:299 *784:A 9.3 
61 *369:295 *653:A1 9.3 
62 *369:232 *920:A 26.8772 
63 *369:202 *740:A 14.8823 
64 *369:187 *751:A1 9.3 
65 *369:185 *722:A 9.7329 
66 *369:181 *369:386 9.76696 
67 *369:386 *369:388 0.4329 
68 *369:388 *369:390 1.78571 
69 *369:390 *693:A1 9.3 
70 *369:390 *692:A 13.1961 
71 *369:388 *671:A1 11.5006 
72 *369:386 *710:A 9.3 
73 *369:173 *668:A1 23.9818 
74 *369:171 *804:A 9.3 
75 *369:162 *807:A1 24.09 
76 *369:158 *602:A 20.9154 
77 *369:154 *601:A1 15.6939 
78 *369:112 *683:A1 9.3 
79 *369:106 *716:A 13.8 
80 *369:100 *706:A1 15.6038 
81 *369:96 *598:A 17.7962 
82 *369:92 *617:A1 19.5991 
*END
