*SPEF "ieee 1481-1999"
*DESIGN "spm"
*DATE "01:49:45 Friday July 24, 2026"
*VENDOR "The OpenROAD Project"
*PROGRAM "OpenROAD"
*VERSION "26Q3-155-g1bade74e72"
// SI-BOUNDED SPEF (SETUP corner) — Miller-Coupling-Factor delay bound
// Cc*MCF folded to victim ground, MCF=2 in-window / 1 decoupled
// window overlap gated by OpenSTA arrival windows (guard=0.0ns; unknown window => assume overlap)
// CONSERVATIVE BOUND, not PrimeTime-SI iterative waveform delay; no glitch/noise analysis; NOT silicon-proven
*DESIGN_FLOW "NAME_SCOPE LOCAL" "PIN_CAP NONE"
*DIVIDER /
*DELIMITER :
*BUS_DELIMITER []
*T_UNIT 1 NS
*C_UNIT 1 PF
*R_UNIT 1 OHM
*L_UNIT 1 HENRY

*NAME_MAP
*39 _000_
*40 _001_
*41 _002_
*42 _003_
*43 _004_
*44 _005_
*45 _006_
*46 _007_
*47 _008_
*48 _009_
*49 _010_
*50 _011_
*51 _012_
*52 _013_
*53 _014_
*54 _015_
*55 _016_
*56 _017_
*57 _018_
*58 _019_
*59 _020_
*60 _021_
*61 _022_
*62 _023_
*63 _024_
*64 _025_
*65 _026_
*66 _027_
*67 _028_
*68 _029_
*69 _030_
*70 _031_
*71 _032_
*72 _033_
*73 _034_
*74 _035_
*75 _036_
*76 _037_
*77 _038_
*78 _039_
*79 _040_
*80 _041_
*81 _042_
*82 _043_
*83 _044_
*84 _045_
*85 _046_
*86 _047_
*87 _048_
*88 _049_
*89 _050_
*90 _051_
*91 _052_
*92 _053_
*93 _054_
*94 _055_
*95 _056_
*96 _057_
*97 _058_
*98 _059_
*99 _060_
*100 _061_
*101 _062_
*102 _063_
*103 _064_
*104 _065_
*105 _066_
*106 _067_
*107 _068_
*108 _069_
*109 _070_
*110 _071_
*111 _072_
*112 _073_
*113 _074_
*114 _075_
*115 _076_
*116 _077_
*117 _078_
*118 _079_
*119 _080_
*120 _081_
*121 _082_
*122 _083_
*123 _084_
*124 _085_
*125 _086_
*126 _087_
*127 _088_
*128 _089_
*129 _090_
*130 _091_
*131 _092_
*132 _093_
*133 _094_
*134 _095_
*135 _096_
*136 _097_
*137 _098_
*138 _099_
*139 _100_
*140 _101_
*141 _102_
*142 _103_
*143 _104_
*144 _105_
*145 _106_
*146 _107_
*147 _108_
*148 _109_
*149 _110_
*150 _111_
*151 _112_
*152 _113_
*153 _114_
*154 _115_
*155 _116_
*156 _117_
*157 _118_
*158 _119_
*159 _120_
*160 _121_
*161 _122_
*162 _123_
*163 _124_
*164 _125_
*165 _126_
*166 _127_
*167 _128_
*168 _129_
*169 _130_
*170 _131_
*171 _132_
*172 _133_
*173 _134_
*174 _135_
*175 _136_
*176 _137_
*177 _138_
*178 _139_
*179 _140_
*180 _141_
*181 _142_
*182 _143_
*183 _144_
*184 _145_
*185 _146_
*186 _147_
*187 _148_
*188 _149_
*189 _150_
*190 _151_
*191 _152_
*192 _153_
*193 _154_
*194 _155_
*195 _156_
*196 _157_
*197 _158_
*198 _159_
*199 _160_
*200 _161_
*201 _162_
*202 _163_
*203 _164_
*204 _165_
*205 _166_
*206 _167_
*207 _168_
*208 _169_
*209 _170_
*210 _171_
*211 _172_
*212 _173_
*213 _174_
*214 _175_
*215 _176_
*216 _177_
*217 _178_
*218 _179_
*219 _180_
*220 _181_
*221 _182_
*222 _183_
*223 _184_
*224 _185_
*225 _186_
*226 _187_
*227 _188_
*228 _189_
*229 _190_
*230 _191_
*231 _192_
*232 _193_
*233 _194_
*234 _195_
*235 _196_
*236 _197_
*237 _198_
*238 _199_
*239 _200_
*240 _201_
*241 _202_
*242 _203_
*243 _204_
*244 _205_
*245 _206_
*246 _207_
*247 _208_
*248 _209_
*249 _210_
*250 _211_
*251 _212_
*252 _213_
*253 _214_
*254 _215_
*255 _216_
*256 _217_
*257 _218_
*258 _219_
*259 _220_
*260 _221_
*261 c[0]
*262 c[10]
*263 c[11]
*264 c[12]
*265 c[13]
*266 c[14]
*267 c[15]
*268 c[16]
*269 c[17]
*270 c[18]
*271 c[19]
*272 c[1]
*273 c[20]
*274 c[21]
*275 c[22]
*276 c[23]
*277 c[24]
*278 c[25]
*279 c[26]
*280 c[27]
*281 c[28]
*282 c[29]
*283 c[2]
*284 c[30]
*285 c[31]
*286 c[3]
*287 c[4]
*288 c[5]
*289 c[6]
*290 c[7]
*291 c[8]
*292 c[9]
*1 clk
*293 clknet_0_clk
*294 clknet_3_0__leaf_clk
*295 clknet_3_1__leaf_clk
*296 clknet_3_2__leaf_clk
*297 clknet_3_3__leaf_clk
*298 clknet_3_4__leaf_clk
*299 clknet_3_5__leaf_clk
*300 clknet_3_6__leaf_clk
*301 clknet_3_7__leaf_clk
*302 net10
*303 net11
*304 net12
*305 net13
*306 net14
*307 net15
*308 net16
*309 net17
*310 net18
*311 net19
*312 net20
*313 net21
*314 net22
*315 net23
*316 net24
*317 net25
*318 net26
*319 net27
*320 net28
*321 net29
*322 net3
*323 net30
*324 net31
*325 net32
*326 net33
*327 net34
*328 net35
*329 net36
*330 net37
*331 net4
*332 net5
*333 net6
*334 net7
*335 net8
*336 net9
*2 p_reg
*3 rst
*337 s[0]
*338 s[10]
*339 s[11]
*340 s[12]
*341 s[13]
*342 s[14]
*343 s[15]
*344 s[16]
*345 s[17]
*346 s[18]
*347 s[19]
*348 s[1]
*349 s[20]
*350 s[21]
*351 s[22]
*352 s[23]
*353 s[24]
*354 s[25]
*355 s[26]
*356 s[27]
*357 s[28]
*358 s[29]
*359 s[2]
*360 s[30]
*361 s[3]
*362 s[4]
*363 s[5]
*364 s[6]
*365 s[7]
*366 s[8]
*367 s[9]
*368 spare_tielo
*4 x[0]
*5 x[10]
*6 x[11]
*7 x[12]
*8 x[13]
*9 x[14]
*10 x[15]
*11 x[16]
*12 x[17]
*13 x[18]
*14 x[19]
*15 x[1]
*16 x[20]
*17 x[21]
*18 x[22]
*19 x[23]
*20 x[24]
*21 x[25]
*22 x[26]
*23 x[27]
*24 x[28]
*25 x[29]
*26 x[2]
*27 x[30]
*28 x[31]
*29 x[3]
*30 x[4]
*31 x[5]
*32 x[6]
*33 x[7]
*34 x[8]
*35 x[9]
*36 y
*369 y_rep[0]
*370 FILLER_0_121
*371 FILLER_0_126
*372 FILLER_0_13
*373 FILLER_0_31
*374 FILLER_0_42
*375 FILLER_0_61
*376 FILLER_10_117
*377 FILLER_10_134
*378 FILLER_10_16
*379 FILLER_10_27
*380 FILLER_10_31
*381 FILLER_10_35
*382 FILLER_10_60
*383 FILLER_11_0
*384 FILLER_11_134
*385 FILLER_11_97
*386 FILLER_12_0
*387 FILLER_12_112
*388 FILLER_12_35
*389 FILLER_12_56
*390 FILLER_12_62
*391 FILLER_12_91
*392 FILLER_13_0
*393 FILLER_13_128
*394 FILLER_13_15
*395 FILLER_13_67
*396 FILLER_13_73
*397 FILLER_13_84
*398 FILLER_13_98
*399 FILLER_14_111
*400 FILLER_14_28
*401 FILLER_14_51
*402 FILLER_14_68
*403 FILLER_14_74
*404 FILLER_14_81
*405 FILLER_14_89
*406 FILLER_14_91
*407 FILLER_14_97
*408 FILLER_15_0
*409 FILLER_15_109
*410 FILLER_15_19
*411 FILLER_15_26
*412 FILLER_15_33
*413 FILLER_15_51
*414 FILLER_15_55
*415 FILLER_15_61
*416 FILLER_15_7
*417 FILLER_15_70
*418 FILLER_15_84
*419 FILLER_16_110
*420 FILLER_16_16
*421 FILLER_16_23
*422 FILLER_16_35
*423 FILLER_16_45
*424 FILLER_16_55
*425 FILLER_16_72
*426 FILLER_16_84
*427 FILLER_16_91
*428 FILLER_16_99
*429 FILLER_17_16
*430 FILLER_17_28
*431 FILLER_17_36
*432 FILLER_17_48
*433 FILLER_17_54
*434 FILLER_17_61
*435 FILLER_18_0
*436 FILLER_18_100
*437 FILLER_18_27
*438 FILLER_18_72
*439 FILLER_18_78
*440 FILLER_18_8
*441 FILLER_19_134
*442 FILLER_19_16
*443 FILLER_19_37
*444 FILLER_19_45
*445 FILLER_19_53
*446 FILLER_19_57
*447 FILLER_19_61
*448 FILLER_19_67
*449 FILLER_1_135
*450 FILLER_1_19
*451 FILLER_1_46
*452 FILLER_1_59
*453 FILLER_1_61
*454 FILLER_1_79
*455 FILLER_20_113
*456 FILLER_20_23
*457 FILLER_20_31
*458 FILLER_20_44
*459 FILLER_20_70
*460 FILLER_20_87
*461 FILLER_21_0
*462 FILLER_21_131
*463 FILLER_21_31
*464 FILLER_21_40
*465 FILLER_21_58
*466 FILLER_21_6
*467 FILLER_21_61
*468 FILLER_21_65
*469 FILLER_21_70
*470 FILLER_21_76
*471 FILLER_21_81
*472 FILLER_21_89
*473 FILLER_21_91
*474 FILLER_21_95
*475 FILLER_2_0
*476 FILLER_2_11
*477 FILLER_2_66
*478 FILLER_3_0
*479 FILLER_3_100
*480 FILLER_3_118
*481 FILLER_3_12
*482 FILLER_3_121
*483 FILLER_3_47
*484 FILLER_3_57
*485 FILLER_3_61
*486 FILLER_3_67
*487 FILLER_3_72
*488 FILLER_4_102
*489 FILLER_4_125
*490 FILLER_4_16
*491 FILLER_4_28
*492 FILLER_4_31
*493 FILLER_4_48
*494 FILLER_4_79
*495 FILLER_4_91
*496 FILLER_5_100
*497 FILLER_5_118
*498 FILLER_5_121
*499 FILLER_5_134
*500 FILLER_5_16
*501 FILLER_5_59
*502 FILLER_5_69
*503 FILLER_5_81
*504 FILLER_6_107
*505 FILLER_6_13
*506 FILLER_6_31
*507 FILLER_6_51
*508 FILLER_6_77
*509 FILLER_7_0
*510 FILLER_7_118
*511 FILLER_7_12
*512 FILLER_7_121
*513 FILLER_7_132
*514 FILLER_7_18
*515 FILLER_7_41
*516 FILLER_7_45
*517 FILLER_7_53
*518 FILLER_7_57
*519 FILLER_7_61
*520 FILLER_7_76
*521 FILLER_8_0
*522 FILLER_8_13
*523 FILLER_8_17
*524 FILLER_8_28
*525 FILLER_8_37
*526 FILLER_8_47
*527 FILLER_8_54
*528 FILLER_8_69
*529 FILLER_8_78
*530 FILLER_8_82
*531 FILLER_8_91
*532 FILLER_9_0
*533 FILLER_9_119
*534 FILLER_9_22
*535 FILLER_9_43
*536 FILLER_9_58
*537 FILLER_9_77
*538 TAP_TAPCELL_ROW_0_0
*539 TAP_TAPCELL_ROW_0_1
*540 TAP_TAPCELL_ROW_0_2
*541 TAP_TAPCELL_ROW_0_3
*542 TAP_TAPCELL_ROW_10_22
*543 TAP_TAPCELL_ROW_10_23
*544 TAP_TAPCELL_ROW_11_24
*545 TAP_TAPCELL_ROW_11_25
*546 TAP_TAPCELL_ROW_12_26
*547 TAP_TAPCELL_ROW_12_27
*548 TAP_TAPCELL_ROW_13_28
*549 TAP_TAPCELL_ROW_13_29
*550 TAP_TAPCELL_ROW_14_30
*551 TAP_TAPCELL_ROW_14_31
*552 TAP_TAPCELL_ROW_15_32
*553 TAP_TAPCELL_ROW_15_33
*554 TAP_TAPCELL_ROW_16_34
*555 TAP_TAPCELL_ROW_16_35
*556 TAP_TAPCELL_ROW_17_36
*557 TAP_TAPCELL_ROW_17_37
*558 TAP_TAPCELL_ROW_18_38
*559 TAP_TAPCELL_ROW_18_39
*560 TAP_TAPCELL_ROW_19_40
*561 TAP_TAPCELL_ROW_19_41
*562 TAP_TAPCELL_ROW_1_4
*563 TAP_TAPCELL_ROW_1_5
*564 TAP_TAPCELL_ROW_20_42
*565 TAP_TAPCELL_ROW_20_43
*566 TAP_TAPCELL_ROW_21_44
*567 TAP_TAPCELL_ROW_21_45
*568 TAP_TAPCELL_ROW_21_46
*569 TAP_TAPCELL_ROW_21_47
*570 TAP_TAPCELL_ROW_2_6
*571 TAP_TAPCELL_ROW_2_7
*572 TAP_TAPCELL_ROW_3_8
*573 TAP_TAPCELL_ROW_3_9
*574 TAP_TAPCELL_ROW_4_10
*575 TAP_TAPCELL_ROW_4_11
*576 TAP_TAPCELL_ROW_5_12
*577 TAP_TAPCELL_ROW_5_13
*578 TAP_TAPCELL_ROW_6_14
*579 TAP_TAPCELL_ROW_6_15
*580 TAP_TAPCELL_ROW_7_16
*581 TAP_TAPCELL_ROW_7_17
*582 TAP_TAPCELL_ROW_8_18
*583 TAP_TAPCELL_ROW_8_19
*584 TAP_TAPCELL_ROW_9_20
*585 TAP_TAPCELL_ROW_9_21
*586 _222_
*587 _223_
*588 _224_
*589 _225_
*590 _226_
*591 _227_
*592 _228_
*593 _229_
*594 _230_
*595 _231_
*596 _232_
*597 _233_
*598 _234_
*599 _235_
*600 _236_
*601 _237_
*602 _238_
*603 _239_
*604 _240_
*605 _241_
*606 _242_
*607 _243_
*608 _244_
*609 _245_
*610 _246_
*611 _247_
*612 _248_
*613 _249_
*614 _250_
*615 _251_
*616 _252_
*617 _253_
*618 _254_
*619 _255_
*620 _256_
*621 _257_
*622 _258_
*623 _259_
*624 _260_
*625 _261_
*626 _262_
*627 _263_
*628 _264_
*629 _265_
*630 _266_
*631 _267_
*632 _268_
*633 _269_
*634 _270_
*635 _271_
*636 _272_
*637 _273_
*638 _274_
*639 _275_
*640 _276_
*641 _277_
*642 _278_
*643 _279_
*644 _280_
*645 _281_
*646 _282_
*647 _283_
*648 _284_
*649 _285_
*650 _286_
*651 _287_
*652 _288_
*653 _289_
*654 _290_
*655 _291_
*656 _292_
*657 _293_
*658 _294_
*659 _295_
*660 _296_
*661 _297_
*662 _298_
*663 _299_
*664 _300_
*665 _301_
*666 _302_
*667 _303_
*668 _304_
*669 _305_
*670 _306_
*671 _307_
*672 _308_
*673 _309_
*674 _310_
*675 _311_
*676 _312_
*677 _313_
*678 _314_
*679 _315_
*680 _316_
*681 _317_
*682 _318_
*683 _319_
*684 _320_
*685 _321_
*686 _322_
*687 _323_
*688 _324_
*689 _325_
*690 _326_
*691 _327_
*692 _328_
*693 _329_
*694 _330_
*695 _331_
*696 _332_
*697 _333_
*698 _334_
*699 _335_
*700 _336_
*701 _337_
*702 _338_
*703 _339_
*704 _340_
*705 _341_
*706 _342_
*707 _343_
*708 _344_
*709 _345_
*710 _346_
*711 _347_
*712 _348_
*713 _349_
*714 _350_
*715 _351_
*716 _352_
*717 _353_
*718 _354_
*719 _355_
*720 _356_
*721 _357_
*722 _358_
*723 _359_
*724 _360_
*725 _361_
*726 _362_
*727 _363_
*728 _364_
*729 _365_
*730 _366_
*731 _367_
*732 _368_
*733 _369_
*734 _370_
*735 _371_
*736 _372_
*737 _373_
*738 _374_
*739 _375_
*740 _376_
*741 _377_
*742 _378_
*743 _379_
*744 _380_
*745 _381_
*746 _382_
*747 _383_
*748 _384_
*749 _385_
*750 _386_
*751 _387_
*752 _388_
*753 _389_
*754 _390_
*755 _391_
*756 _392_
*757 _393_
*758 _394_
*759 _395_
*760 _396_
*761 _397_
*762 _398_
*763 _399_
*764 _400_
*765 _401_
*766 _402_
*767 _403_
*768 _404_
*769 _405_
*770 _406_
*771 _407_
*772 _408_
*773 _409_
*774 _410_
*775 _411_
*776 _412_
*777 _413_
*778 _414_
*779 _415_
*780 _416_
*781 _417_
*782 _418_
*783 _419_
*784 _420_
*785 _421_
*786 _422_
*787 _423_
*788 _424_
*789 _425_
*790 _426_
*791 _427_
*792 _428_
*793 _429_
*794 _430_
*795 _431_
*796 _432_
*797 _433_
*798 _434_
*799 _435_
*800 _436_
*801 _437_
*802 _438_
*803 _439_
*804 _440_
*805 _441_
*806 _442_
*807 _443_
*808 _444_
*809 _445_
*810 _446_
*811 _447_
*812 _448_
*813 _449_
*814 _450_
*815 _451_
*816 _452_
*817 _453_
*818 _454_
*819 _455_
*820 _456_
*821 _457_
*822 _458_
*823 _459_
*824 _460_
*825 _461_
*826 _462_
*827 _463_
*828 _464_
*829 _465_
*830 _466_
*831 _467_
*832 _468_
*833 _469_
*834 _470_
*835 _471_
*836 _472_
*837 _473_
*838 _474_
*839 _475_
*840 _476_
*841 _477_
*842 _478_
*843 _479_
*844 _480_
*845 _481_
*846 _482_
*847 _483_
*848 _484_
*849 _485_
*850 _486_
*851 _487_
*852 _488_
*853 _489_
*854 _490_
*855 _491_
*856 _492_
*857 _493_
*858 _494_
*859 _495_
*860 _496_
*861 _497_
*862 _498_
*863 _499_
*864 _500_
*865 _501_
*866 _502_
*867 _503_
*868 _504_
*869 _505_
*870 _506_
*871 _507_
*872 _508_
*873 clkbuf_0_clk
*874 clkbuf_3_0__f_clk
*875 clkbuf_3_1__f_clk
*876 clkbuf_3_2__f_clk
*877 clkbuf_3_3__f_clk
*878 clkbuf_3_4__f_clk
*879 clkbuf_3_5__f_clk
*880 clkbuf_3_6__f_clk
*881 clkbuf_3_7__f_clk
*882 clkload0
*883 clkload1
*884 clkload2
*885 clkload3
*886 input10
*887 input11
*888 input12
*889 input13
*890 input14
*891 input15
*892 input16
*893 input17
*894 input18
*895 input19
*896 input20
*897 input21
*898 input22
*899 input23
*900 input24
*901 input25
*902 input26
*903 input27
*904 input28
*905 input29
*906 input30
*907 input31
*908 input32
*909 input33
*910 input34
*911 input35
*912 input36
*913 input37
*914 input4
*915 input5
*916 input6
*917 input7
*918 input8
*919 input9
*920 place3
*921 spare_aoi_0
*922 spare_dff_0
*923 spare_inverter_0
*924 spare_mux2_0
*925 spare_nand2_0
*926 spare_nor2_0
*927 spare_tielo_drv

*PORTS
clk I
p O
rst I
x[0] I
x[10] I
x[11] I
x[12] I
x[13] I
x[14] I
x[15] I
x[16] I
x[17] I
x[18] I
x[19] I
x[1] I
x[20] I
x[21] I
x[22] I
x[23] I
x[24] I
x[25] I
x[26] I
x[27] I
x[28] I
x[29] I
x[2] I
x[30] I
x[31] I
x[3] I
x[4] I
x[5] I
x[6] I
x[7] I
x[8] I
x[9] I
y I

*D_NET *39 0.00365792
*CONN
*I *865:D I *D sky130_fd_sc_hd__dfxtp_1
*I *628:Y O *D sky130_fd_sc_hd__nor3_1
*CAP
1 *865:D 0.00132692
2 *628:Y 0.00132692
4 *865:D 0.00100408
*RES
1 *628:Y *865:D 25.8736 
*END

*D_NET *40 0.00262717
*CONN
*I *864:D I *D sky130_fd_sc_hd__dfxtp_1
*I *631:Y O *D sky130_fd_sc_hd__nor3_1
*CAP
1 *864:D 0.000256817
2 *631:Y 0.000256817
6 *864:D 0.00211353
*RES
1 *631:Y *864:D 31.194 
*END

*D_NET *41 0.00127312
*CONN
*I *863:D I *D sky130_fd_sc_hd__dfxtp_1
*I *634:Y O *D sky130_fd_sc_hd__nor3_1
*CAP
1 *863:D 0.000237152
2 *634:Y 0.000237152
6 *863:D 0.000798814
*RES
1 *634:Y *863:D 29.9674 
*END

*D_NET *42 0.0026887
*CONN
*I *862:D I *D sky130_fd_sc_hd__dfxtp_1
*I *637:Y O *D sky130_fd_sc_hd__nor3_1
*CAP
1 *862:D 0.000254932
2 *637:Y 0.000254932
6 *862:D 0.00217883
*RES
1 *637:Y *862:D 31.3924 
*END

*D_NET *43 0.01006
*CONN
*I *861:D I *D sky130_fd_sc_hd__dfxtp_1
*I *640:Y O *D sky130_fd_sc_hd__nor3_1
*CAP
1 *861:D 0.000129187
2 *640:Y 0.000129187
10 *861:D 0.00980166
*RES
1 *640:Y *861:D 34.2604 
*END

*D_NET *44 0.00188673
*CONN
*I *860:D I *D sky130_fd_sc_hd__dfxtp_1
*I *643:Y O *D sky130_fd_sc_hd__nor3_1
*CAP
1 *860:D 0.000189703
2 *643:Y 0.000189703
6 *860:D 0.00150732
*RES
1 *643:Y *860:D 30.2741 
*END

*D_NET *45 0.00758958
*CONN
*I *859:D I *D sky130_fd_sc_hd__dfxtp_1
*I *646:Y O *D sky130_fd_sc_hd__nor3_1
*CAP
1 *859:D 3.86185e-05
2 *646:Y 3.86185e-05
7 *859:D 0.00751234
*RES
1 *646:Y *859:D 30.9775 
*END

*D_NET *46 0.0188476
*CONN
*I *858:D I *D sky130_fd_sc_hd__dfxtp_1
*I *649:Y O *D sky130_fd_sc_hd__nor3_1
*CAP
1 *858:D 0.00031426
2 *649:Y 0.00031426
9 *858:D 0.0182191
*RES
1 *649:Y *858:D 36.7856 
*END

*D_NET *47 0.00127325
*CONN
*I *857:D I *D sky130_fd_sc_hd__dfxtp_1
*I *652:Y O *D sky130_fd_sc_hd__nor3_1
*CAP
1 *857:D 0.000287634
2 *652:Y 0.000287634
7 *857:D 0.000697982
*RES
1 *652:Y *857:D 30.2741 
*END

*D_NET *48 0.00384467
*CONN
*I *856:D I *D sky130_fd_sc_hd__dfxtp_1
*I *655:Y O *D sky130_fd_sc_hd__nor3_1
*CAP
1 *856:D 0.000138703
2 *655:Y 0.000138703
8 *856:D 0.00356726
*RES
1 *655:Y *856:D 29.9494 
*END

*D_NET *49 0.0014213
*CONN
*I *855:D I *D sky130_fd_sc_hd__dfxtp_1
*I *658:Y O *D sky130_fd_sc_hd__nor3_1
*CAP
1 *855:D 9.90533e-05
2 *658:Y 9.90533e-05
6 *855:D 0.0012232
*RES
1 *658:Y *855:D 29.769 
*END

*D_NET *50 0.00501613
*CONN
*I *854:D I *D sky130_fd_sc_hd__dfxtp_1
*I *661:Y O *D sky130_fd_sc_hd__nor3_1
*CAP
1 *854:D 0.000205875
2 *661:Y 0.000205875
7 *854:D 0.00460438
*RES
1 *661:Y *854:D 32.2221 
*END

*D_NET *51 0.0066704
*CONN
*I *853:D I *D sky130_fd_sc_hd__dfxtp_1
*I *664:Y O *D sky130_fd_sc_hd__nor3_1
*CAP
1 *853:D 0.000237876
2 *664:Y 0.000237876
9 *853:D 0.00619465
*RES
1 *664:Y *853:D 33.0518 
*END

*D_NET *52 0.0105731
*CONN
*I *852:D I *D sky130_fd_sc_hd__dfxtp_1
*I *667:Y O *D sky130_fd_sc_hd__nor3_1
*CAP
1 *852:D 0.000499401
2 *667:Y 0.000499401
6 *852:D 0.00957428
*RES
1 *667:Y *852:D 24.593 
*END

*D_NET *53 0.00517788
*CONN
*I *851:D I *D sky130_fd_sc_hd__dfxtp_1
*I *670:Y O *D sky130_fd_sc_hd__nor3_1
*CAP
1 *851:D 0.000337374
2 *670:Y 0.000337374
8 *851:D 0.00450313
*RES
1 *670:Y *851:D 34.0259 
*END

*D_NET *54 0.00511472
*CONN
*I *850:D I *D sky130_fd_sc_hd__dfxtp_1
*I *673:Y O *D sky130_fd_sc_hd__nor3_1
*CAP
1 *850:D 0.000158954
2 *673:Y 0.000158954
6 *850:D 0.00479681
*RES
1 *673:Y *850:D 30.9775 
*END

*D_NET *55 0.00475617
*CONN
*I *849:D I *D sky130_fd_sc_hd__dfxtp_1
*I *676:Y O *D sky130_fd_sc_hd__nor3_1
*CAP
1 *849:D 0.000341754
2 *676:Y 0.000341754
7 *849:D 0.00407266
*RES
1 *676:Y *849:D 31.3879 
*END

*D_NET *56 0.00505246
*CONN
*I *848:D I *D sky130_fd_sc_hd__dfxtp_1
*I *679:Y O *D sky130_fd_sc_hd__nor3_1
*CAP
1 *848:D 0.000198508
2 *679:Y 0.000198508
6 *848:D 0.00465545
*RES
1 *679:Y *848:D 31.194 
*END

*D_NET *57 0.00909748
*CONN
*I *847:D I *D sky130_fd_sc_hd__dfxtp_1
*I *682:Y O *D sky130_fd_sc_hd__nor3_1
*CAP
1 *847:D 8.33241e-05
2 *682:Y 8.33241e-05
7 *847:D 0.00893083
*RES
1 *682:Y *847:D 31.194 
*END

*D_NET *58 0.00831347
*CONN
*I *846:D I *D sky130_fd_sc_hd__dfxtp_1
*I *685:Y O *D sky130_fd_sc_hd__nor3_1
*CAP
1 *846:D 0.000178581
2 *685:Y 0.000178581
10 *846:D 0.00795631
*RES
1 *685:Y *846:D 32.5468 
*END

*D_NET *59 0.00334449
*CONN
*I *845:D I *D sky130_fd_sc_hd__dfxtp_1
*I *688:Y O *D sky130_fd_sc_hd__nor3_1
*CAP
1 *845:D 0.000589435
2 *688:Y 0.000589435
6 *845:D 0.00216562
*RES
1 *688:Y *845:D 24.593 
*END

*D_NET *60 0.00472256
*CONN
*I *844:D I *D sky130_fd_sc_hd__dfxtp_1
*I *691:Y O *D sky130_fd_sc_hd__nor3_1
*CAP
1 *844:D 0.000615544
2 *691:Y 0.000615544
5 *844:D 0.00349147
*RES
1 *691:Y *844:D 24.593 
*END

*D_NET *61 0.00571292
*CONN
*I *839:D I *D sky130_fd_sc_hd__dfxtp_1
*I *694:Y O *D sky130_fd_sc_hd__nor3_1
*CAP
1 *839:D 0.000404271
2 *694:Y 0.000404271
6 *839:D 0.00490438
*RES
1 *694:Y *839:D 34.7113 
*END

*D_NET *62 0.0168815
*CONN
*I *840:D I *D sky130_fd_sc_hd__dfxtp_4
*I *695:Y O *D sky130_fd_sc_hd__nor2b_1
*CAP
1 *840:D 0.000847756
2 *695:Y 0.000847756
8 *840:D 0.015186
*RES
1 *695:Y *840:D 28.719 
*END

*D_NET *63 0.0110507
*CONN
*I *808:D I *D sky130_fd_sc_hd__dfxtp_1
*I *701:Y O *D sky130_fd_sc_hd__nor2_1
*CAP
1 *808:D 0.000169477
2 *701:Y 0.000169477
6 *808:D 0.0107117
*RES
1 *701:Y *808:D 33.9898 
*END

*D_NET *64 0.00750399
*CONN
*I *872:D I *D sky130_fd_sc_hd__dfxtp_1
*I *702:Y O *D sky130_fd_sc_hd__nor2b_1
*CAP
1 *872:D 0.000198398
2 *702:Y 0.000198398
6 *872:D 0.00710719
*RES
1 *702:Y *872:D 32.2221 
*END

*D_NET *65 0.00101269
*CONN
*I *843:D I *D sky130_fd_sc_hd__dfxtp_1
*I *705:Y O *D sky130_fd_sc_hd__nor3_1
*CAP
1 *843:D 0.000238493
2 *705:Y 0.000238493
6 *843:D 0.0005357
*RES
1 *705:Y *843:D 30.9775 
*END

*D_NET *66 0.0115304
*CONN
*I *842:D I *D sky130_fd_sc_hd__dfxtp_1
*I *708:Y O *D sky130_fd_sc_hd__nor3_1
*CAP
1 *842:D 0.000111321
2 *708:Y 0.000111321
8 *842:D 0.0113077
*RES
1 *708:Y *842:D 31.8433 
*END

*D_NET *67 0.00393298
*CONN
*I *841:D I *D sky130_fd_sc_hd__dfxtp_1
*I *709:Y O *D sky130_fd_sc_hd__a211oi_1
*CAP
1 *841:D 6.83728e-05
2 *709:Y 6.83728e-05
5 *841:D 0.00379624
*RES
1 *709:Y *841:D 20.2459 
*END

*D_NET *68 0.0135339
*CONN
*I *838:D I *D sky130_fd_sc_hd__dfxtp_1
*I *715:Y O *D sky130_fd_sc_hd__nor2_1
*CAP
1 *838:D 0.001295
2 *715:Y 0.001295
9 *838:D 0.0109439
*RES
1 *715:Y *838:D 41.2409 
*END

*D_NET *69 0.00651439
*CONN
*I *837:D I *D sky130_fd_sc_hd__dfxtp_1
*I *721:Y O *D sky130_fd_sc_hd__nor2_1
*CAP
1 *837:D 0.00084259
2 *721:Y 0.00084259
10 *837:D 0.00482921
*RES
1 *721:Y *837:D 38.878 
*END

*D_NET *70 0.000559728
*CONN
*I *836:D I *D sky130_fd_sc_hd__dfxtp_1
*I *727:Y O *D sky130_fd_sc_hd__nor2_1
*CAP
1 *836:D 8.64192e-05
2 *727:Y 8.64192e-05
5 *836:D 0.00038689
*RES
1 *727:Y *836:D 29.1197 
*END

*D_NET *71 0.000808966
*CONN
*I *835:D I *D sky130_fd_sc_hd__dfxtp_1
*I *733:Y O *D sky130_fd_sc_hd__nor2_1
*CAP
1 *835:D 0.000377099
2 *733:Y 0.000377099
5 *835:D 5.4768e-05
*RES
1 *733:Y *835:D 30.973 
*END

*D_NET *72 0.00599777
*CONN
*I *834:D I *D sky130_fd_sc_hd__dfxtp_1
*I *739:Y O *D sky130_fd_sc_hd__nor2_1
*CAP
1 *834:D 0.000659032
2 *739:Y 0.000659032
7 *834:D 0.00467971
*RES
1 *739:Y *834:D 34.1882 
*END

*D_NET *73 0.00044172
*CONN
*I *833:D I *D sky130_fd_sc_hd__dfxtp_1
*I *745:Y O *D sky130_fd_sc_hd__nor2_1
*CAP
1 *833:D 0.00022086
2 *745:Y 0.00022086
*RES
1 *745:Y *833:D 29.9494 
*END

*D_NET *74 0.0199351
*CONN
*I *832:D I *D sky130_fd_sc_hd__dfxtp_1
*I *749:Y O *D sky130_fd_sc_hd__nor3_1
*CAP
1 *832:D 0
2 *749:Y 0.00122807
3 *74:14 0.00122807
23 *832:D 0.017479
*RES
1 *749:Y *74:14 46.7316 
2 *74:14 *832:D 9.3 
*END

*D_NET *75 0.041133
*CONN
*I *831:D I *D sky130_fd_sc_hd__dfxtp_1
*I *753:Y O *D sky130_fd_sc_hd__nor3_2
*CAP
1 *831:D 0.00141972
2 *753:Y 0.0010802
3 *75:12 0.00249991
22 *831:D 0.0361332
*RES
1 *753:Y *75:12 34.624 
2 *75:12 *831:D 27.306 
*END

*D_NET *76 0.0116018
*CONN
*I *830:D I *D sky130_fd_sc_hd__dfxtp_1
*I *757:Y O *D sky130_fd_sc_hd__nor3_1
*CAP
1 *830:D 0.00128046
2 *757:Y 0.00128046
16 *830:D 0.00904093
*RES
1 *757:Y *830:D 46.1832 
*END

*D_NET *77 0.0298391
*CONN
*I *829:D I *D sky130_fd_sc_hd__dfxtp_1
*I *761:Y O *D sky130_fd_sc_hd__nor3_1
*CAP
1 *829:D 1.5455e-05
2 *761:Y 0.00114966
3 *77:10 0.00116512
30 *829:D 0.0275088
*RES
1 *761:Y *77:10 45.546 
2 *77:10 *829:D 13.9668 
*END

*D_NET *78 0.0103614
*CONN
*I *828:D I *D sky130_fd_sc_hd__dfxtp_1
*I *765:Y O *D sky130_fd_sc_hd__nor3_1
*CAP
1 *828:D 0.000539658
2 *765:Y 0.000539658
9 *828:D 0.00928206
*RES
1 *765:Y *828:D 34.2919 
*END

*D_NET *79 0.0044543
*CONN
*I *827:D I *D sky130_fd_sc_hd__dfxtp_1
*I *769:Y O *D sky130_fd_sc_hd__nor3_1
*CAP
1 *827:D 0.00010552
2 *769:Y 0.00010552
8 *827:D 0.00424326
*RES
1 *769:Y *827:D 30.7611 
*END

*D_NET *80 0.0315329
*CONN
*I *826:D I *D sky130_fd_sc_hd__dfxtp_1
*I *773:Y O *D sky130_fd_sc_hd__nor3_1
*CAP
1 *826:D 0.00371065
2 *773:Y 0.00371065
19 *826:D 0.0241116
*RES
1 *773:Y *826:D 46.7791 
*END

*D_NET *81 0.013094
*CONN
*I *825:D I *D sky130_fd_sc_hd__dfxtp_1
*I *777:Y O *D sky130_fd_sc_hd__nor3_1
*CAP
1 *825:D 0.000706849
2 *777:Y 0.000706849
22 *825:D 0.0116803
*RES
1 *777:Y *825:D 43.5316 
*END

*D_NET *82 0.00512002
*CONN
*I *824:D I *D sky130_fd_sc_hd__dfxtp_1
*I *781:Y O *D sky130_fd_sc_hd__nor3_1
*CAP
1 *824:D 6.84571e-05
2 *781:Y 6.84571e-05
7 *824:D 0.00498311
*RES
1 *781:Y *824:D 30.4319 
*END

*D_NET *83 0.00454878
*CONN
*I *823:D I *D sky130_fd_sc_hd__dfxtp_1
*I *785:Y O *D sky130_fd_sc_hd__nor3_1
*CAP
1 *823:D 0.000385403
2 *785:Y 0.000385403
5 *823:D 0.00377797
*RES
1 *785:Y *823:D 32.9436 
*END

*D_NET *84 0.0109098
*CONN
*I *822:D I *D sky130_fd_sc_hd__dfxtp_1
*I *789:Y O *D sky130_fd_sc_hd__nor3_1
*CAP
1 *822:D 0.00018023
2 *789:Y 0.00018023
9 *822:D 0.0105493
*RES
1 *789:Y *822:D 34.8556 
*END

*D_NET *85 0.0158827
*CONN
*I *821:D I *D sky130_fd_sc_hd__dfxtp_1
*I *793:Y O *D sky130_fd_sc_hd__nor3_1
*CAP
1 *821:D 0.00305097
2 *793:Y 0.00305097
13 *821:D 0.0097808
*RES
1 *793:Y *821:D 43.4415 
*END

*D_NET *86 0.00431473
*CONN
*I *820:D I *D sky130_fd_sc_hd__dfxtp_1
*I *797:Y O *D sky130_fd_sc_hd__nor3_1
*CAP
1 *820:D 0.000378102
2 *797:Y 0.000378102
6 *820:D 0.00355852
*RES
1 *797:Y *820:D 32.8534 
*END

*D_NET *87 0.00580023
*CONN
*I *819:D I *D sky130_fd_sc_hd__dfxtp_1
*I *801:Y O *D sky130_fd_sc_hd__nor3_1
*CAP
1 *819:D 0.00136278
2 *801:Y 0.00136278
14 *819:D 0.00307467
*RES
1 *801:Y *819:D 43.7842 
*END

*D_NET *88 0.00306481
*CONN
*I *818:D I *D sky130_fd_sc_hd__dfxtp_1
*I *805:Y O *D sky130_fd_sc_hd__nor3_1
*CAP
1 *818:D 0.000108079
2 *805:Y 0.000108079
6 *818:D 0.00284865
*RES
1 *805:Y *818:D 29.9494 
*END

*D_NET *89 0.00643743
*CONN
*I *817:D I *D sky130_fd_sc_hd__dfxtp_1
*I *587:Y O *D sky130_fd_sc_hd__nor3_1
*CAP
1 *817:D 0.000136912
2 *587:Y 0.000136912
10 *817:D 0.00616361
*RES
1 *587:Y *817:D 33.4306 
*END

*D_NET *90 0.000800413
*CONN
*I *816:D I *D sky130_fd_sc_hd__dfxtp_1
*I *591:Y O *D sky130_fd_sc_hd__nor3_1
*CAP
1 *816:D 0.000175448
2 *591:Y 0.000175448
9 *816:D 0.000449517
*RES
1 *591:Y *816:D 29.7329 
*END

*D_NET *91 0.0174275
*CONN
*I *815:D I *D sky130_fd_sc_hd__dfxtp_1
*I *595:Y O *D sky130_fd_sc_hd__nor3_1
*CAP
1 *815:D 0.000170268
2 *595:Y 0.000170268
10 *815:D 0.0170869
*RES
1 *595:Y *815:D 35.3065 
*END

*D_NET *92 0.00888639
*CONN
*I *814:D I *D sky130_fd_sc_hd__dfxtp_1
*I *599:Y O *D sky130_fd_sc_hd__nor3_1
*CAP
1 *814:D 0.000342566
2 *599:Y 0.000342566
8 *814:D 0.00820126
*RES
1 *599:Y *814:D 35.5771 
*END

*D_NET *93 0.00346626
*CONN
*I *813:D I *D sky130_fd_sc_hd__dfxtp_1
*I *603:Y O *D sky130_fd_sc_hd__nor3_1
*CAP
1 *813:D 2.79487e-05
2 *603:Y 2.79487e-05
7 *813:D 0.00341036
*RES
1 *603:Y *813:D 29.7329 
*END

*D_NET *94 0.021798
*CONN
*I *812:D I *D sky130_fd_sc_hd__dfxtp_1
*I *607:Y O *D sky130_fd_sc_hd__nor3_1
*CAP
1 *812:D 0.00163462
2 *607:Y 0.00163462
16 *812:D 0.0185288
*RES
1 *607:Y *812:D 46.9227 
*END

*D_NET *95 0.00139884
*CONN
*I *811:D I *D sky130_fd_sc_hd__dfxtp_1
*I *611:Y O *D sky130_fd_sc_hd__nor3_1
*CAP
1 *811:D 4.58909e-05
2 *611:Y 4.58909e-05
6 *811:D 0.00130706
*RES
1 *611:Y *811:D 29.1197 
*END

*D_NET *96 0.00820044
*CONN
*I *810:D I *D sky130_fd_sc_hd__dfxtp_1
*I *615:Y O *D sky130_fd_sc_hd__nor3_1
*CAP
1 *810:D 0.000941493
2 *615:Y 0.000941493
11 *810:D 0.00631745
*RES
1 *615:Y *810:D 38.0843 
*END

*D_NET *97 0.00471558
*CONN
*I *809:D I *D sky130_fd_sc_hd__dfxtp_1
*I *619:Y O *D sky130_fd_sc_hd__nor3_1
*CAP
1 *809:D 0.000482135
2 *619:Y 0.000482135
9 *809:D 0.00375131
*RES
1 *619:Y *809:D 31.5547 
*END

*D_NET *98 0.0127254
*CONN
*I *871:D I *D sky130_fd_sc_hd__dfxtp_1
*I *620:Y O *D sky130_fd_sc_hd__a211oi_1
*CAP
1 *871:D 0.000499199
2 *620:Y 0.000499199
13 *871:D 0.011727
*RES
1 *620:Y *871:D 37.0922 
*END

*D_NET *99 0.00340339
*CONN
*I *870:D I *D sky130_fd_sc_hd__dfxtp_1
*I *621:Y O *D sky130_fd_sc_hd__a211oi_1
*CAP
1 *870:D 0.000428228
2 *621:Y 0.000428228
7 *870:D 0.00254693
*RES
1 *621:Y *870:D 33.5749 
*END

*D_NET *100 0.0103579
*CONN
*I *869:D I *D sky130_fd_sc_hd__dfxtp_1
*I *622:Y O *D sky130_fd_sc_hd__a211oi_1
*CAP
1 *869:D 0.000217154
2 *622:Y 0.000217154
7 *869:D 0.00992363
*RES
1 *622:Y *869:D 32.3303 
*END

*D_NET *101 0.0118784
*CONN
*I *868:D I *D sky130_fd_sc_hd__dfxtp_1
*I *623:Y O *D sky130_fd_sc_hd__a211oi_1
*CAP
1 *868:D 0.000400132
2 *623:Y 0.000400132
11 *868:D 0.0110782
*RES
1 *623:Y *868:D 35.3246 
*END

*D_NET *102 0.0177389
*CONN
*I *867:D I *D sky130_fd_sc_hd__dfxtp_1
*I *624:Y O *D sky130_fd_sc_hd__a211oi_1
*CAP
1 *867:D 0.000377509
2 *624:Y 0.000377509
13 *867:D 0.0169839
*RES
1 *624:Y *867:D 40.1721 
*END

*D_NET *103 0.0123587
*CONN
*I *866:D I *D sky130_fd_sc_hd__dfxtp_1
*I *625:Y O *D sky130_fd_sc_hd__a211oi_1
*CAP
1 *866:D 0.00153874
2 *625:Y 0.00153874
14 *866:D 0.00928122
*RES
1 *625:Y *866:D 45.2993 
*END

*D_NET *104 0.00417091
*CONN
*I *628:B I *D sky130_fd_sc_hd__nor3_1
*I *626:Y O *D sky130_fd_sc_hd__a22oi_1
*CAP
1 *628:B 0.000950621
2 *626:Y 0.000950621
9 *628:B 0.00226967
*RES
1 *626:Y *628:B 34.7429 
*END

*D_NET *105 0.00208873
*CONN
*I *628:C I *D sky130_fd_sc_hd__nor3_1
*I *627:Y O *D sky130_fd_sc_hd__nor2_1
*CAP
1 *628:C 5.57292e-05
2 *627:Y 5.57292e-05
7 *628:C 0.00197727
*RES
1 *627:Y *628:C 21.2335 
*END

*D_NET *106 0.0149711
*CONN
*I *631:B I *D sky130_fd_sc_hd__nor3_1
*I *629:Y O *D sky130_fd_sc_hd__a22oi_1
*CAP
1 *631:B 0.000591554
2 *629:Y 0.000591554
13 *631:B 0.013788
*RES
1 *629:Y *631:B 39.5408 
*END

*D_NET *107 0.0144867
*CONN
*I *631:C I *D sky130_fd_sc_hd__nor3_1
*I *630:Y O *D sky130_fd_sc_hd__nor2_1
*CAP
1 *631:C 0.000230812
2 *630:Y 0.000230812
8 *631:C 0.0140251
*RES
1 *630:Y *631:C 38.3143 
*END

*D_NET *108 0.00654412
*CONN
*I *634:B I *D sky130_fd_sc_hd__nor3_1
*I *632:Y O *D sky130_fd_sc_hd__a22oi_1
*CAP
1 *634:B 0.000448398
2 *632:Y 0.000448398
8 *634:B 0.00564733
*RES
1 *632:Y *634:B 24.1195 
*END

*D_NET *109 0.0104537
*CONN
*I *634:C I *D sky130_fd_sc_hd__nor3_1
*I *633:Y O *D sky130_fd_sc_hd__nor2_1
*CAP
1 *634:C 0.00161823
2 *633:Y 0.00161823
6 *634:C 0.00721721
*RES
1 *633:Y *634:C 27.1678 
*END

*D_NET *110 0.0131706
*CONN
*I *637:B I *D sky130_fd_sc_hd__nor3_1
*I *635:Y O *D sky130_fd_sc_hd__a22oi_1
*CAP
1 *637:B 0.00104964
2 *635:Y 0.00104964
11 *637:B 0.0110713
*RES
1 *635:Y *637:B 37.6108 
*END

*D_NET *111 0.00136448
*CONN
*I *637:C I *D sky130_fd_sc_hd__nor3_1
*I *636:Y O *D sky130_fd_sc_hd__nor2_1
*CAP
1 *637:C 0.000221602
2 *636:Y 0.000221602
6 *637:C 0.000921276
*RES
1 *636:Y *637:C 21.2335 
*END

*D_NET *112 0.00351823
*CONN
*I *640:B I *D sky130_fd_sc_hd__nor3_1
*I *638:Y O *D sky130_fd_sc_hd__a22oi_1
*CAP
1 *640:B 0.000102381
2 *638:Y 0.000102381
4 *640:B 0.00331347
*RES
1 *638:Y *640:B 20.3857 
*END

*D_NET *113 0.00100013
*CONN
*I *640:C I *D sky130_fd_sc_hd__nor3_1
*I *639:Y O *D sky130_fd_sc_hd__nor2_1
*CAP
1 *640:C 8.52637e-05
2 *639:Y 8.52637e-05
5 *640:C 0.000829606
*RES
1 *639:Y *640:C 19.9889 
*END

*D_NET *114 0.00736754
*CONN
*I *643:B I *D sky130_fd_sc_hd__nor3_1
*I *641:Y O *D sky130_fd_sc_hd__a22oi_1
*CAP
1 *643:B 0.00017766
2 *641:Y 0.00017766
10 *643:B 0.00701222
*RES
1 *641:Y *643:B 32.3799 
*END

*D_NET *115 0.00449026
*CONN
*I *643:C I *D sky130_fd_sc_hd__nor3_1
*I *642:Y O *D sky130_fd_sc_hd__nor2_1
*CAP
1 *643:C 7.95902e-05
2 *642:Y 7.95902e-05
10 *643:C 0.00433108
*RES
1 *642:Y *643:C 31.9651 
*END

*D_NET *116 0.00816651
*CONN
*I *646:B I *D sky130_fd_sc_hd__nor3_1
*I *644:Y O *D sky130_fd_sc_hd__a22oi_1
*CAP
1 *646:B 0.000173636
2 *644:Y 0.000173636
12 *646:B 0.00781924
*RES
1 *644:Y *646:B 33.2818 
*END

*D_NET *117 0.00470768
*CONN
*I *646:C I *D sky130_fd_sc_hd__nor3_1
*I *645:Y O *D sky130_fd_sc_hd__nor2_1
*CAP
1 *646:C 0.000129671
2 *645:Y 0.000129671
10 *646:C 0.00444834
*RES
1 *645:Y *646:C 33.8049 
*END

*D_NET *118 0.00235097
*CONN
*I *649:B I *D sky130_fd_sc_hd__nor3_1
*I *647:Y O *D sky130_fd_sc_hd__a22oi_1
*CAP
1 *649:B 8.30748e-05
2 *647:Y 8.30748e-05
6 *649:B 0.00218482
*RES
1 *647:Y *649:B 19.9709 
*END

*D_NET *119 0.00421531
*CONN
*I *649:C I *D sky130_fd_sc_hd__nor3_1
*I *648:Y O *D sky130_fd_sc_hd__nor2_1
*CAP
1 *649:C 0.00018299
2 *648:Y 0.00018299
9 *649:C 0.00384933
*RES
1 *648:Y *649:C 31.0632 
*END

*D_NET *120 0.0127167
*CONN
*I *652:B I *D sky130_fd_sc_hd__nor3_1
*I *650:Y O *D sky130_fd_sc_hd__a22oi_1
*CAP
1 *652:B 0.00026743
2 *650:Y 0.00026743
9 *652:B 0.0121818
*RES
1 *650:Y *652:B 37.4485 
*END

*D_NET *121 0.00110523
*CONN
*I *652:C I *D sky130_fd_sc_hd__nor3_1
*I *651:Y O *D sky130_fd_sc_hd__nor2_1
*CAP
1 *652:C 4.99803e-05
2 *651:Y 4.99803e-05
6 *652:C 0.00100527
*RES
1 *651:Y *652:C 19.9889 
*END

*D_NET *122 0.0109021
*CONN
*I *655:B I *D sky130_fd_sc_hd__nor3_1
*I *653:Y O *D sky130_fd_sc_hd__a22oi_1
*CAP
1 *655:B 0.000558671
2 *653:Y 0.000558671
10 *655:B 0.00978478
*RES
1 *653:Y *655:B 33.8049 
*END

*D_NET *123 0.00635307
*CONN
*I *655:C I *D sky130_fd_sc_hd__nor3_1
*I *654:Y O *D sky130_fd_sc_hd__nor2_1
*CAP
1 *655:C 0.000243434
2 *654:Y 0.000243434
10 *655:C 0.0058662
*RES
1 *654:Y *655:C 33.5885 
*END

*D_NET *124 0.00699575
*CONN
*I *658:B I *D sky130_fd_sc_hd__nor3_1
*I *656:Y O *D sky130_fd_sc_hd__a22oi_1
*CAP
1 *658:B 6.12322e-05
2 *656:Y 6.12322e-05
7 *658:B 0.00687328
*RES
1 *656:Y *658:B 21.6303 
*END

*D_NET *125 0.0043704
*CONN
*I *658:C I *D sky130_fd_sc_hd__nor3_1
*I *657:Y O *D sky130_fd_sc_hd__nor2_1
*CAP
1 *658:C 0.000316875
2 *657:Y 0.000316875
7 *658:C 0.00373665
*RES
1 *657:Y *658:C 22.8929 
*END

*D_NET *126 0.0111802
*CONN
*I *661:B I *D sky130_fd_sc_hd__nor3_1
*I *659:Y O *D sky130_fd_sc_hd__a22oi_1
*CAP
1 *661:B 0.00150944
2 *659:Y 0.00150944
8 *661:B 0.0081613
*RES
1 *659:Y *661:B 34.8872 
*END

*D_NET *127 0.00787357
*CONN
*I *661:C I *D sky130_fd_sc_hd__nor3_1
*I *660:Y O *D sky130_fd_sc_hd__nor2_1
*CAP
1 *661:C 0.00044974
2 *660:Y 0.00044974
10 *661:C 0.00697409
*RES
1 *660:Y *661:C 34.7609 
*END

*D_NET *128 0.00523918
*CONN
*I *664:B I *D sky130_fd_sc_hd__nor3_1
*I *662:Y O *D sky130_fd_sc_hd__a22oi_1
*CAP
1 *664:B 0.000474413
2 *662:Y 0.000474413
8 *664:B 0.00429036
*RES
1 *662:Y *664:B 30.7385 
*END

*D_NET *129 0.00125687
*CONN
*I *664:C I *D sky130_fd_sc_hd__nor3_1
*I *663:Y O *D sky130_fd_sc_hd__nor2_1
*CAP
1 *664:C 3.86747e-05
2 *663:Y 3.86747e-05
5 *664:C 0.00117952
*RES
1 *663:Y *664:C 19.9889 
*END

*D_NET *130 0.00271576
*CONN
*I *667:B I *D sky130_fd_sc_hd__nor3_1
*I *665:Y O *D sky130_fd_sc_hd__a22oi_1
*CAP
1 *667:B 0.000272988
2 *665:Y 0.000272988
8 *667:B 0.00216979
*RES
1 *665:Y *667:B 29.9088 
*END

*D_NET *131 0.00192193
*CONN
*I *667:C I *D sky130_fd_sc_hd__nor3_1
*I *666:Y O *D sky130_fd_sc_hd__nor2_1
*CAP
1 *667:C 0.000198318
2 *666:Y 0.000198318
7 *667:C 0.00152529
*RES
1 *666:Y *667:C 21.3597 
*END

*D_NET *132 0.00157839
*CONN
*I *670:B I *D sky130_fd_sc_hd__nor3_1
*I *668:Y O *D sky130_fd_sc_hd__a22oi_1
*CAP
1 *670:B 0.000129696
2 *668:Y 0.000129696
5 *670:B 0.001319
*RES
1 *668:Y *670:B 19.9709 
*END

*D_NET *133 0.0018386
*CONN
*I *670:C I *D sky130_fd_sc_hd__nor3_1
*I *669:Y O *D sky130_fd_sc_hd__nor2_1
*CAP
1 *670:C 2.60377e-05
2 *669:Y 2.60377e-05
7 *670:C 0.00178653
*RES
1 *669:Y *670:C 19.9889 
*END

*D_NET *134 0.00325029
*CONN
*I *673:B I *D sky130_fd_sc_hd__nor3_1
*I *671:Y O *D sky130_fd_sc_hd__a22oi_1
*CAP
1 *673:B 0.000296359
2 *671:Y 0.000296359
8 *673:B 0.00265758
*RES
1 *671:Y *673:B 32.3258 
*END

*D_NET *135 0.000885862
*CONN
*I *673:C I *D sky130_fd_sc_hd__nor3_1
*I *672:Y O *D sky130_fd_sc_hd__nor2_1
*CAP
1 *673:C 0.000154431
2 *672:Y 0.000154431
6 *673:C 0.000577
*RES
1 *672:Y *673:C 21.2335 
*END

*D_NET *136 0.00382568
*CONN
*I *676:B I *D sky130_fd_sc_hd__nor3_1
*I *674:Y O *D sky130_fd_sc_hd__a22oi_1
*CAP
1 *676:B 0.000211656
2 *674:Y 0.000211656
12 *676:B 0.00340237
*RES
1 *674:Y *676:B 31.3879 
*END

*D_NET *137 0.00170132
*CONN
*I *676:C I *D sky130_fd_sc_hd__nor3_1
*I *675:Y O *D sky130_fd_sc_hd__nor2_1
*CAP
1 *676:C 5.35009e-05
2 *675:Y 5.35009e-05
7 *676:C 0.00159432
*RES
1 *675:Y *676:C 19.9889 
*END

*D_NET *138 0.0115634
*CONN
*I *679:B I *D sky130_fd_sc_hd__nor3_1
*I *677:Y O *D sky130_fd_sc_hd__a22oi_1
*CAP
1 *679:B 0.000800813
2 *677:Y 0.000800813
11 *679:B 0.00996181
*RES
1 *677:Y *679:B 34.7429 
*END

*D_NET *139 0.00460676
*CONN
*I *679:C I *D sky130_fd_sc_hd__nor3_1
*I *678:Y O *D sky130_fd_sc_hd__nor2_1
*CAP
1 *679:C 0.000559189
2 *678:Y 0.000559189
6 *679:C 0.00348838
*RES
1 *678:Y *679:C 31.7667 
*END

*D_NET *140 0.00527355
*CONN
*I *682:B I *D sky130_fd_sc_hd__nor3_1
*I *680:Y O *D sky130_fd_sc_hd__a22oi_1
*CAP
1 *682:B 5.55123e-05
2 *680:Y 5.55123e-05
8 *682:B 0.00516253
*RES
1 *680:Y *682:B 20.8006 
*END

*D_NET *141 0.0491566
*CONN
*I *682:C I *D sky130_fd_sc_hd__nor3_1
*I *681:Y O *D sky130_fd_sc_hd__nor2_1
*CAP
1 *682:C 0
2 *681:Y 0.00057769
3 *141:14 0.00057769
16 *682:C 0.0480013
*RES
1 *681:Y *141:14 43.0114 
2 *141:14 *682:C 9.3 
*END

*D_NET *142 0.00342225
*CONN
*I *685:B I *D sky130_fd_sc_hd__nor3_1
*I *683:Y O *D sky130_fd_sc_hd__a22oi_1
*CAP
1 *685:B 1.97431e-05
2 *683:Y 1.97431e-05
5 *685:B 0.00338276
*RES
1 *683:Y *685:B 19.9709 
*END

*D_NET *143 0.00470613
*CONN
*I *685:C I *D sky130_fd_sc_hd__nor3_1
*I *684:Y O *D sky130_fd_sc_hd__nor2_1
*CAP
1 *685:C 3.64929e-05
2 *684:Y 3.64929e-05
6 *685:C 0.00463314
*RES
1 *684:Y *685:C 20.9449 
*END

*D_NET *144 0.00789548
*CONN
*I *688:B I *D sky130_fd_sc_hd__nor3_1
*I *686:Y O *D sky130_fd_sc_hd__a22oi_1
*CAP
1 *688:B 0.000167986
2 *686:Y 0.000167986
9 *688:B 0.00755951
*RES
1 *686:Y *688:B 33.2818 
*END

*D_NET *145 0.00137749
*CONN
*I *688:C I *D sky130_fd_sc_hd__nor3_1
*I *687:Y O *D sky130_fd_sc_hd__nor2_1
*CAP
1 *688:C 0.000173906
2 *687:Y 0.000173906
8 *688:C 0.00102968
*RES
1 *687:Y *688:C 30.5221 
*END

*D_NET *146 0.00355901
*CONN
*I *691:B I *D sky130_fd_sc_hd__nor3_1
*I *689:Y O *D sky130_fd_sc_hd__a22oi_1
*CAP
1 *691:B 5.58051e-05
2 *689:Y 5.58051e-05
9 *691:B 0.0034474
*RES
1 *689:Y *691:B 30.1794 
*END

*D_NET *147 0.00488273
*CONN
*I *691:C I *D sky130_fd_sc_hd__nor3_1
*I *690:Y O *D sky130_fd_sc_hd__nor2_1
*CAP
1 *691:C 0.000718867
2 *690:Y 0.000718867
10 *691:C 0.003445
*RES
1 *690:Y *691:C 32.1815 
*END

*D_NET *148 0.00998131
*CONN
*I *694:B I *D sky130_fd_sc_hd__nor3_1
*I *702:B_N I *D sky130_fd_sc_hd__nor2b_1
*I *692:X O *D sky130_fd_sc_hd__and3_1
*CAP
1 *694:B 0.000349518
2 *702:B_N 0.000469728
3 *692:X 0
4 *148:6 0.000819246
13 *694:B 0.00834281
*RES
1 *692:X *148:6 13.8 
2 *148:6 *702:B_N 19.0128 
3 *148:6 *694:B 18.4717 
*END

*D_NET *149 0.00774984
*CONN
*I *694:C I *D sky130_fd_sc_hd__nor3_1
*I *693:Y O *D sky130_fd_sc_hd__a21oi_1
*CAP
1 *694:C 0.000465003
2 *693:Y 0.000465003
8 *694:C 0.00681984
*RES
1 *693:Y *694:C 32.3078 
*END

*D_NET *150 0.0158799
*CONN
*I *700:A I *D sky130_fd_sc_hd__xnor2_1
*I *709:A1 I *D sky130_fd_sc_hd__a211oi_1
*I *696:Y O *D sky130_fd_sc_hd__nand2_1
*CAP
1 *700:A 8.29995e-05
2 *709:A1 0.000737138
3 *696:Y 0.000374385
4 *150:10 0.00119452
22 *700:A 0.0134909
*RES
1 *696:Y *150:10 20.5551 
2 *150:10 *709:A1 17.651 
3 *150:10 *700:A 17.4526 
*END

*D_NET *151 0.0170107
*CONN
*I *709:A2 I *D sky130_fd_sc_hd__a211oi_1
*I *697:Y O *D sky130_fd_sc_hd__nand2_1
*CAP
1 *709:A2 0.000426399
2 *697:Y 0.000426399
14 *709:A2 0.0161579
*RES
1 *697:Y *709:A2 42.3367 
*END

*D_NET *152 0.018972
*CONN
*I *709:B1 I *D sky130_fd_sc_hd__a211oi_1
*I *698:Y O *D sky130_fd_sc_hd__nor2_1
*CAP
1 *709:B1 0.00192777
2 *698:Y 0.00192777
8 *709:B1 0.0151164
*RES
1 *698:Y *709:B1 42.2645 
*END

*D_NET *153 0.00807068
*CONN
*I *700:B I *D sky130_fd_sc_hd__xnor2_1
*I *699:Y O *D sky130_fd_sc_hd__xnor2_1
*CAP
1 *700:B 0.00100076
2 *699:Y 0.00100076
9 *700:B 0.00606916
*RES
1 *699:Y *700:B 35.5726 
*END

*D_NET *154 0.00400962
*CONN
*I *701:B I *D sky130_fd_sc_hd__nor2_1
*I *700:Y O *D sky130_fd_sc_hd__xnor2_1
*CAP
1 *701:B 0.000102501
2 *700:Y 0.000102501
7 *701:B 0.00380462
*RES
1 *700:Y *701:B 22.0812 
*END

*D_NET *155 0.00333508
*CONN
*I *705:B I *D sky130_fd_sc_hd__nor3_1
*I *703:Y O *D sky130_fd_sc_hd__a22oi_1
*CAP
1 *705:B 9.71552e-06
2 *703:Y 9.71552e-06
7 *705:B 0.00331565
*RES
1 *703:Y *705:B 19.9709 
*END

*D_NET *156 0.00466758
*CONN
*I *705:C I *D sky130_fd_sc_hd__nor3_1
*I *704:Y O *D sky130_fd_sc_hd__nor2_1
*CAP
1 *705:C 0.000869955
2 *704:Y 0.000869955
7 *705:C 0.00292767
*RES
1 *704:Y *705:C 32.2898 
*END

*D_NET *157 0.0107593
*CONN
*I *708:B I *D sky130_fd_sc_hd__nor3_1
*I *706:Y O *D sky130_fd_sc_hd__a22oi_1
*CAP
1 *708:B 0.000984792
2 *706:Y 0.000984792
11 *708:B 0.00878972
*RES
1 *706:Y *708:B 35.1577 
*END

*D_NET *158 0.0200023
*CONN
*I *708:C I *D sky130_fd_sc_hd__nor3_1
*I *707:Y O *D sky130_fd_sc_hd__nor2_1
*CAP
1 *708:C 0.00208207
2 *707:Y 0.00208207
11 *708:C 0.0158382
*RES
1 *707:Y *708:C 38.3504 
*END

*D_NET *159 0.0129544
*CONN
*I *620:A1 I *D sky130_fd_sc_hd__a211oi_1
*I *714:A I *D sky130_fd_sc_hd__xnor2_1
*I *710:Y O *D sky130_fd_sc_hd__nand2_1
*CAP
1 *620:A1 0.000178264
2 *714:A 0.000213439
3 *710:Y 0.000892703
4 *159:12 0.00128441
22 *620:A1 0.0103856
*RES
1 *710:Y *159:12 19.4297 
2 *159:12 *714:A 18.2077 
3 *159:12 *620:A1 22.7024 
*END

*D_NET *160 0.00184288
*CONN
*I *620:A2 I *D sky130_fd_sc_hd__a211oi_1
*I *711:Y O *D sky130_fd_sc_hd__nand2_1
*CAP
1 *620:A2 3.44975e-05
2 *711:Y 3.44975e-05
4 *620:A2 0.00177388
*RES
1 *711:Y *620:A2 19.556 
*END

*D_NET *161 0.00406634
*CONN
*I *620:B1 I *D sky130_fd_sc_hd__a211oi_1
*I *712:Y O *D sky130_fd_sc_hd__nor2_1
*CAP
1 *620:B1 0.000226836
2 *712:Y 0.000226836
7 *620:B1 0.00361267
*RES
1 *712:Y *620:B1 30.7385 
*END

*D_NET *162 0.0085497
*CONN
*I *714:B I *D sky130_fd_sc_hd__xnor2_1
*I *713:Y O *D sky130_fd_sc_hd__xnor2_1
*CAP
1 *714:B 0.000909569
2 *713:Y 0.000909569
8 *714:B 0.00673056
*RES
1 *713:Y *714:B 33.0113 
*END

*D_NET *163 0.0036595
*CONN
*I *715:B I *D sky130_fd_sc_hd__nor2_1
*I *714:Y O *D sky130_fd_sc_hd__xnor2_1
*CAP
1 *715:B 0.000442492
2 *714:Y 0.000442492
9 *715:B 0.00277451
*RES
1 *714:Y *715:B 33.0293 
*END

*D_NET *164 0.0557026
*CONN
*I *621:A1 I *D sky130_fd_sc_hd__a211oi_1
*I *720:A I *D sky130_fd_sc_hd__xnor2_1
*I *716:Y O *D sky130_fd_sc_hd__nand2_1
*CAP
1 *621:A1 0
2 *720:A 0.000567487
3 *716:Y 0.00812078
4 *164:14 0.00868826
37 *621:A1 0.0383261
*RES
1 *716:Y *164:14 44.9782 
2 *164:14 *720:A 28.7437 
3 *164:14 *621:A1 9.3 
*END

*D_NET *165 0.00132041
*CONN
*I *621:A2 I *D sky130_fd_sc_hd__a211oi_1
*I *717:Y O *D sky130_fd_sc_hd__nand2_1
*CAP
1 *621:A2 7.94331e-05
2 *717:Y 7.94331e-05
5 *621:A2 0.00116154
*RES
1 *717:Y *621:A2 19.556 
*END

*D_NET *166 0.003201
*CONN
*I *621:B1 I *D sky130_fd_sc_hd__a211oi_1
*I *718:Y O *D sky130_fd_sc_hd__nor2_1
*CAP
1 *621:B1 0.000328663
2 *718:Y 0.000328663
4 *621:B1 0.00254368
*RES
1 *718:Y *621:B1 19.9709 
*END

*D_NET *167 0.00733231
*CONN
*I *720:B I *D sky130_fd_sc_hd__xnor2_1
*I *719:Y O *D sky130_fd_sc_hd__xnor2_1
*CAP
1 *720:B 0.00109006
2 *719:Y 0.00109006
7 *720:B 0.00515219
*RES
1 *719:Y *720:B 34.5084 
*END

*D_NET *168 0.00938622
*CONN
*I *721:B I *D sky130_fd_sc_hd__nor2_1
*I *720:Y O *D sky130_fd_sc_hd__xnor2_1
*CAP
1 *721:B 0.000508429
2 *720:Y 0.000508429
9 *721:B 0.00836936
*RES
1 *720:Y *721:B 33.6606 
*END

*D_NET *169 0.0102222
*CONN
*I *726:A I *D sky130_fd_sc_hd__xnor2_1
*I *622:A1 I *D sky130_fd_sc_hd__a211oi_1
*I *722:Y O *D sky130_fd_sc_hd__nand2_1
*CAP
1 *726:A 3.83119e-05
2 *622:A1 0.000181348
3 *722:Y 0.00208512
4 *169:14 0.00230478
15 *726:A 0.00561264
*RES
1 *722:Y *169:14 26.7178 
2 *169:14 *622:A1 16.226 
3 *169:14 *726:A 14.3862 
*END

*D_NET *170 0.00306828
*CONN
*I *622:A2 I *D sky130_fd_sc_hd__a211oi_1
*I *723:Y O *D sky130_fd_sc_hd__nand2_1
*CAP
1 *622:A2 0.000644591
2 *723:Y 0.000644591
9 *622:A2 0.0017791
*RES
1 *723:Y *622:A2 33.1916 
*END

*D_NET *171 0.00987617
*CONN
*I *622:B1 I *D sky130_fd_sc_hd__a211oi_1
*I *724:Y O *D sky130_fd_sc_hd__nor2_1
*CAP
1 *622:B1 0.000957722
2 *724:Y 0.000957722
9 *622:B1 0.00796072
*RES
1 *724:Y *622:B1 33.1195 
*END

*D_NET *172 0.00526566
*CONN
*I *726:B I *D sky130_fd_sc_hd__xnor2_1
*I *725:Y O *D sky130_fd_sc_hd__xnor2_1
*CAP
1 *726:B 0.000388122
2 *725:Y 0.000388122
13 *726:B 0.00448942
*RES
1 *725:Y *726:B 35.5365 
*END

*D_NET *173 0.00240027
*CONN
*I *727:B I *D sky130_fd_sc_hd__nor2_1
*I *726:Y O *D sky130_fd_sc_hd__xnor2_1
*CAP
1 *727:B 0.000569943
2 *726:Y 0.000569943
5 *727:B 0.00126038
*RES
1 *726:Y *727:B 23.3439 
*END

*D_NET *174 0.0940781
*CONN
*I *732:A I *D sky130_fd_sc_hd__xnor2_1
*I *623:A1 I *D sky130_fd_sc_hd__a211oi_1
*I *728:Y O *D sky130_fd_sc_hd__nand2_1
*CAP
1 *732:A 0.000103481
2 *623:A1 0
3 *728:Y 0.000349214
4 *174:24 0.000253308
5 *174:20 0.00770708
6 *174:14 0.00790647
52 *732:A 0.0777585
*RES
1 *728:Y *174:14 31.738 
2 *174:14 *174:20 47.8716 
3 *174:20 *174:24 6.46609 
4 *174:24 *623:A1 13.8 
5 *174:24 *732:A 16.0727 
*END

*D_NET *175 0.00309819
*CONN
*I *623:A2 I *D sky130_fd_sc_hd__a211oi_1
*I *729:Y O *D sky130_fd_sc_hd__nand2_1
*CAP
1 *623:A2 0.0005421
2 *729:Y 0.0005421
6 *623:A2 0.00201399
*RES
1 *729:Y *623:A2 24.5524 
*END

*D_NET *176 0.0076708
*CONN
*I *623:B1 I *D sky130_fd_sc_hd__a211oi_1
*I *730:Y O *D sky130_fd_sc_hd__nor2_1
*CAP
1 *623:B1 0.000712037
2 *730:Y 0.000712037
5 *623:B1 0.00624672
*RES
1 *730:Y *623:B1 31.3879 
*END

*D_NET *177 0.00207522
*CONN
*I *732:B I *D sky130_fd_sc_hd__xnor2_1
*I *731:Y O *D sky130_fd_sc_hd__xnor2_1
*CAP
1 *732:B 0.000401749
2 *731:Y 0.000401749
8 *732:B 0.00127172
*RES
1 *731:Y *732:B 33.6967 
*END

*D_NET *178 0.00267304
*CONN
*I *733:B I *D sky130_fd_sc_hd__nor2_1
*I *732:Y O *D sky130_fd_sc_hd__xnor2_1
*CAP
1 *733:B 0.00104899
2 *732:Y 0.00104899
5 *733:B 0.000575064
*RES
1 *732:Y *733:B 23.1996 
*END

*D_NET *179 0.0217316
*CONN
*I *738:A I *D sky130_fd_sc_hd__xnor2_1
*I *624:A1 I *D sky130_fd_sc_hd__a211oi_1
*I *734:Y O *D sky130_fd_sc_hd__nand2_1
*CAP
1 *738:A 0
2 *624:A1 0.000375122
3 *734:Y 0.00349152
4 *179:16 0.00386664
20 *738:A 0.0139983
*RES
1 *734:Y *179:16 30.3459 
2 *179:16 *624:A1 21.3216 
3 *179:16 *738:A 13.8 
*END

*D_NET *180 0.00399672
*CONN
*I *624:A2 I *D sky130_fd_sc_hd__a211oi_1
*I *735:Y O *D sky130_fd_sc_hd__nand2_1
*CAP
1 *624:A2 0.00019655
2 *735:Y 0.00019655
11 *624:A2 0.00360362
*RES
1 *735:Y *624:A2 32.2537 
*END

*D_NET *181 0.00272352
*CONN
*I *624:B1 I *D sky130_fd_sc_hd__a211oi_1
*I *736:Y O *D sky130_fd_sc_hd__nor2_1
*CAP
1 *624:B1 0.00013142
2 *736:Y 0.00013142
12 *624:B1 0.00246068
*RES
1 *736:Y *624:B1 31.0452 
*END

*D_NET *182 0.0100152
*CONN
*I *738:B I *D sky130_fd_sc_hd__xnor2_1
*I *737:Y O *D sky130_fd_sc_hd__xnor2_1
*CAP
1 *738:B 4.02816e-05
2 *737:Y 4.02816e-05
6 *738:B 0.00993466
*RES
1 *737:Y *738:B 32.0192 
*END

*D_NET *183 0.0030536
*CONN
*I *739:B I *D sky130_fd_sc_hd__nor2_1
*I *738:Y O *D sky130_fd_sc_hd__xnor2_1
*CAP
1 *739:B 0.000579086
2 *738:Y 0.000579086
5 *739:B 0.00189543
*RES
1 *738:Y *739:B 23.5964 
*END

*D_NET *184 0.044757
*CONN
*I *744:A I *D sky130_fd_sc_hd__xnor2_1
*I *625:A1 I *D sky130_fd_sc_hd__a211oi_1
*I *740:Y O *D sky130_fd_sc_hd__nand2_1
*CAP
1 *744:A 0.000860595
2 *625:A1 0.000860595
3 *740:Y 0.00104677
4 *184:24 0.00104677
31 *744:A 0.0409423
*RES
1 *740:Y *184:24 46.8895 
2 *184:24 *625:A1 9.3 
3 *625:A1 *744:A 37.9716 
*END

*D_NET *185 0.0148269
*CONN
*I *625:A2 I *D sky130_fd_sc_hd__a211oi_1
*I *741:Y O *D sky130_fd_sc_hd__nand2_1
*CAP
1 *625:A2 0.00124123
2 *741:Y 0.00124123
12 *625:A2 0.0123444
*RES
1 *741:Y *625:A2 38.5488 
*END

*D_NET *186 0.015634
*CONN
*I *625:B1 I *D sky130_fd_sc_hd__a211oi_1
*I *742:Y O *D sky130_fd_sc_hd__nor2_1
*CAP
1 *625:B1 0.00235001
2 *742:Y 0.00235001
14 *625:B1 0.0109339
*RES
1 *742:Y *625:B1 40.3525 
*END

*D_NET *187 0.00580605
*CONN
*I *744:B I *D sky130_fd_sc_hd__xnor2_1
*I *743:Y O *D sky130_fd_sc_hd__xnor2_1
*CAP
1 *744:B 0.000295349
2 *743:Y 0.000295349
10 *744:B 0.00521535
*RES
1 *743:Y *744:B 32.5784 
*END

*D_NET *188 0.00885177
*CONN
*I *745:B I *D sky130_fd_sc_hd__nor2_1
*I *744:Y O *D sky130_fd_sc_hd__xnor2_1
*CAP
1 *745:B 0.000577747
2 *744:Y 0.000577747
12 *745:B 0.00769628
*RES
1 *744:Y *745:B 38.7472 
*END

*D_NET *189 0.00611272
*CONN
*I *748:C I *D sky130_fd_sc_hd__and3_1
*I *747:B1 I *D sky130_fd_sc_hd__a21oi_1
*I *746:X O *D sky130_fd_sc_hd__xor2_1
*CAP
1 *748:C 1.92489e-05
2 *747:B1 4.98391e-05
3 *746:X 0.000250476
4 *189:10 0.000319564
17 *748:C 0.00547359
*RES
1 *746:X *189:10 18.1651 
2 *189:10 *747:B1 16.4154 
3 *189:10 *748:C 13.9984 
*END

*D_NET *190 0.00564439
*CONN
*I *749:B I *D sky130_fd_sc_hd__nor3_1
*I *747:Y O *D sky130_fd_sc_hd__a21oi_1
*CAP
1 *749:B 0.000174551
2 *747:Y 0.000174551
9 *749:B 0.00529529
*RES
1 *747:Y *749:B 31.8569 
*END

*D_NET *191 0.00302537
*CONN
*I *749:C I *D sky130_fd_sc_hd__nor3_1
*I *748:X O *D sky130_fd_sc_hd__and3_1
*CAP
1 *749:C 4.54807e-05
2 *748:X 4.54807e-05
6 *749:C 0.00293441
*RES
1 *748:X *749:C 20.2955 
*END

*D_NET *192 0.0037428
*CONN
*I *751:B1 I *D sky130_fd_sc_hd__a21oi_1
*I *752:C I *D sky130_fd_sc_hd__and3_1
*I *750:X O *D sky130_fd_sc_hd__xor2_1
*CAP
1 *751:B1 4.9781e-05
2 *752:C 4.47018e-05
3 *750:X 6.03012e-05
4 *192:6 0.000154784
13 *751:B1 0.00343323
*RES
1 *750:X *192:6 10.256 
2 *192:6 *752:C 10.6528 
3 *192:6 *751:B1 21.4205 
*END

*D_NET *193 0.00682302
*CONN
*I *753:B I *D sky130_fd_sc_hd__nor3_2
*I *751:Y O *D sky130_fd_sc_hd__a21oi_1
*CAP
1 *753:B 0.000842695
2 *751:Y 0.000842695
11 *753:B 0.00513763
*RES
1 *751:Y *753:B 33.1375 
*END

*D_NET *194 0.00323694
*CONN
*I *753:C I *D sky130_fd_sc_hd__nor3_2
*I *752:X O *D sky130_fd_sc_hd__and3_1
*CAP
1 *753:C 0.000244179
2 *752:X 0.000244179
7 *753:C 0.00274858
*RES
1 *752:X *753:C 22.4781 
*END

*D_NET *195 0.017846
*CONN
*I *755:B1 I *D sky130_fd_sc_hd__a21oi_1
*I *756:C I *D sky130_fd_sc_hd__and3_1
*I *754:X O *D sky130_fd_sc_hd__xor2_1
*CAP
1 *755:B1 0.000162147
2 *756:C 0.000153507
3 *754:X 3.69135e-05
4 *195:6 0.000352568
14 *755:B1 0.0171409
*RES
1 *754:X *195:6 9.84113 
2 *195:6 *756:C 11.3202 
3 *195:6 *755:B1 27.0843 
*END

*D_NET *196 0.0167299
*CONN
*I *757:B I *D sky130_fd_sc_hd__nor3_1
*I *755:Y O *D sky130_fd_sc_hd__a21oi_1
*CAP
1 *757:B 0.000858188
2 *755:Y 0.000858188
10 *757:B 0.0150135
*RES
1 *755:Y *757:B 37.4304 
*END

*D_NET *197 0.00848618
*CONN
*I *757:C I *D sky130_fd_sc_hd__nor3_1
*I *756:X O *D sky130_fd_sc_hd__and3_1
*CAP
1 *757:C 0.000245546
2 *756:X 0.000245546
11 *757:C 0.00799508
*RES
1 *756:X *757:C 31.8929 
*END

*D_NET *198 0.0112827
*CONN
*I *760:C I *D sky130_fd_sc_hd__and3_1
*I *759:B1 I *D sky130_fd_sc_hd__a21oi_1
*I *758:X O *D sky130_fd_sc_hd__xor2_1
*CAP
1 *760:C 3.54514e-06
2 *759:B1 2.66859e-05
3 *758:X 0.000267705
4 *198:10 0.000297936
13 *760:C 0.0106868
*RES
1 *758:X *198:10 20.4017 
2 *198:10 *759:B1 15.4595 
3 *198:10 *760:C 13.9984 
*END

*D_NET *199 0.0167517
*CONN
*I *761:B I *D sky130_fd_sc_hd__nor3_1
*I *759:Y O *D sky130_fd_sc_hd__a21oi_1
*CAP
1 *761:B 0.000321173
2 *759:Y 0.000321173
11 *761:B 0.0161093
*RES
1 *759:Y *761:B 37.5026 
*END

*D_NET *200 0.00626929
*CONN
*I *761:C I *D sky130_fd_sc_hd__nor3_1
*I *760:X O *D sky130_fd_sc_hd__and3_1
*CAP
1 *761:C 6.36007e-05
2 *760:X 6.36007e-05
6 *761:C 0.00614209
*RES
1 *760:X *761:C 31.7126 
*END

*D_NET *201 0.00671933
*CONN
*I *764:C I *D sky130_fd_sc_hd__and3_1
*I *763:B1 I *D sky130_fd_sc_hd__a21oi_1
*I *762:X O *D sky130_fd_sc_hd__xor2_1
*CAP
1 *764:C 8.81996e-05
2 *763:B1 0.000227846
3 *762:X 0
4 *201:4 0.000316046
15 *764:C 0.00608723
*RES
1 *762:X *201:4 9.3 
2 *201:4 *763:B1 22.3584 
3 *201:4 *764:C 11.7351 
*END

*D_NET *202 0.00688231
*CONN
*I *765:B I *D sky130_fd_sc_hd__nor3_1
*I *763:Y O *D sky130_fd_sc_hd__a21oi_1
*CAP
1 *765:B 0.00180065
2 *763:Y 0.00180065
10 *765:B 0.00328101
*RES
1 *763:Y *765:B 27.1678 
*END

*D_NET *203 0.00668091
*CONN
*I *765:C I *D sky130_fd_sc_hd__nor3_1
*I *764:X O *D sky130_fd_sc_hd__and3_1
*CAP
1 *765:C 0.000999602
2 *764:X 0.000999602
10 *765:C 0.0046817
*RES
1 *764:X *765:C 39.3244 
*END

*D_NET *204 0.00664004
*CONN
*I *768:C I *D sky130_fd_sc_hd__and3_1
*I *767:B1 I *D sky130_fd_sc_hd__a21oi_1
*I *766:X O *D sky130_fd_sc_hd__xor2_1
*CAP
1 *768:C 0.000170199
2 *767:B1 0
3 *766:X 0.000177929
4 *204:10 0.000348129
17 *768:C 0.00594378
*RES
1 *766:X *204:10 16.9205 
2 *204:10 *767:B1 13.8 
3 *204:10 *768:C 20.0049 
*END

*D_NET *205 0.00540355
*CONN
*I *769:B I *D sky130_fd_sc_hd__nor3_1
*I *767:Y O *D sky130_fd_sc_hd__a21oi_1
*CAP
1 *769:B 0.000430405
2 *767:Y 0.000430405
10 *769:B 0.00454274
*RES
1 *767:Y *769:B 33.2097 
*END

*D_NET *206 0.00154045
*CONN
*I *769:C I *D sky130_fd_sc_hd__nor3_1
*I *768:X O *D sky130_fd_sc_hd__and3_1
*CAP
1 *769:C 3.67024e-05
2 *768:X 3.67024e-05
6 *769:C 0.00146705
*RES
1 *768:X *769:C 19.8807 
*END

*D_NET *207 0.00582968
*CONN
*I *772:C I *D sky130_fd_sc_hd__and3_1
*I *771:B1 I *D sky130_fd_sc_hd__a21oi_1
*I *770:X O *D sky130_fd_sc_hd__xor2_1
*CAP
1 *772:C 0.000115826
2 *771:B1 0
3 *770:X 4.74903e-05
4 *207:8 0.000163316
12 *772:C 0.00550305
*RES
1 *770:X *207:8 10.5807 
2 *207:8 *771:B1 9.3 
3 *207:8 *772:C 13.5208 
*END

*D_NET *208 0.0113171
*CONN
*I *773:B I *D sky130_fd_sc_hd__nor3_1
*I *771:Y O *D sky130_fd_sc_hd__a21oi_1
*CAP
1 *773:B 0.000103188
2 *771:Y 0.000103188
6 *773:B 0.0111107
*RES
1 *771:Y *773:B 22.9651 
*END

*D_NET *209 0.00126767
*CONN
*I *773:C I *D sky130_fd_sc_hd__nor3_1
*I *772:X O *D sky130_fd_sc_hd__and3_1
*CAP
1 *773:C 7.33727e-05
2 *772:X 7.33727e-05
5 *773:C 0.00112092
*RES
1 *772:X *773:C 19.8807 
*END

*D_NET *210 0.00252611
*CONN
*I *775:B1 I *D sky130_fd_sc_hd__a21oi_1
*I *776:C I *D sky130_fd_sc_hd__and3_1
*I *774:X O *D sky130_fd_sc_hd__xor2_1
*CAP
1 *775:B1 0
2 *776:C 0.000104653
3 *774:X 0.000167973
4 *210:10 0.000272626
9 *775:B1 0.00198086
*RES
1 *774:X *210:10 22.1059 
2 *210:10 *776:C 10.5266 
3 *210:10 *775:B1 9.3 
*END

*D_NET *211 0.0035046
*CONN
*I *777:B I *D sky130_fd_sc_hd__nor3_1
*I *775:Y O *D sky130_fd_sc_hd__a21oi_1
*CAP
1 *777:B 0.000110926
2 *775:Y 0.000110926
7 *777:B 0.00328275
*RES
1 *775:Y *777:B 29.9088 
*END

*D_NET *212 0.00449853
*CONN
*I *777:C I *D sky130_fd_sc_hd__nor3_1
*I *776:X O *D sky130_fd_sc_hd__and3_1
*CAP
1 *777:C 0.000221647
2 *776:X 0.000221647
9 *777:C 0.00405524
*RES
1 *776:X *777:C 30.6483 
*END

*D_NET *213 0.00775638
*CONN
*I *779:B1 I *D sky130_fd_sc_hd__a21oi_1
*I *780:C I *D sky130_fd_sc_hd__and3_1
*I *778:X O *D sky130_fd_sc_hd__xor2_1
*CAP
1 *779:B1 7.65419e-05
2 *780:C 1.88146e-05
3 *778:X 0.000473724
4 *213:10 0.00056908
16 *779:B1 0.00661822
*RES
1 *778:X *213:10 17.8584 
2 *213:10 *780:C 13.9984 
3 *213:10 *779:B1 16.5417 
*END

*D_NET *214 0.00614721
*CONN
*I *781:B I *D sky130_fd_sc_hd__nor3_1
*I *779:Y O *D sky130_fd_sc_hd__a21oi_1
*CAP
1 *781:B 0.00026877
2 *779:Y 0.00026877
13 *781:B 0.00560967
*RES
1 *779:Y *781:B 33.1736 
*END

*D_NET *215 0.00486914
*CONN
*I *781:C I *D sky130_fd_sc_hd__nor3_1
*I *780:X O *D sky130_fd_sc_hd__and3_1
*CAP
1 *781:C 0.000196091
2 *780:X 0.000196091
10 *781:C 0.00447695
*RES
1 *780:X *781:C 30.6483 
*END

*D_NET *216 0.00910834
*CONN
*I *783:B1 I *D sky130_fd_sc_hd__a21oi_1
*I *784:C I *D sky130_fd_sc_hd__and3_1
*I *782:X O *D sky130_fd_sc_hd__xor2_1
*CAP
1 *783:B1 5.65906e-05
2 *784:C 0
3 *782:X 5.64507e-05
4 *216:12 0.000113041
14 *783:B1 0.00888226
*RES
1 *782:X *216:12 11.7351 
2 *216:12 *784:C 9.3 
3 *216:12 *783:B1 12.8173 
*END

*D_NET *217 0.00279293
*CONN
*I *785:B I *D sky130_fd_sc_hd__nor3_1
*I *783:Y O *D sky130_fd_sc_hd__a21oi_1
*CAP
1 *785:B 0.000124628
2 *783:Y 0.000124628
4 *785:B 0.00254368
*RES
1 *783:Y *785:B 19.9709 
*END

*D_NET *218 0.0020141
*CONN
*I *785:C I *D sky130_fd_sc_hd__nor3_1
*I *784:X O *D sky130_fd_sc_hd__and3_1
*CAP
1 *785:C 3.87435e-05
2 *784:X 3.87435e-05
6 *785:C 0.00193661
*RES
1 *784:X *785:C 19.8807 
*END

*D_NET *219 0.00655393
*CONN
*I *787:B1 I *D sky130_fd_sc_hd__a21oi_1
*I *788:C I *D sky130_fd_sc_hd__and3_1
*I *786:X O *D sky130_fd_sc_hd__xor2_1
*CAP
1 *787:B1 1.13352e-05
2 *788:C 6.65319e-06
3 *786:X 5.8953e-05
4 *219:10 7.69415e-05
13 *787:B1 0.00640005
*RES
1 *786:X *219:10 20.5727 
2 *219:10 *788:C 10.1117 
3 *219:10 *787:B1 10.256 
*END

*D_NET *220 0.0119847
*CONN
*I *789:B I *D sky130_fd_sc_hd__nor3_1
*I *787:Y O *D sky130_fd_sc_hd__a21oi_1
*CAP
1 *789:B 0.000584242
2 *787:Y 0.000584242
9 *789:B 0.0108162
*RES
1 *787:Y *789:B 33.9131 
*END

*D_NET *221 0.00993075
*CONN
*I *789:C I *D sky130_fd_sc_hd__nor3_1
*I *788:X O *D sky130_fd_sc_hd__and3_1
*CAP
1 *789:C 0.000255878
2 *788:X 0.000255878
11 *789:C 0.00941899
*RES
1 *788:X *789:C 34.7609 
*END

*D_NET *222 0.0241074
*CONN
*I *792:C I *D sky130_fd_sc_hd__and3_1
*I *791:B1 I *D sky130_fd_sc_hd__a21oi_1
*I *790:X O *D sky130_fd_sc_hd__xor2_1
*CAP
1 *792:C 5.35132e-05
2 *791:B1 0.000257369
3 *790:X 0.000437516
4 *222:18 0.000748398
22 *792:C 0.0226106
*RES
1 *790:X *222:18 26.471 
2 *222:18 *791:B1 28.0944 
3 *222:18 *792:C 10.1478 
*END

*D_NET *223 0.00441692
*CONN
*I *793:B I *D sky130_fd_sc_hd__nor3_1
*I *791:Y O *D sky130_fd_sc_hd__a21oi_1
*CAP
1 *793:B 5.97103e-05
2 *791:Y 5.97103e-05
8 *793:B 0.0042975
*RES
1 *791:Y *793:B 21.1253 
*END

*D_NET *224 0.0182691
*CONN
*I *793:C I *D sky130_fd_sc_hd__nor3_1
*I *792:X O *D sky130_fd_sc_hd__and3_1
*CAP
1 *793:C 0.000333596
2 *792:X 0.000333596
13 *793:C 0.0176019
*RES
1 *792:X *793:C 37.1238 
*END

*D_NET *225 0.00769684
*CONN
*I *795:B1 I *D sky130_fd_sc_hd__a21oi_1
*I *796:C I *D sky130_fd_sc_hd__and3_1
*I *794:X O *D sky130_fd_sc_hd__xor2_1
*CAP
1 *795:B1 0
2 *796:C 3.71158e-05
3 *794:X 0.000297179
4 *225:12 0.000334295
14 *795:B1 0.00702825
*RES
1 *794:X *225:12 24.1802 
2 *225:12 *796:C 10.9595 
3 *225:12 *795:B1 9.3 
*END

*D_NET *226 0.00741377
*CONN
*I *797:B I *D sky130_fd_sc_hd__nor3_1
*I *795:Y O *D sky130_fd_sc_hd__a21oi_1
*CAP
1 *797:B 0.000405466
2 *795:Y 0.000405466
10 *797:B 0.00660283
*RES
1 *795:Y *797:B 33.0834 
*END

*D_NET *227 0.0108439
*CONN
*I *797:C I *D sky130_fd_sc_hd__nor3_1
*I *796:X O *D sky130_fd_sc_hd__and3_1
*CAP
1 *797:C 0.000197981
2 *796:X 0.000197981
10 *797:C 0.0104479
*RES
1 *796:X *797:C 33.6426 
*END

*D_NET *228 0.010914
*CONN
*I *799:B1 I *D sky130_fd_sc_hd__a21oi_1
*I *800:C I *D sky130_fd_sc_hd__and3_1
*I *798:X O *D sky130_fd_sc_hd__xor2_1
*CAP
1 *799:B1 0
2 *800:C 4.2491e-05
3 *798:X 0.000384447
4 *228:14 0.000426938
17 *799:B1 0.0100601
*RES
1 *798:X *228:14 25.2805 
2 *228:14 *800:C 10.5266 
3 *228:14 *799:B1 9.3 
*END

*D_NET *229 0.00493896
*CONN
*I *801:B I *D sky130_fd_sc_hd__nor3_1
*I *799:Y O *D sky130_fd_sc_hd__a21oi_1
*CAP
1 *801:B 0.000192038
2 *799:Y 0.000192038
6 *801:B 0.00455488
*RES
1 *799:Y *801:B 22.0452 
*END

*D_NET *230 0.00459846
*CONN
*I *801:C I *D sky130_fd_sc_hd__nor3_1
*I *800:X O *D sky130_fd_sc_hd__and3_1
*CAP
1 *801:C 0.000650928
2 *800:X 0.000650928
7 *801:C 0.00329661
*RES
1 *800:X *801:C 22.911 
*END

*D_NET *231 0.00489027
*CONN
*I *803:B1 I *D sky130_fd_sc_hd__a21oi_1
*I *804:C I *D sky130_fd_sc_hd__and3_1
*I *802:X O *D sky130_fd_sc_hd__xor2_1
*CAP
1 *803:B1 3.61403e-06
2 *804:C 6.53011e-06
3 *802:X 0.000100749
4 *231:10 0.000110893
11 *803:B1 0.00466848
*RES
1 *802:X *231:10 20.5727 
2 *231:10 *804:C 10.1117 
3 *231:10 *803:B1 9.84113 
*END

*D_NET *232 0.0152034
*CONN
*I *805:B I *D sky130_fd_sc_hd__nor3_1
*I *803:Y O *D sky130_fd_sc_hd__a21oi_1
*CAP
1 *805:B 0.000124794
2 *803:Y 0.000124794
11 *805:B 0.0149538
*RES
1 *803:Y *805:B 35.1577 
*END

*D_NET *233 0.0117798
*CONN
*I *805:C I *D sky130_fd_sc_hd__nor3_1
*I *804:X O *D sky130_fd_sc_hd__and3_1
*CAP
1 *805:C 0.000447685
2 *804:X 0.000447685
7 *805:C 0.0108844
*RES
1 *804:X *805:C 35.284 
*END

*D_NET *234 0.010295
*CONN
*I *807:B1 I *D sky130_fd_sc_hd__a21oi_1
*I *586:C I *D sky130_fd_sc_hd__and3_1
*I *806:X O *D sky130_fd_sc_hd__xor2_1
*CAP
1 *807:B1 4.42567e-05
2 *586:C 0.000407214
3 *806:X 0
4 *234:6 0.00045147
17 *807:B1 0.00939211
*RES
1 *806:X *234:6 13.8 
2 *234:6 *586:C 17.2091 
3 *234:6 *807:B1 16.9205 
*END

*D_NET *235 0.00430673
*CONN
*I *587:B I *D sky130_fd_sc_hd__nor3_1
*I *807:Y O *D sky130_fd_sc_hd__a21oi_1
*CAP
1 *587:B 0.000153129
2 *807:Y 0.000153129
6 *587:B 0.00400048
*RES
1 *807:Y *587:B 29.4939 
*END

*D_NET *236 0.0053623
*CONN
*I *587:C I *D sky130_fd_sc_hd__nor3_1
*I *586:X O *D sky130_fd_sc_hd__and3_1
*CAP
1 *587:C 0.000263585
2 *586:X 0.000263585
11 *587:C 0.00483513
*RES
1 *586:X *587:C 32.0012 
*END

*D_NET *237 0.0106946
*CONN
*I *589:B1 I *D sky130_fd_sc_hd__a21oi_1
*I *590:C I *D sky130_fd_sc_hd__and3_1
*I *588:X O *D sky130_fd_sc_hd__xor2_1
*CAP
1 *589:B1 8.83336e-05
2 *590:C 0.000121484
3 *588:X 0.000197455
4 *237:8 0.000407272
14 *589:B1 0.00988004
*RES
1 *588:X *237:8 14.3144 
2 *237:8 *590:C 19.8512 
3 *237:8 *589:B1 21.4566 
*END

*D_NET *238 0.0120577
*CONN
*I *591:B I *D sky130_fd_sc_hd__nor3_1
*I *589:Y O *D sky130_fd_sc_hd__a21oi_1
*CAP
1 *591:B 0.000289771
2 *589:Y 0.000289771
11 *591:B 0.0114781
*RES
1 *589:Y *591:B 36.6368 
*END

*D_NET *239 0.0163413
*CONN
*I *591:C I *D sky130_fd_sc_hd__nor3_1
*I *590:X O *D sky130_fd_sc_hd__and3_1
*CAP
1 *591:C 0.00135353
2 *590:X 0.00135353
11 *591:C 0.0136342
*RES
1 *590:X *591:C 39.1621 
*END

*D_NET *240 0.0166148
*CONN
*I *593:B1 I *D sky130_fd_sc_hd__a21oi_1
*I *594:C I *D sky130_fd_sc_hd__and3_1
*I *592:X O *D sky130_fd_sc_hd__xor2_1
*CAP
1 *593:B1 0.000241002
2 *594:C 0.000756515
3 *592:X 0.00056312
4 *240:10 0.00156064
22 *593:B1 0.0134935
*RES
1 *592:X *240:10 22.1514 
2 *240:10 *594:C 16.9025 
3 *240:10 *593:B1 18.2192 
*END

*D_NET *241 0.0120959
*CONN
*I *595:B I *D sky130_fd_sc_hd__nor3_1
*I *593:Y O *D sky130_fd_sc_hd__a21oi_1
*CAP
1 *595:B 0.000434005
2 *593:Y 0.000434005
8 *595:B 0.0112279
*RES
1 *593:Y *595:B 27.1498 
*END

*D_NET *242 0.00171707
*CONN
*I *595:C I *D sky130_fd_sc_hd__nor3_1
*I *594:X O *D sky130_fd_sc_hd__and3_1
*CAP
1 *595:C 2.35235e-05
2 *594:X 2.35235e-05
5 *595:C 0.00167002
*RES
1 *594:X *595:C 29.2595 
*END

*D_NET *243 0.0109286
*CONN
*I *598:C I *D sky130_fd_sc_hd__and3_1
*I *597:B1 I *D sky130_fd_sc_hd__a21oi_1
*I *596:X O *D sky130_fd_sc_hd__xor2_1
*CAP
1 *598:C 7.99192e-05
2 *597:B1 0
3 *596:X 0.000499104
4 *243:20 0.000579023
17 *598:C 0.00977051
*RES
1 *596:X *243:20 26.5542 
2 *243:20 *597:B1 13.8 
3 *243:20 *598:C 15.3512 
*END

*D_NET *244 0.0105282
*CONN
*I *599:B I *D sky130_fd_sc_hd__nor3_1
*I *597:Y O *D sky130_fd_sc_hd__a21oi_1
*CAP
1 *599:B 0.000173137
2 *597:Y 0.000173137
13 *599:B 0.010182
*RES
1 *597:Y *599:B 33.2457 
*END

*D_NET *245 0.00577525
*CONN
*I *599:C I *D sky130_fd_sc_hd__nor3_1
*I *598:X O *D sky130_fd_sc_hd__and3_1
*CAP
1 *599:C 0.00064587
2 *598:X 0.00064587
8 *599:C 0.00448351
*RES
1 *598:X *599:C 24.1556 
*END

*D_NET *246 0.00697431
*CONN
*I *601:B1 I *D sky130_fd_sc_hd__a21oi_1
*I *602:C I *D sky130_fd_sc_hd__and3_1
*I *600:X O *D sky130_fd_sc_hd__xor2_1
*CAP
1 *601:B1 0
2 *602:C 7.29508e-05
3 *600:X 0.000394564
4 *246:20 0.000467514
16 *601:B1 0.00603928
*RES
1 *600:X *246:20 28.7627 
2 *246:20 *602:C 10.9414 
3 *246:20 *601:B1 9.3 
*END

*D_NET *247 0.0103678
*CONN
*I *603:B I *D sky130_fd_sc_hd__nor3_1
*I *601:Y O *D sky130_fd_sc_hd__a21oi_1
*CAP
1 *603:B 0.000213701
2 *601:Y 0.000213701
6 *603:B 0.0099404
*RES
1 *601:Y *603:B 22.46 
*END

*D_NET *248 0.00580871
*CONN
*I *603:C I *D sky130_fd_sc_hd__nor3_1
*I *602:X O *D sky130_fd_sc_hd__and3_1
*CAP
1 *603:C 0.000881
2 *602:X 0.000881
7 *603:C 0.00404671
*RES
1 *602:X *603:C 22.7847 
*END

*D_NET *249 0.00533507
*CONN
*I *605:B1 I *D sky130_fd_sc_hd__a21oi_1
*I *606:C I *D sky130_fd_sc_hd__and3_1
*I *604:X O *D sky130_fd_sc_hd__xor2_1
*CAP
1 *605:B1 0
2 *606:C 4.07748e-05
3 *604:X 0.000255172
4 *249:10 0.000295947
12 *605:B1 0.00474318
*RES
1 *604:X *249:10 23.9457 
2 *249:10 *606:C 10.5266 
3 *249:10 *605:B1 9.3 
*END

*D_NET *250 0.00929404
*CONN
*I *607:B I *D sky130_fd_sc_hd__nor3_1
*I *605:Y O *D sky130_fd_sc_hd__a21oi_1
*CAP
1 *607:B 0.000178864
2 *605:Y 0.000178864
6 *607:B 0.00893632
*RES
1 *605:Y *607:B 22.0452 
*END

*D_NET *251 0.00525713
*CONN
*I *607:C I *D sky130_fd_sc_hd__nor3_1
*I *606:X O *D sky130_fd_sc_hd__and3_1
*CAP
1 *607:C 0.000851807
2 *606:X 0.000851807
7 *607:C 0.00355352
*RES
1 *606:X *607:C 22.7847 
*END

*D_NET *252 0.00343314
*CONN
*I *609:B1 I *D sky130_fd_sc_hd__a21oi_1
*I *610:C I *D sky130_fd_sc_hd__and3_1
*I *608:X O *D sky130_fd_sc_hd__xor2_1
*CAP
1 *609:B1 9.54505e-06
2 *610:C 4.96827e-06
3 *608:X 0.000111542
4 *252:12 0.000126056
14 *609:B1 0.00318103
*RES
1 *608:X *252:12 21.1139 
2 *252:12 *610:C 9.69683 
3 *252:12 *609:B1 10.256 
*END

*D_NET *253 0.00214431
*CONN
*I *611:B I *D sky130_fd_sc_hd__nor3_1
*I *609:Y O *D sky130_fd_sc_hd__a21oi_1
*CAP
1 *611:B 1.6271e-05
2 *609:Y 1.6271e-05
5 *611:B 0.00211177
*RES
1 *609:Y *611:B 28.9528 
*END

*D_NET *254 0.00200011
*CONN
*I *611:C I *D sky130_fd_sc_hd__nor3_1
*I *610:X O *D sky130_fd_sc_hd__and3_1
*CAP
1 *611:C 8.00107e-05
2 *610:X 8.00107e-05
9 *611:C 0.00184009
*RES
1 *610:X *611:C 29.5661 
*END

*D_NET *255 0.00390692
*CONN
*I *613:B1 I *D sky130_fd_sc_hd__a21oi_1
*I *614:C I *D sky130_fd_sc_hd__and3_1
*I *612:X O *D sky130_fd_sc_hd__xor2_1
*CAP
1 *613:B1 9.11931e-05
2 *614:C 5.47449e-05
3 *612:X 0.000228974
4 *255:8 0.000374912
14 *613:B1 0.0031571
*RES
1 *612:X *255:8 14.756 
2 *255:8 *614:C 15.7661 
3 *255:8 *613:B1 15.7661 
*END

*D_NET *256 0.00938181
*CONN
*I *615:B I *D sky130_fd_sc_hd__nor3_1
*I *613:Y O *D sky130_fd_sc_hd__a21oi_1
*CAP
1 *615:B 0.00050289
2 *613:Y 0.00050289
12 *615:B 0.00837603
*RES
1 *613:Y *615:B 33.0834 
*END

*D_NET *257 0.00331227
*CONN
*I *615:C I *D sky130_fd_sc_hd__nor3_1
*I *614:X O *D sky130_fd_sc_hd__and3_1
*CAP
1 *615:C 0.000305734
2 *614:X 0.000305734
10 *615:C 0.0027008
*RES
1 *614:X *615:C 30.8828 
*END

*D_NET *258 0.0076007
*CONN
*I *618:C I *D sky130_fd_sc_hd__and3_1
*I *617:B1 I *D sky130_fd_sc_hd__a21oi_1
*I *616:X O *D sky130_fd_sc_hd__xor2_1
*CAP
1 *618:C 0
2 *617:B1 0.000181902
3 *616:X 0.000165129
4 *258:8 0.000347031
15 *618:C 0.00690663
*RES
1 *616:X *258:8 11.6178 
2 *258:8 *617:B1 23.0709 
3 *258:8 *618:C 9.3 
*END

*D_NET *259 0.00309593
*CONN
*I *619:B I *D sky130_fd_sc_hd__nor3_1
*I *617:Y O *D sky130_fd_sc_hd__a21oi_1
*CAP
1 *619:B 0.000209103
2 *617:Y 0.000209103
7 *619:B 0.00267773
*RES
1 *617:Y *619:B 30.0351 
*END

*D_NET *260 0.00146392
*CONN
*I *619:C I *D sky130_fd_sc_hd__nor3_1
*I *618:X O *D sky130_fd_sc_hd__and3_1
*CAP
1 *619:C 6.08764e-05
2 *618:X 6.08764e-05
6 *619:C 0.00134217
*RES
1 *618:X *619:C 19.8807 
*END

*D_NET *261 0.0129554
*CONN
*I *699:A I *D sky130_fd_sc_hd__xnor2_1
*I *698:A I *D sky130_fd_sc_hd__nor2_1
*I *697:A I *D sky130_fd_sc_hd__nand2_1
*I *841:Q O *D sky130_fd_sc_hd__dfxtp_1
*CAP
1 *699:A 8.17873e-05
2 *698:A 0
3 *697:A 6.5148e-05
4 *841:Q 6.99381e-05
5 *261:10 0.000285265
6 *261:8 0.000371842
19 *699:A 0.0120814
*RES
1 *841:Q *261:8 15.4595 
2 *261:8 *261:10 5.03247 
3 *261:10 *697:A 25.6499 
4 *261:10 *698:A 13.8 
5 *261:8 *699:A 16.4154 
*END

*D_NET *262 0.0126185
*CONN
*I *802:A I *D sky130_fd_sc_hd__xor2_1
*I *668:B1 I *D sky130_fd_sc_hd__a22oi_1
*I *669:A I *D sky130_fd_sc_hd__nor2_1
*I *851:Q O *D sky130_fd_sc_hd__dfxtp_1
*CAP
1 *802:A 8.0853e-05
2 *668:B1 6.07763e-05
3 *669:A 3.49172e-05
4 *851:Q 0
5 *262:12 0.00013914
6 *262:4 0.0001243
22 *802:A 0.0121785
*RES
1 *851:Q *262:4 9.3 
2 *262:4 *262:12 11.5072 
3 *262:12 *669:A 11.1038 
4 *262:12 *668:B1 11.8253 
5 *262:4 *802:A 11.4104 
*END

*D_NET *263 0.00917385
*CONN
*I *666:A I *D sky130_fd_sc_hd__nor2_1
*I *665:B1 I *D sky130_fd_sc_hd__a22oi_1
*I *798:A I *D sky130_fd_sc_hd__xor2_1
*I *852:Q O *D sky130_fd_sc_hd__dfxtp_1
*CAP
1 *666:A 0.000655698
2 *665:B1 4.68953e-05
3 *798:A 0
4 *852:Q 0
5 *263:12 0.000235908
6 *263:4 0.000844711
20 *666:A 0.00739063
*RES
1 *852:Q *263:4 9.3 
2 *263:4 *263:12 11.5072 
3 *263:12 *798:A 9.3 
4 *263:12 *665:B1 12.3303 
5 *263:4 *666:A 13.629 
*END

*D_NET *264 0.0117847
*CONN
*I *662:B1 I *D sky130_fd_sc_hd__a22oi_1
*I *663:A I *D sky130_fd_sc_hd__nor2_1
*I *794:A I *D sky130_fd_sc_hd__xor2_1
*I *853:Q O *D sky130_fd_sc_hd__dfxtp_1
*CAP
1 *662:B1 0.000348959
2 *663:A 0.000108395
3 *794:A 0.000233595
4 *853:Q 0
5 *264:8 0.000889831
6 *264:4 0.000896801
27 *662:B1 0.00930716
*RES
1 *853:Q *264:4 9.3 
2 *264:4 *264:8 6.70058 
3 *264:8 *794:A 19.1752 
4 *264:8 *663:A 17.2993 
5 *264:4 *662:B1 11.1038 
*END

*D_NET *265 0.0105839
*CONN
*I *660:A I *D sky130_fd_sc_hd__nor2_1
*I *659:B1 I *D sky130_fd_sc_hd__a22oi_1
*I *790:A I *D sky130_fd_sc_hd__xor2_1
*I *854:Q O *D sky130_fd_sc_hd__dfxtp_1
*CAP
1 *660:A 1.45738e-05
2 *659:B1 0.000291045
3 *790:A 0
4 *854:Q 0.000319346
5 *265:16 0.000530737
6 *265:10 0.000573612
21 *660:A 0.00885458
*RES
1 *854:Q *265:10 13.8094 
2 *265:10 *265:16 3.62103 
3 *265:16 *790:A 9.3 
4 *265:16 *659:B1 28.076 
5 *265:10 *660:A 9.7329 
*END

*D_NET *266 0.00946938
*CONN
*I *786:A I *D sky130_fd_sc_hd__xor2_1
*I *656:B1 I *D sky130_fd_sc_hd__a22oi_1
*I *657:A I *D sky130_fd_sc_hd__nor2_1
*I *855:Q O *D sky130_fd_sc_hd__dfxtp_1
*CAP
1 *786:A 0
2 *656:B1 0
3 *657:A 0.000188951
4 *855:Q 0.00201044
5 *266:20 0.000255898
6 *266:12 0.00207739
25 *786:A 0.0049367
*RES
1 *855:Q *266:12 19.0222 
2 *266:12 *266:20 7.44012 
3 *266:20 *657:A 16.6499 
4 *266:20 *656:B1 13.8 
5 *266:12 *786:A 9.3 
*END

*D_NET *267 0.0113964
*CONN
*I *782:A I *D sky130_fd_sc_hd__xor2_1
*I *653:B1 I *D sky130_fd_sc_hd__a22oi_1
*I *654:A I *D sky130_fd_sc_hd__nor2_1
*I *856:Q O *D sky130_fd_sc_hd__dfxtp_1
*CAP
1 *782:A 0.000233431
2 *653:B1 0
3 *654:A 1.45131e-05
4 *856:Q 0
5 *267:16 0.000614498
6 *267:4 0.000833416
21 *782:A 0.00970056
*RES
1 *856:Q *267:4 9.3 
2 *267:4 *267:16 14.2489 
3 *267:16 *654:A 11.0857 
4 *267:16 *653:B1 9.3 
5 *267:4 *782:A 21.7632 
*END

*D_NET *268 0.0179585
*CONN
*I *650:B1 I *D sky130_fd_sc_hd__a22oi_1
*I *778:A I *D sky130_fd_sc_hd__xor2_1
*I *651:A I *D sky130_fd_sc_hd__nor2_1
*I *857:Q O *D sky130_fd_sc_hd__dfxtp_1
*CAP
1 *650:B1 5.51208e-05
2 *778:A 0
3 *651:A 6.67359e-05
4 *857:Q 0.000124713
5 *268:14 0.000200567
6 *268:8 0.000313665
24 *650:B1 0.0171977
*RES
1 *857:Q *268:8 15.1709 
2 *268:8 *268:14 9.38817 
3 *268:14 *651:A 14.1521 
4 *268:14 *778:A 9.3 
5 *268:8 *650:B1 16.3794 
*END

*D_NET *269 0.00935071
*CONN
*I *647:B1 I *D sky130_fd_sc_hd__a22oi_1
*I *774:A I *D sky130_fd_sc_hd__xor2_1
*I *648:A I *D sky130_fd_sc_hd__nor2_1
*I *858:Q O *D sky130_fd_sc_hd__dfxtp_1
*CAP
1 *647:B1 0
2 *774:A 7.11419e-05
3 *648:A 0
4 *858:Q 0.000413262
5 *269:21 0.000219074
6 *269:10 0.000561194
19 *647:B1 0.00808604
*RES
1 *858:Q *269:10 14.4407 
2 *269:10 *648:A 9.3 
3 *269:10 *269:21 7.92713 
4 *269:21 *774:A 16.0727 
5 *269:21 *647:B1 13.8 
*END

*D_NET *270 0.019029
*CONN
*I *644:B1 I *D sky130_fd_sc_hd__a22oi_1
*I *645:A I *D sky130_fd_sc_hd__nor2_1
*I *770:A I *D sky130_fd_sc_hd__xor2_1
*I *859:Q O *D sky130_fd_sc_hd__dfxtp_1
*CAP
1 *644:B1 0
2 *645:A 0.000145455
3 *770:A 7.68995e-05
4 *859:Q 0.000935093
5 *270:23 0.000145455
6 *270:10 0.00101199
23 *644:B1 0.0167141
*RES
1 *859:Q *270:10 19.0128 
2 *270:10 *770:A 18.7784 
3 *270:10 *270:23 4.5 
4 *270:23 *645:A 11.1038 
5 *270:23 *644:B1 9.3 
*END

*D_NET *271 0.00657006
*CONN
*I *641:B1 I *D sky130_fd_sc_hd__a22oi_1
*I *642:A I *D sky130_fd_sc_hd__nor2_1
*I *766:A I *D sky130_fd_sc_hd__xor2_1
*I *860:Q O *D sky130_fd_sc_hd__dfxtp_1
*CAP
1 *641:B1 0
2 *642:A 2.14801e-05
3 *766:A 0
4 *860:Q 0.00012815
5 *271:27 0.00011078
6 *271:12 0.000217451
20 *641:B1 0.0060922
*RES
1 *860:Q *271:12 21.2221 
2 *271:12 *766:A 9.3 
3 *271:12 *271:27 11.9401 
4 *271:27 *642:A 10.6709 
5 *271:27 *641:B1 9.3 
*END

*D_NET *272 0.0180185
*CONN
*I *616:A I *D sky130_fd_sc_hd__xor2_1
*I *707:A I *D sky130_fd_sc_hd__nor2_1
*I *706:B1 I *D sky130_fd_sc_hd__a22oi_1
*I *842:Q O *D sky130_fd_sc_hd__dfxtp_1
*CAP
1 *616:A 0.000203575
2 *707:A 0.000117702
3 *706:B1 0.000892621
4 *842:Q 0
5 *272:21 0.000329584
6 *272:4 0.000900928
25 *616:A 0.0155741
*RES
1 *842:Q *272:4 9.3 
2 *272:4 *706:B1 23.7113 
3 *272:4 *272:21 5.23954 
4 *272:21 *707:A 15.6038 
5 *272:21 *616:A 21.7545 
*END

*D_NET *273 0.0155384
*CONN
*I *762:A I *D sky130_fd_sc_hd__xor2_1
*I *639:A I *D sky130_fd_sc_hd__nor2_1
*I *638:B1 I *D sky130_fd_sc_hd__a22oi_1
*I *861:Q O *D sky130_fd_sc_hd__dfxtp_1
*CAP
1 *762:A 0.000140313
2 *639:A 0.000238094
3 *638:B1 0
4 *861:Q 0.0001989
5 *273:10 0.000238094
6 *273:8 0.000339213
27 *762:A 0.0143838
*RES
1 *861:Q *273:8 17.9126 
2 *273:8 *273:10 4.5 
3 *273:10 *638:B1 9.3 
4 *273:10 *639:A 14.1701 
5 *273:8 *762:A 17.9486 
*END

*D_NET *274 0.00479889
*CONN
*I *636:A I *D sky130_fd_sc_hd__nor2_1
*I *635:B1 I *D sky130_fd_sc_hd__a22oi_1
*I *758:A I *D sky130_fd_sc_hd__xor2_1
*I *862:Q O *D sky130_fd_sc_hd__dfxtp_1
*CAP
1 *636:A 0.000322619
2 *635:B1 0.000500497
3 *758:A 0
4 *862:Q 0.000721962
5 *274:8 0.000899839
16 *636:A 0.00235397
*RES
1 *862:Q *274:8 11.4104 
2 *274:8 *758:A 9.3 
3 *274:8 *635:B1 25.497 
4 *862:Q *636:A 30.5221 
*END

*D_NET *275 0.0124702
*CONN
*I *754:A I *D sky130_fd_sc_hd__xor2_1
*I *632:B1 I *D sky130_fd_sc_hd__a22oi_1
*I *633:A I *D sky130_fd_sc_hd__nor2_1
*I *863:Q O *D sky130_fd_sc_hd__dfxtp_1
*CAP
1 *754:A 0.000147042
2 *632:B1 3.62056e-05
3 *633:A 5.52184e-05
4 *863:Q 0
5 *275:10 0.000424775
6 *275:4 0.000480393
20 *754:A 0.0113266
*RES
1 *863:Q *275:4 9.3 
2 *275:4 *275:10 7.42208 
3 *275:10 *633:A 16.3794 
4 *275:10 *632:B1 16.4335 
5 *275:4 *754:A 11.4104 
*END

*D_NET *276 0.0121638
*CONN
*I *750:A I *D sky130_fd_sc_hd__xor2_1
*I *630:A I *D sky130_fd_sc_hd__nor2_1
*I *629:B1 I *D sky130_fd_sc_hd__a22oi_1
*I *864:Q O *D sky130_fd_sc_hd__dfxtp_1
*CAP
1 *750:A 0
2 *630:A 8.15149e-05
3 *629:B1 0
4 *864:Q 0.000112216
5 *276:18 0.000258616
6 *276:12 0.000289317
23 *750:A 0.0114222
*RES
1 *864:Q *276:12 21.2221 
2 *276:12 *276:18 14.0325 
3 *276:18 *629:B1 9.3 
4 *276:18 *630:A 12.3664 
5 *276:12 *750:A 9.3 
*END

*D_NET *277 0.0119882
*CONN
*I *746:A I *D sky130_fd_sc_hd__xor2_1
*I *627:A I *D sky130_fd_sc_hd__nor2_1
*I *626:B1 I *D sky130_fd_sc_hd__a22oi_1
*I *865:Q O *D sky130_fd_sc_hd__dfxtp_1
*CAP
1 *746:A 0.000163326
2 *627:A 0.000103754
3 *626:B1 0.000314404
4 *865:Q 0
5 *277:8 0.000551395
6 *277:4 0.000296563
18 *746:A 0.0105588
*RES
1 *865:Q *277:4 9.3 
2 *277:4 *277:8 5.04113 
3 *277:8 *626:B1 19.4999 
4 *277:8 *627:A 16.1268 
5 *277:4 *746:A 11.8253 
*END

*D_NET *278 0.0180389
*CONN
*I *741:A I *D sky130_fd_sc_hd__nand2_1
*I *743:A I *D sky130_fd_sc_hd__xnor2_1
*I *742:A I *D sky130_fd_sc_hd__nor2_1
*I *866:Q O *D sky130_fd_sc_hd__dfxtp_1
*CAP
1 *741:A 6.85075e-05
2 *743:A 0
3 *742:A 1.11693e-05
4 *866:Q 0.00069201
5 *278:16 1.83562e-05
6 *278:14 0.000767705
23 *741:A 0.0164812
*RES
1 *866:Q *278:14 23.4227 
2 *278:14 *278:16 0.541126 
3 *278:16 *742:A 10.6709 
4 *278:16 *743:A 9.3 
5 *278:14 *741:A 22.8996 
*END

*D_NET *279 0.0120903
*CONN
*I *735:A I *D sky130_fd_sc_hd__nand2_1
*I *737:A I *D sky130_fd_sc_hd__xnor2_1
*I *736:A I *D sky130_fd_sc_hd__nor2_1
*I *867:Q O *D sky130_fd_sc_hd__dfxtp_1
*CAP
1 *735:A 2.7541e-05
2 *737:A 5.14749e-05
3 *736:A 0
4 *867:Q 0.00105292
5 *279:25 0.00028101
6 *279:16 0.00125491
19 *735:A 0.0094224
*RES
1 *867:Q *279:16 32.4955 
2 *279:16 *736:A 9.3 
3 *279:16 *279:25 3.04834 
4 *279:25 *737:A 10.274 
5 *279:25 *735:A 20.8794 
*END

*D_NET *280 0.00923867
*CONN
*I *731:A I *D sky130_fd_sc_hd__xnor2_1
*I *729:A I *D sky130_fd_sc_hd__nand2_1
*I *730:A I *D sky130_fd_sc_hd__nor2_1
*I *868:Q O *D sky130_fd_sc_hd__dfxtp_1
*CAP
1 *731:A 0
2 *729:A 4.08561e-05
3 *730:A 0
4 *868:Q 0.000910191
5 *280:14 5.15981e-05
6 *280:12 0.000920933
16 *731:A 0.00731509
*RES
1 *868:Q *280:12 22.9898 
2 *280:12 *280:14 1.37085 
3 *280:14 *730:A 9.3 
4 *280:14 *729:A 11.5367 
5 *280:12 *731:A 9.3 
*END

*D_NET *281 0.00965771
*CONN
*I *724:A I *D sky130_fd_sc_hd__nor2_1
*I *725:A I *D sky130_fd_sc_hd__xnor2_1
*I *723:A I *D sky130_fd_sc_hd__nand2_1
*I *869:Q O *D sky130_fd_sc_hd__dfxtp_1
*CAP
1 *724:A 0.000139058
2 *725:A 0
3 *723:A 0.000143401
4 *869:Q 0
5 *281:12 0.000981744
6 *281:4 0.000977401
14 *724:A 0.00741611
*RES
1 *869:Q *281:4 9.3 
2 *281:4 *281:12 13.9964 
3 *281:12 *723:A 11.9154 
4 *281:12 *725:A 9.3 
5 *281:4 *724:A 11.8433 
*END

*D_NET *282 0.0104351
*CONN
*I *718:A I *D sky130_fd_sc_hd__nor2_1
*I *719:A I *D sky130_fd_sc_hd__xnor2_1
*I *717:A I *D sky130_fd_sc_hd__nand2_1
*I *870:Q O *D sky130_fd_sc_hd__dfxtp_1
*CAP
1 *718:A 2.20547e-05
2 *719:A 0.000107419
3 *717:A 3.18988e-05
4 *870:Q 3.40721e-05
5 *282:18 0.000194436
6 *282:10 0.000111245
23 *718:A 0.00993392
*RES
1 *870:Q *282:10 19.9595 
2 *282:10 *282:18 3.19264 
3 *282:18 *717:A 10.6709 
4 *282:18 *719:A 21.7271 
5 *282:10 *718:A 9.84113 
*END

*D_NET *283 0.00707593
*CONN
*I *612:A I *D sky130_fd_sc_hd__xor2_1
*I *703:B1 I *D sky130_fd_sc_hd__a22oi_1
*I *704:A I *D sky130_fd_sc_hd__nor2_1
*I *843:Q O *D sky130_fd_sc_hd__dfxtp_1
*CAP
1 *612:A 9.5745e-06
2 *703:B1 5.03236e-05
3 *704:A 0.000239254
4 *843:Q 0.00029938
5 *283:23 5.98981e-05
6 *283:10 0.000538634
19 *612:A 0.00587886
*RES
1 *843:Q *283:10 16.3072 
2 *283:10 *704:A 17.0287 
3 *283:10 *283:23 4.5 
4 *283:23 *703:B1 11.9515 
5 *283:23 *612:A 10.256 
*END

*D_NET *284 0.00937226
*CONN
*I *713:A I *D sky130_fd_sc_hd__xnor2_1
*I *712:A I *D sky130_fd_sc_hd__nor2_1
*I *711:A I *D sky130_fd_sc_hd__nand2_1
*I *871:Q O *D sky130_fd_sc_hd__dfxtp_1
*CAP
1 *713:A 0
2 *712:A 0.000224498
3 *711:A 8.75041e-05
4 *871:Q 0
5 *284:21 0.000290848
6 *284:6 0.000153854
18 *713:A 0.00861556
*RES
1 *871:Q *284:6 13.8 
2 *284:6 *711:A 15.7661 
3 *284:6 *284:21 6.91703 
4 *284:21 *712:A 13.1961 
5 *284:21 *713:A 9.3 
*END

*D_NET *285 0.00326676
*CONN
*I *693:B1 I *D sky130_fd_sc_hd__a21oi_1
*I *692:C I *D sky130_fd_sc_hd__and3_1
*I *872:Q O *D sky130_fd_sc_hd__dfxtp_1
*CAP
1 *693:B1 0
2 *692:C 0.000109856
3 *872:Q 0.000423727
4 *285:16 0.000533583
11 *693:B1 0.0021996
*RES
1 *872:Q *285:16 23.3144 
2 *285:16 *692:C 10.5266 
3 *285:16 *693:B1 9.3 
*END

*D_NET *286 0.0102438
*CONN
*I *689:B1 I *D sky130_fd_sc_hd__a22oi_1
*I *608:A I *D sky130_fd_sc_hd__xor2_1
*I *690:A I *D sky130_fd_sc_hd__nor2_1
*I *844:Q O *D sky130_fd_sc_hd__dfxtp_1
*CAP
1 *689:B1 0.000187227
2 *608:A 0
3 *690:A 1.85622e-05
4 *844:Q 0
5 *286:10 7.09377e-05
6 *286:4 0.000239602
21 *689:B1 0.00972749
*RES
1 *844:Q *286:4 9.3 
2 *286:4 *286:10 11.2727 
3 *286:10 *690:A 10.6709 
4 *286:10 *608:A 9.3 
5 *286:4 *689:B1 22.5569 
*END

*D_NET *287 0.0135596
*CONN
*I *686:B1 I *D sky130_fd_sc_hd__a22oi_1
*I *687:A I *D sky130_fd_sc_hd__nor2_1
*I *604:A I *D sky130_fd_sc_hd__xor2_1
*I *845:Q O *D sky130_fd_sc_hd__dfxtp_1
*CAP
1 *686:B1 0.000151667
2 *687:A 0.000319483
3 *604:A 0
4 *845:Q 0.000387355
5 *287:12 0.000319483
6 *287:10 0.000539023
15 *686:B1 0.0118426
*RES
1 *845:Q *287:10 18.2553 
2 *287:10 *287:12 4.5 
3 *287:12 *604:A 9.3 
4 *287:12 *687:A 13.1961 
5 *287:10 *686:B1 16.3072 
*END

*D_NET *288 0.0170158
*CONN
*I *600:A I *D sky130_fd_sc_hd__xor2_1
*I *684:A I *D sky130_fd_sc_hd__nor2_1
*I *683:B1 I *D sky130_fd_sc_hd__a22oi_1
*I *846:Q O *D sky130_fd_sc_hd__dfxtp_1
*CAP
1 *600:A 0.000117792
2 *684:A 8.86922e-05
3 *683:B1 0
4 *846:Q 0.000186066
5 *288:12 8.86922e-05
6 *288:10 0.000303858
27 *600:A 0.0162307
*RES
1 *846:Q *288:10 15.6939 
2 *288:10 *288:12 4.5 
3 *288:12 *683:B1 9.3 
4 *288:12 *684:A 14.585 
5 *288:10 *600:A 19.103 
*END

*D_NET *289 0.0480546
*CONN
*I *680:B1 I *D sky130_fd_sc_hd__a22oi_1
*I *596:A I *D sky130_fd_sc_hd__xor2_1
*I *681:A I *D sky130_fd_sc_hd__nor2_1
*I *847:Q O *D sky130_fd_sc_hd__dfxtp_1
*CAP
1 *680:B1 0.000257068
2 *596:A 1.75084e-05
3 *681:A 0.000277678
4 *847:Q 0.000482836
5 *289:12 0.0004645
6 *289:10 0.000909218
34 *680:B1 0.0456457
*RES
1 *847:Q *289:10 17.0918 
2 *289:10 *289:12 5.18579 
3 *289:12 *681:A 32.9739 
4 *289:12 *596:A 14.756 
5 *289:10 *680:B1 21.4566 
*END

*D_NET *290 0.0161426
*CONN
*I *677:B1 I *D sky130_fd_sc_hd__a22oi_1
*I *592:A I *D sky130_fd_sc_hd__xor2_1
*I *678:A I *D sky130_fd_sc_hd__nor2_1
*I *848:Q O *D sky130_fd_sc_hd__dfxtp_1
*CAP
1 *677:B1 9.78768e-05
2 *592:A 1.53405e-05
3 *678:A 4.71771e-05
4 *848:Q 0.00114823
5 *290:10 8.65166e-05
6 *290:8 0.0012701
18 *677:B1 0.0134773
*RES
1 *848:Q *290:8 18.0749 
2 *290:8 *290:10 1.65945 
3 *290:10 *678:A 16.686 
4 *290:10 *592:A 14.756 
5 *290:8 *677:B1 17.8404 
*END

*D_NET *291 0.0155979
*CONN
*I *588:A I *D sky130_fd_sc_hd__xor2_1
*I *674:B1 I *D sky130_fd_sc_hd__a22oi_1
*I *675:A I *D sky130_fd_sc_hd__nor2_1
*I *849:Q O *D sky130_fd_sc_hd__dfxtp_1
*CAP
1 *588:A 5.04713e-05
2 *674:B1 6.24818e-05
3 *675:A 0
4 *849:Q 0.000851415
5 *291:18 0.000406247
6 *291:10 0.00124565
24 *588:A 0.0129816
*RES
1 *849:Q *291:10 18.1831 
2 *291:10 *291:18 14.8442 
3 *291:18 *675:A 13.8 
4 *291:18 *674:B1 16.4335 
5 *291:10 *588:A 14.5395 
*END

*D_NET *292 0.0089631
*CONN
*I *671:B1 I *D sky130_fd_sc_hd__a22oi_1
*I *806:A I *D sky130_fd_sc_hd__xor2_1
*I *672:A I *D sky130_fd_sc_hd__nor2_1
*I *850:Q O *D sky130_fd_sc_hd__dfxtp_1
*CAP
1 *671:B1 0.0002214
2 *806:A 0
3 *672:A 0.000247019
4 *850:Q 0
5 *292:25 0.000336042
6 *292:6 0.000361661
22 *671:B1 0.00779698
*RES
1 *850:Q *292:6 13.8 
2 *292:6 *672:A 20.2394 
3 *292:6 *292:25 7.5303 
4 *292:25 *806:A 9.3 
5 *292:25 *671:B1 12.7812 
*END

*D_NET *1 0.039249
*CONN
*P clk I
*I *873:A I *D sky130_fd_sc_hd__clkbuf_16
*CAP
1 clk 0.00277942
2 *873:A 6.19389e-05
3 *1:18 0.00284136
24 clk 0.0335663
*RES
1 clk *1:18 37.0631 
2 *1:18 *873:A 10.8783 
*END

*D_NET *293 0.0727681
*CONN
*I *881:A I *D sky130_fd_sc_hd__clkbuf_16
*I *877:A I *D sky130_fd_sc_hd__clkbuf_16
*I *876:A I *D sky130_fd_sc_hd__clkbuf_16
*I *880:A I *D sky130_fd_sc_hd__clkbuf_16
*I *878:A I *D sky130_fd_sc_hd__clkbuf_16
*I *879:A I *D sky130_fd_sc_hd__clkbuf_16
*I *875:A I *D sky130_fd_sc_hd__clkbuf_16
*I *874:A I *D sky130_fd_sc_hd__clkbuf_16
*I *873:X O *D sky130_fd_sc_hd__clkbuf_16
*CAP
1 *881:A 3.35798e-05
2 *877:A 0
3 *876:A 7.54395e-05
4 *880:A 0
5 *878:A 0
6 *879:A 9.66265e-05
7 *875:A 0.000151296
8 *874:A 5.8555e-05
9 *873:X 0.000495316
10 *293:177 0.00134636
11 *293:154 0.00080969
12 *293:148 0.00143724
13 *293:139 0.00205438
14 *293:130 0.000121826
15 *293:124 0.000326365
16 *293:111 0.000625579
17 *293:86 0.00156557
18 *293:70 0.000277445
19 *293:52 0.000685451
20 *293:42 0.00110095
21 *293:29 0.00181684
22 *293:27 1.24876e-05
23 *293:23 0.000999304
24 *293:6 0.00109969
130 *881:A 0.0575781
*RES
1 *873:X *293:6 10.7024 
2 *293:6 *293:23 25.8425 
3 *293:23 *293:27 1.57828 
4 *293:27 *293:29 4.5 
5 *293:29 *293:42 14.5366 
6 *293:42 *293:52 22.9298 
7 *293:52 *874:A 11.3427 
8 *293:42 *293:70 6.46609 
9 *293:70 *875:A 10.9053 
10 *293:29 *293:86 28.6613 
11 *293:86 *879:A 10.8783 
12 *293:27 *878:A 9.3 
13 *873:X *293:111 15.6038 
14 *293:111 *293:124 8.85611 
15 *293:124 *293:130 5.45599 
16 *293:130 *880:A 9.3 
17 *293:130 *293:139 5.04113 
18 *293:139 *293:148 11.4358 
19 *293:148 *293:154 19.7868 
20 *293:154 *876:A 10.8783 
21 *293:148 *877:A 13.8 
22 *293:139 *293:177 22.8622 
23 *293:177 *881:A 10.761 
*END

*D_NET *294 0.0479312
*CONN
*I *839:CLK I *D sky130_fd_sc_hd__dfxtp_1
*I *838:CLK I *D sky130_fd_sc_hd__dfxtp_1
*I *837:CLK I *D sky130_fd_sc_hd__dfxtp_1
*I *869:CLK I *D sky130_fd_sc_hd__dfxtp_1
*I *868:CLK I *D sky130_fd_sc_hd__dfxtp_1
*I *836:CLK I *D sky130_fd_sc_hd__dfxtp_1
*I *871:CLK I *D sky130_fd_sc_hd__dfxtp_1
*I *872:CLK I *D sky130_fd_sc_hd__dfxtp_1
*I *864:CLK I *D sky130_fd_sc_hd__dfxtp_1
*I *874:X O *D sky130_fd_sc_hd__clkbuf_16
*CAP
1 *839:CLK 6.18118e-05
2 *838:CLK 0.000536277
3 *837:CLK 0.00140366
4 *869:CLK 0
5 *868:CLK 0.000182042
6 *836:CLK 0
7 *871:CLK 0
8 *872:CLK 0.000172136
9 *864:CLK 0.000256882
10 *874:X 0.000329176
11 *294:101 0.00200308
12 *294:74 0.000665706
13 *294:70 0.000931516
14 *294:57 0.00126095
15 *294:53 0.00142343
16 *294:30 0.000775831
17 *294:28 0.000190615
56 *839:CLK 0.0377381
*RES
1 *874:X *864:CLK 30.3417 
2 *874:X *294:28 15.4595 
3 *294:28 *294:30 3.19264 
4 *294:30 *872:CLK 19.4638 
5 *294:30 *294:53 8.91919 
6 *294:53 *294:57 3.76984 
7 *294:57 *871:CLK 9.3 
8 *294:57 *294:70 9.72222 
9 *294:70 *294:74 11.6789 
10 *294:74 *836:CLK 13.8 
11 *294:74 *868:CLK 16.3794 
12 *294:70 *869:CLK 9.3 
13 *294:53 *294:101 5.32071 
14 *294:101 *837:CLK 20.537 
15 *294:101 *838:CLK 22.2506 
16 *294:28 *839:CLK 14.756 
*END

*D_NET *295 0.0619419
*CONN
*I *882:A I *D sky130_fd_sc_hd__clkbuf_4
*I *829:CLK I *D sky130_fd_sc_hd__dfxtp_1
*I *870:CLK I *D sky130_fd_sc_hd__dfxtp_1
*I *866:CLK I *D sky130_fd_sc_hd__dfxtp_1
*I *835:CLK I *D sky130_fd_sc_hd__dfxtp_1
*I *861:CLK I *D sky130_fd_sc_hd__dfxtp_1
*I *851:CLK I *D sky130_fd_sc_hd__dfxtp_1
*I *832:CLK I *D sky130_fd_sc_hd__dfxtp_1
*I *867:CLK I *D sky130_fd_sc_hd__dfxtp_1
*I *875:X O *D sky130_fd_sc_hd__clkbuf_16
*CAP
1 *882:A 0.000121127
2 *829:CLK 3.22045e-05
3 *870:CLK 0
4 *866:CLK 0.00016583
5 *835:CLK 0.00013095
6 *861:CLK 0
7 *851:CLK 0.000788137
8 *832:CLK 9.52093e-05
9 *867:CLK 0.000453348
10 *875:X 0.000860616
11 *295:90 0.0011021
12 *295:80 0.00130232
13 *295:72 0.00102047
14 *295:50 0.000828893
15 *295:33 0.000309171
16 *295:27 0.000724043
17 *295:25 0.00020952
18 *295:6 0.00134279
62 *882:A 0.0524552
*RES
1 *875:X *295:6 12.7452 
2 *295:6 *867:CLK 26.2726 
3 *295:6 *295:25 6.77273 
4 *295:25 *295:27 2.886 
5 *295:27 *295:33 7.94517 
6 *295:33 *832:CLK 21.9616 
7 *295:33 *295:50 0.955989 
8 *295:50 *851:CLK 18.4811 
9 *295:50 *861:CLK 9.3 
10 *295:27 *295:72 6.71862 
11 *295:72 *295:80 15.6558 
12 *295:80 *295:90 18.1724 
13 *295:90 *835:CLK 15.1709 
14 *295:90 *866:CLK 16.0727 
15 *295:80 *870:CLK 9.3 
16 *295:72 *829:CLK 9.7329 
17 *295:25 *882:A 15.1709 
*END

*D_NET *296 0.0498489
*CONN
*I *848:CLK I *D sky130_fd_sc_hd__dfxtp_1
*I *840:CLK I *D sky130_fd_sc_hd__dfxtp_4
*I *816:CLK I *D sky130_fd_sc_hd__dfxtp_1
*I *814:CLK I *D sky130_fd_sc_hd__dfxtp_1
*I *846:CLK I *D sky130_fd_sc_hd__dfxtp_1
*I *850:CLK I *D sky130_fd_sc_hd__dfxtp_1
*I *818:CLK I *D sky130_fd_sc_hd__dfxtp_1
*I *849:CLK I *D sky130_fd_sc_hd__dfxtp_1
*I *817:CLK I *D sky130_fd_sc_hd__dfxtp_1
*I *876:X O *D sky130_fd_sc_hd__clkbuf_16
*CAP
1 *848:CLK 0.000222705
2 *840:CLK 0.000257174
3 *816:CLK 0.000323538
4 *814:CLK 0
5 *846:CLK 0
6 *850:CLK 0
7 *818:CLK 0.000317183
8 *849:CLK 0.00181717
9 *817:CLK 2.97459e-05
10 *876:X 0.000222705
11 *296:82 0.000600958
12 *296:52 0.000860868
13 *296:26 0.00194879
14 *296:24 0.00113405
15 *296:16 0.00122181
16 *296:12 0.00093225
17 *296:4 0.000219185
68 *848:CLK 0.0397408
*RES
1 *876:X *296:4 9.3 
2 *296:4 *296:12 12.6436 
3 *296:12 *296:16 8.0267 
4 *296:16 *296:24 13.3203 
5 *296:24 *296:26 2.27273 
6 *296:26 *817:CLK 14.5395 
7 *296:26 *849:CLK 21.7185 
8 *296:24 *296:52 9.62266 
9 *296:52 *818:CLK 25.4789 
10 *296:52 *850:CLK 9.3 
11 *296:16 *846:CLK 9.3 
12 *296:12 *814:CLK 9.3 
13 *296:4 *296:82 5.04113 
14 *296:82 *816:CLK 17.7683 
15 *296:82 *840:CLK 18.2192 
16 *876:X *848:CLK 23.867 
*END

*D_NET *297 0.0753159
*CONN
*I *847:CLK I *D sky130_fd_sc_hd__dfxtp_1
*I *815:CLK I *D sky130_fd_sc_hd__dfxtp_1
*I *809:CLK I *D sky130_fd_sc_hd__dfxtp_1
*I *842:CLK I *D sky130_fd_sc_hd__dfxtp_1
*I *824:CLK I *D sky130_fd_sc_hd__dfxtp_1
*I *857:CLK I *D sky130_fd_sc_hd__dfxtp_1
*I *883:A I *D sky130_fd_sc_hd__clkinv_1
*I *813:CLK I *D sky130_fd_sc_hd__dfxtp_1
*I *877:X O *D sky130_fd_sc_hd__clkbuf_16
*CAP
1 *847:CLK 0
2 *815:CLK 7.14794e-05
3 *809:CLK 0.000150067
4 *842:CLK 0
5 *824:CLK 0
6 *857:CLK 0.000456383
7 *883:A 6.42021e-06
8 *813:CLK 0.000267553
9 *877:X 0.000359676
10 *297:82 0.000221546
11 *297:80 6.06155e-05
12 *297:48 0.000811619
13 *297:31 0.000429259
14 *297:18 0.000493686
15 *297:14 0.00045759
61 *847:CLK 0.07153
*RES
1 *877:X *297:14 28.1846 
2 *297:14 *297:18 3.87807 
3 *297:18 *813:CLK 13.1781 
4 *297:18 *297:31 6.46609 
5 *297:31 *883:A 14.3411 
6 *297:31 *297:48 9.91126 
7 *297:48 *857:CLK 19.9602 
8 *297:48 *824:CLK 9.3 
9 *297:14 *842:CLK 9.3 
10 *877:X *297:80 11.9335 
11 *297:80 *297:82 4.5 
12 *297:82 *809:CLK 19.9147 
13 *297:82 *815:CLK 18.8325 
14 *297:80 *847:CLK 9.3 
*END

*D_NET *298 0.0642958
*CONN
*I *860:CLK I *D sky130_fd_sc_hd__dfxtp_1
*I *844:CLK I *D sky130_fd_sc_hd__dfxtp_1
*I *812:CLK I *D sky130_fd_sc_hd__dfxtp_1
*I *884:A I *D sky130_fd_sc_hd__clkinv_1
*I *828:CLK I *D sky130_fd_sc_hd__dfxtp_1
*I *825:CLK I *D sky130_fd_sc_hd__dfxtp_1
*I *834:CLK I *D sky130_fd_sc_hd__dfxtp_1
*I *831:CLK I *D sky130_fd_sc_hd__dfxtp_1
*I *878:X O *D sky130_fd_sc_hd__clkbuf_16
*CAP
1 *860:CLK 0.000116652
2 *844:CLK 0.000353924
3 *812:CLK 0
4 *884:A 9.01027e-05
5 *828:CLK 0
6 *825:CLK 0.000183556
7 *834:CLK 0
8 *831:CLK 6.83945e-05
9 *878:X 0.0007106
10 *298:70 0.0008703
11 *298:66 0.00185171
12 *298:40 0.000274414
13 *298:38 0.000808446
14 *298:16 0.00138799
15 *298:6 0.00191354
55 *860:CLK 0.0556661
*RES
1 *878:X *298:6 11.9154 
2 *298:6 *298:16 13.6905 
3 *298:16 *831:CLK 21.655 
4 *298:16 *834:CLK 9.3 
5 *298:6 *298:38 4.5 
6 *298:38 *298:40 1.96609 
7 *298:40 *825:CLK 18.9046 
8 *298:40 *828:CLK 13.8 
9 *298:38 *298:66 9.69481 
10 *298:66 *298:70 3.76984 
11 *298:70 *884:A 11.1038 
12 *298:70 *812:CLK 9.3 
13 *298:66 *844:CLK 24.5229 
14 *878:X *860:CLK 31.7126 
*END

*D_NET *299 0.041354
*CONN
*I *843:CLK I *D sky130_fd_sc_hd__dfxtp_1
*I *858:CLK I *D sky130_fd_sc_hd__dfxtp_1
*I *862:CLK I *D sky130_fd_sc_hd__dfxtp_1
*I *830:CLK I *D sky130_fd_sc_hd__dfxtp_1
*I *865:CLK I *D sky130_fd_sc_hd__dfxtp_1
*I *833:CLK I *D sky130_fd_sc_hd__dfxtp_1
*I *863:CLK I *D sky130_fd_sc_hd__dfxtp_1
*I *811:CLK I *D sky130_fd_sc_hd__dfxtp_1
*I *826:CLK I *D sky130_fd_sc_hd__dfxtp_1
*I *879:X O *D sky130_fd_sc_hd__clkbuf_16
*CAP
1 *843:CLK 0.000168487
2 *858:CLK 0
3 *862:CLK 0
4 *830:CLK 0
5 *865:CLK 0
6 *833:CLK 0
7 *863:CLK 0.000355738
8 *811:CLK 0.000177314
9 *826:CLK 0
10 *879:X 0.000319149
11 *299:63 0.00053778
12 *299:61 0.000570668
13 *299:59 0.000550398
14 *299:57 0.000985418
15 *299:45 0.00152975
16 *299:33 0.00109894
17 *299:10 0.000272114
50 *843:CLK 0.0347882
*RES
1 *879:X *299:10 20.2661 
2 *299:10 *826:CLK 9.3 
3 *299:10 *811:CLK 16.0641 
4 *879:X *299:33 22.4126 
5 *299:33 *299:45 18.3074 
6 *299:45 *299:57 13.6991 
7 *299:57 *299:59 2.27273 
8 *299:59 *299:61 5.03247 
9 *299:61 *299:63 2.57937 
10 *299:63 *863:CLK 18.8325 
11 *299:63 *833:CLK 13.8 
12 *299:61 *865:CLK 13.8 
13 *299:59 *830:CLK 13.8 
14 *299:57 *862:CLK 13.8 
15 *299:45 *858:CLK 9.3 
16 *299:33 *843:CLK 13.16 
*END

*D_NET *300 0.0535283
*CONN
*I *808:CLK I *D sky130_fd_sc_hd__dfxtp_1
*I *841:CLK I *D sky130_fd_sc_hd__dfxtp_1
*I *823:CLK I *D sky130_fd_sc_hd__dfxtp_1
*I *852:CLK I *D sky130_fd_sc_hd__dfxtp_1
*I *885:A I *D sky130_fd_sc_hd__clkinv_1
*I *845:CLK I *D sky130_fd_sc_hd__dfxtp_1
*I *819:CLK I *D sky130_fd_sc_hd__dfxtp_1
*I *856:CLK I *D sky130_fd_sc_hd__dfxtp_1
*I *880:X O *D sky130_fd_sc_hd__clkbuf_16
*CAP
1 *808:CLK 0.00014906
2 *841:CLK 1.83549e-05
3 *823:CLK 0.000163182
4 *852:CLK 0.000689268
5 *885:A 0
6 *845:CLK 0.000733849
7 *819:CLK 0.000149128
8 *856:CLK 0
9 *880:X 0.00132971
10 *300:101 0.000439782
11 *300:63 0.00108032
12 *300:31 0.00323869
13 *300:18 0.0032252
14 *300:12 0.00169896
63 *808:CLK 0.0406128
*RES
1 *880:X *300:12 23.8195 
2 *300:12 *300:18 7.32323 
3 *300:18 *856:CLK 9.3 
4 *300:18 *300:31 15.7554 
5 *300:31 *819:CLK 18.7784 
6 *300:31 *845:CLK 18.2012 
7 *300:18 *300:63 11.9221 
8 *300:63 *885:A 9.3 
9 *300:63 *852:CLK 27.896 
10 *300:12 *823:CLK 11.0857 
11 *880:X *300:101 18.0929 
12 *300:101 *841:CLK 14.5395 
13 *300:101 *808:CLK 18.2192 
*END

*D_NET *301 0.0600827
*CONN
*I *854:CLK I *D sky130_fd_sc_hd__dfxtp_1
*I *855:CLK I *D sky130_fd_sc_hd__dfxtp_1
*I *822:CLK I *D sky130_fd_sc_hd__dfxtp_1
*I *853:CLK I *D sky130_fd_sc_hd__dfxtp_1
*I *821:CLK I *D sky130_fd_sc_hd__dfxtp_1
*I *820:CLK I *D sky130_fd_sc_hd__dfxtp_1
*I *810:CLK I *D sky130_fd_sc_hd__dfxtp_1
*I *827:CLK I *D sky130_fd_sc_hd__dfxtp_1
*I *859:CLK I *D sky130_fd_sc_hd__dfxtp_1
*I *881:X O *D sky130_fd_sc_hd__clkbuf_16
*CAP
1 *854:CLK 9.12279e-05
2 *855:CLK 0.000164672
3 *822:CLK 7.73634e-05
4 *853:CLK 2.80564e-05
5 *821:CLK 0.000105422
6 *820:CLK 0.000161782
7 *810:CLK 0
8 *827:CLK 0.000629125
9 *859:CLK 0.000314323
10 *881:X 0.000415779
11 *301:81 0.000463798
12 *301:75 0.00031299
13 *301:35 0.000834515
14 *301:33 0.000594216
15 *301:29 0.000458553
16 *301:16 0.000586949
17 *301:14 0.000590375
67 *854:CLK 0.0542536
*RES
1 *881:X *301:14 29.4291 
2 *301:14 *301:16 1.78571 
3 *301:16 *859:CLK 16.497 
4 *301:16 *301:29 6.46609 
5 *301:29 *301:33 9.53247 
6 *301:33 *301:35 3.0303 
7 *301:35 *827:CLK 16.0641 
8 *301:35 *810:CLK 9.3 
9 *301:33 *820:CLK 13.16 
10 *301:29 *821:CLK 16.4154 
11 *301:14 *853:CLK 9.7329 
12 *881:X *301:75 9.3 
13 *301:75 *301:81 10.4434 
14 *301:81 *822:CLK 15.8473 
15 *301:81 *855:CLK 17.6871 
16 *301:75 *854:CLK 22.0518 
*END

*D_NET *302 0.0361829
*CONN
*I *787:A2 I *D sky130_fd_sc_hd__a21oi_1
*I *788:B I *D sky130_fd_sc_hd__and3_1
*I *656:A2 I *D sky130_fd_sc_hd__a22oi_1
*I *886:X O *D sky130_fd_sc_hd__buf_1
*CAP
1 *787:A2 0.000109416
2 *788:B 0.000135615
3 *656:A2 2.4505e-06
4 *886:X 0.00103722
5 *302:23 0.000334862
6 *302:10 0.0011295
42 *787:A2 0.0334338
*RES
1 *886:X *302:10 31.7654 
2 *302:10 *656:A2 13.9488 
3 *302:10 *302:23 8.61255 
4 *302:23 *788:B 9.84113 
5 *302:23 *787:A2 13.0879 
*END

*D_NET *303 0.0150639
*CONN
*I *784:B I *D sky130_fd_sc_hd__and3_1
*I *653:A2 I *D sky130_fd_sc_hd__a22oi_1
*I *783:A2 I *D sky130_fd_sc_hd__a21oi_1
*I *887:X O *D sky130_fd_sc_hd__buf_1
*CAP
1 *784:B 0
2 *653:A2 0.00116143
3 *783:A2 0
4 *887:X 0.00108464
5 *303:25 0.00168634
6 *303:12 0.00160954
20 *784:B 0.00952197
*RES
1 *887:X *303:12 24.541 
2 *303:12 *783:A2 9.3 
3 *303:12 *303:25 5.57359 
4 *303:25 *653:A2 24.1847 
5 *303:25 *784:B 9.3 
*END

*D_NET *304 0.0168824
*CONN
*I *779:A2 I *D sky130_fd_sc_hd__a21oi_1
*I *650:A2 I *D sky130_fd_sc_hd__a22oi_1
*I *780:B I *D sky130_fd_sc_hd__and3_1
*I *888:X O *D sky130_fd_sc_hd__buf_1
*CAP
1 *779:A2 1.1338e-05
2 *650:A2 2.37644e-05
3 *780:B 0.000387296
4 *888:X 0.00137142
5 *304:16 0.000619769
6 *304:14 0.00159146
27 *779:A2 0.0128773
*RES
1 *888:X *304:14 27.4631 
2 *304:14 *304:16 0.996573 
3 *304:16 *780:B 22.3359 
4 *304:16 *650:A2 11.2075 
5 *304:14 *779:A2 10.0395 
*END

*D_NET *305 0.0529655
*CONN
*I *775:A2 I *D sky130_fd_sc_hd__a21oi_1
*I *776:B I *D sky130_fd_sc_hd__and3_1
*I *647:A2 I *D sky130_fd_sc_hd__a22oi_1
*I *889:X O *D sky130_fd_sc_hd__buf_1
*CAP
1 *775:A2 0
2 *776:B 0.000226851
3 *647:A2 0.000225268
4 *889:X 0.00137199
5 *305:53 0.000613967
6 *305:38 0.00469677
7 *305:32 0.00545637
56 *775:A2 0.0403743
*RES
1 *889:X *305:32 36.9869 
2 *305:32 *305:38 23.088 
3 *305:38 *647:A2 12.1048 
4 *305:38 *305:53 16.7922 
5 *305:53 *776:B 22.0879 
6 *305:53 *775:A2 9.3 
*END

*D_NET *306 0.0261751
*CONN
*I *771:A2 I *D sky130_fd_sc_hd__a21oi_1
*I *644:A2 I *D sky130_fd_sc_hd__a22oi_1
*I *772:B I *D sky130_fd_sc_hd__and3_1
*I *890:X O *D sky130_fd_sc_hd__buf_1
*CAP
1 *771:A2 9.12912e-05
2 *644:A2 0.00121168
3 *772:B 0.000271881
4 *890:X 0.000409072
5 *306:27 0.00209379
6 *306:10 0.00147177
28 *771:A2 0.0206256
*RES
1 *890:X *306:10 20.7084 
2 *306:10 *772:B 15.2971 
3 *306:10 *306:27 10.1097 
4 *306:27 *644:A2 28.7753 
5 *306:27 *771:A2 19.9595 
*END

*D_NET *307 0.0381349
*CONN
*I *641:A2 I *D sky130_fd_sc_hd__a22oi_1
*I *768:B I *D sky130_fd_sc_hd__and3_1
*I *767:A2 I *D sky130_fd_sc_hd__a21oi_1
*I *891:X O *D sky130_fd_sc_hd__buf_1
*CAP
1 *641:A2 0
2 *768:B 0.000312883
3 *767:A2 0
4 *891:X 0.003981
5 *307:27 0.000360917
6 *307:14 0.000168637
7 *307:12 0.00410161
33 *641:A2 0.0292098
*RES
1 *891:X *307:12 40.2156 
2 *307:12 *307:14 11.7424 
3 *307:14 *767:A2 9.3 
4 *307:14 *307:27 3.17009 
5 *307:27 *768:B 24.9423 
6 *307:27 *641:A2 9.3 
*END

*D_NET *308 0.034979
*CONN
*I *618:B I *D sky130_fd_sc_hd__and3_1
*I *617:A2 I *D sky130_fd_sc_hd__a21oi_1
*I *706:A2 I *D sky130_fd_sc_hd__a22oi_1
*I *892:X O *D sky130_fd_sc_hd__buf_1
*CAP
1 *618:B 2.11966e-05
2 *617:A2 0.000186652
3 *706:A2 4.60686e-05
4 *892:X 6.53566e-05
5 *308:25 0.000286191
6 *308:6 0.000189768
28 *618:B 0.0341838
*RES
1 *892:X *308:6 12.3303 
2 *308:6 *706:A2 22.0338 
3 *308:6 *308:25 8.61255 
4 *308:25 *617:A2 18.129 
5 *308:25 *618:B 16.0727 
*END

*D_NET *309 0.0512033
*CONN
*I *763:A2 I *D sky130_fd_sc_hd__a21oi_1
*I *764:B I *D sky130_fd_sc_hd__and3_1
*I *638:A2 I *D sky130_fd_sc_hd__a22oi_1
*I *893:X O *D sky130_fd_sc_hd__buf_1
*CAP
1 *763:A2 0.000116815
2 *764:B 0.000134421
3 *638:A2 0.000508557
4 *893:X 0.00388864
5 *309:33 0.000275412
6 *309:18 0.00442138
36 *763:A2 0.0418581
*RES
1 *893:X *309:18 39.6203 
2 *309:18 *638:A2 11.8749 
3 *309:18 *309:33 7.07937 
4 *309:33 *764:B 14.3411 
5 *309:33 *763:A2 19.103 
*END

*D_NET *310 0.053185
*CONN
*I *759:A2 I *D sky130_fd_sc_hd__a21oi_1
*I *760:B I *D sky130_fd_sc_hd__and3_1
*I *635:A2 I *D sky130_fd_sc_hd__a22oi_1
*I *894:X O *D sky130_fd_sc_hd__buf_1
*CAP
1 *759:A2 5.06201e-05
2 *760:B 1.25841e-05
3 *635:A2 0.000124996
4 *894:X 0.00339133
5 *310:44 0.000258636
6 *310:42 0.002947
7 *310:30 0.00616666
47 *759:A2 0.0402332
*RES
1 *894:X *310:30 48.3135 
2 *310:30 *310:42 26.0094 
3 *310:42 *310:44 1.37085 
4 *310:44 *635:A2 11.6629 
5 *310:44 *760:B 9.7329 
6 *310:42 *759:A2 21.186 
*END

*D_NET *311 0.0301635
*CONN
*I *756:B I *D sky130_fd_sc_hd__and3_1
*I *755:A2 I *D sky130_fd_sc_hd__a21oi_1
*I *632:A2 I *D sky130_fd_sc_hd__a22oi_1
*I *895:X O *D sky130_fd_sc_hd__buf_2
*CAP
1 *756:B 0
2 *755:A2 0.000182993
3 *632:A2 5.79687e-05
4 *895:X 0.00410201
5 *311:18 0.000290861
6 *311:16 0.00415191
29 *756:B 0.0213778
*RES
1 *895:X *311:16 30.3878 
2 *311:16 *311:18 3.49928 
3 *311:18 *632:A2 16.2711 
4 *311:18 *755:A2 20.4919 
5 *311:16 *756:B 13.8 
*END

*D_NET *312 0.0357169
*CONN
*I *751:A2 I *D sky130_fd_sc_hd__a21oi_1
*I *629:A2 I *D sky130_fd_sc_hd__a22oi_1
*I *752:B I *D sky130_fd_sc_hd__and3_1
*I *896:X O *D sky130_fd_sc_hd__buf_1
*CAP
1 *751:A2 0
2 *629:A2 0.000325561
3 *752:B 0.000140692
4 *896:X 0.00244783
5 *312:22 0.000628298
6 *312:18 0.00260988
35 *751:A2 0.0295646
*RES
1 *896:X *312:18 36.985 
2 *312:18 *312:22 2.92208 
3 *312:22 *752:B 14.3411 
4 *312:22 *629:A2 22.4039 
5 *312:18 *751:A2 13.8 
*END

*D_NET *313 0.0606745
*CONN
*I *747:A2 I *D sky130_fd_sc_hd__a21oi_1
*I *748:B I *D sky130_fd_sc_hd__and3_1
*I *626:A2 I *D sky130_fd_sc_hd__a22oi_1
*I *897:X O *D sky130_fd_sc_hd__buf_1
*CAP
1 *747:A2 5.58267e-05
2 *748:B 0
3 *626:A2 0.000185748
4 *897:X 0.00166982
5 *313:24 0.000640554
6 *313:18 0.00258819
7 *313:12 0.00374738
49 *747:A2 0.051787
*RES
1 *897:X *313:12 36.5179 
2 *313:12 *313:18 27.6515 
3 *313:18 *313:24 3.48124 
4 *313:24 *626:A2 12.7993 
5 *313:24 *748:B 9.3 
6 *313:18 *747:A2 21.4205 
*END

*D_NET *314 0.0365907
*CONN
*I *740:B I *D sky130_fd_sc_hd__nand2_1
*I *898:X O *D sky130_fd_sc_hd__buf_1
*CAP
1 *740:B 0
2 *898:X 0.00312192
3 *314:20 0.00312192
33 *740:B 0.0303468
*RES
1 *898:X *314:20 49.0359 
2 *314:20 *740:B 9.3 
*END

*D_NET *315 0.0166013
*CONN
*I *734:B I *D sky130_fd_sc_hd__nand2_1
*I *899:X O *D sky130_fd_sc_hd__buf_1
*CAP
1 *734:B 0.000718022
2 *899:X 0.000718022
15 *734:B 0.0151653
*RES
1 *899:X *734:B 41.2724 
*END

*D_NET *316 0.0184548
*CONN
*I *728:B I *D sky130_fd_sc_hd__nand2_1
*I *900:X O *D sky130_fd_sc_hd__buf_1
*CAP
1 *728:B 0.000289551
2 *900:X 0.000289551
15 *728:B 0.0178757
*RES
1 *900:X *728:B 43.3107 
*END

*D_NET *317 0.020297
*CONN
*I *722:B I *D sky130_fd_sc_hd__nand2_1
*I *901:X O *D sky130_fd_sc_hd__buf_1
*CAP
1 *722:B 0
2 *901:X 0.00469388
3 *317:22 0.00469388
19 *722:B 0.0109092
*RES
1 *901:X *317:22 43.6247 
2 *317:22 *722:B 9.3 
*END

*D_NET *318 0.0232912
*CONN
*I *716:B I *D sky130_fd_sc_hd__nand2_1
*I *902:X O *D sky130_fd_sc_hd__buf_1
*CAP
1 *716:B 0
2 *902:X 0.00191403
3 *318:24 0.00191403
25 *716:B 0.0194632
*RES
1 *902:X *318:24 42.1095 
2 *318:24 *716:B 9.3 
*END

*D_NET *319 0.0302549
*CONN
*I *613:A2 I *D sky130_fd_sc_hd__a21oi_1
*I *703:A2 I *D sky130_fd_sc_hd__a22oi_1
*I *614:B I *D sky130_fd_sc_hd__and3_1
*I *903:X O *D sky130_fd_sc_hd__buf_1
*CAP
1 *613:A2 0
2 *703:A2 0.000125515
3 *614:B 4.87958e-05
4 *903:X 0.00149754
5 *319:22 0.000210364
6 *319:16 0.00153359
32 *613:A2 0.0268391
*RES
1 *903:X *319:16 27.7704 
2 *319:16 *319:22 6.8539 
3 *319:22 *614:B 14.6207 
4 *319:22 *703:A2 21.2585 
5 *319:16 *613:A2 9.3 
*END

*D_NET *320 0.0105184
*CONN
*I *710:B I *D sky130_fd_sc_hd__nand2_1
*I *904:X O *D sky130_fd_sc_hd__buf_1
*CAP
1 *710:B 0.00209454
2 *904:X 0.00209454
10 *710:B 0.00632934
*RES
1 *904:X *710:B 43.8612 
*END

*D_NET *321 0.0221434
*CONN
*I *692:B I *D sky130_fd_sc_hd__and3_1
*I *693:A2 I *D sky130_fd_sc_hd__a21oi_1
*I *905:X O *D sky130_fd_sc_hd__buf_1
*CAP
1 *692:B 0.000227364
2 *693:A2 0
3 *905:X 0.00218182
4 *321:18 0.00240919
14 *692:B 0.017325
*RES
1 *905:X *321:18 34.8085 
2 *321:18 *693:A2 9.3 
3 *321:18 *692:B 13.0879 
*END

*D_NET *322 0.24512
*CONN
*I *800:A I *D sky130_fd_sc_hd__and3_1
*I *606:A I *D sky130_fd_sc_hd__and3_1
*I *787:A1 I *D sky130_fd_sc_hd__a21oi_1
*I *788:A I *D sky130_fd_sc_hd__and3_1
*I *791:A1 I *D sky130_fd_sc_hd__a21oi_1
*I *659:A1 I *D sky130_fd_sc_hd__a22oi_1
*I *662:A1 I *D sky130_fd_sc_hd__a22oi_1
*I *792:A I *D sky130_fd_sc_hd__and3_1
*I *656:A1 I *D sky130_fd_sc_hd__a22oi_1
*I *696:A I *D sky130_fd_sc_hd__nand2_1
*I *665:A1 I *D sky130_fd_sc_hd__a22oi_1
*I *799:A1 I *D sky130_fd_sc_hd__a21oi_1
*I *795:A1 I *D sky130_fd_sc_hd__a21oi_1
*I *796:A I *D sky130_fd_sc_hd__and3_1
*I *772:A I *D sky130_fd_sc_hd__and3_1
*I *771:A1 I *D sky130_fd_sc_hd__a21oi_1
*I *614:A I *D sky130_fd_sc_hd__and3_1
*I *703:A1 I *D sky130_fd_sc_hd__a22oi_1
*I *647:A1 I *D sky130_fd_sc_hd__a22oi_1
*I *613:A1 I *D sky130_fd_sc_hd__a21oi_1
*I *644:A1 I *D sky130_fd_sc_hd__a22oi_1
*I *768:A I *D sky130_fd_sc_hd__and3_1
*I *605:A1 I *D sky130_fd_sc_hd__a21oi_1
*I *686:A1 I *D sky130_fd_sc_hd__a22oi_1
*I *767:A1 I *D sky130_fd_sc_hd__a21oi_1
*I *609:A1 I *D sky130_fd_sc_hd__a21oi_1
*I *610:A I *D sky130_fd_sc_hd__and3_1
*I *775:A1 I *D sky130_fd_sc_hd__a21oi_1
*I *776:A I *D sky130_fd_sc_hd__and3_1
*I *760:A I *D sky130_fd_sc_hd__and3_1
*I *635:A1 I *D sky130_fd_sc_hd__a22oi_1
*I *759:A1 I *D sky130_fd_sc_hd__a21oi_1
*I *747:A1 I *D sky130_fd_sc_hd__a21oi_1
*I *748:A I *D sky130_fd_sc_hd__and3_1
*I *756:A I *D sky130_fd_sc_hd__and3_1
*I *632:A1 I *D sky130_fd_sc_hd__a22oi_1
*I *626:A1 I *D sky130_fd_sc_hd__a22oi_1
*I *641:A1 I *D sky130_fd_sc_hd__a22oi_1
*I *755:A1 I *D sky130_fd_sc_hd__a21oi_1
*I *689:A1 I *D sky130_fd_sc_hd__a22oi_1
*I *920:X O *D sky130_fd_sc_hd__buf_4
*CAP
1 *800:A 4.19531e-05
2 *606:A 9.22479e-05
3 *787:A1 2.48679e-05
4 *788:A 0
5 *791:A1 7.73656e-05
6 *659:A1 8.13885e-06
7 *662:A1 0.000162386
8 *792:A 5.33961e-05
9 *656:A1 0
10 *696:A 0.000716326
11 *665:A1 0
12 *799:A1 0.00124539
13 *795:A1 0
14 *796:A 2.80564e-05
15 *772:A 0.000325857
16 *771:A1 0
17 *614:A 1.69687e-05
18 *703:A1 2.45105e-05
19 *647:A1 0.00145955
20 *613:A1 0.000231341
21 *644:A1 0
22 *768:A 0.00158948
23 *605:A1 9.22479e-05
24 *686:A1 0.000265985
25 *767:A1 0
26 *609:A1 0
27 *610:A 0
28 *775:A1 0
29 *776:A 0
30 *760:A 0
31 *635:A1 1.33454e-05
32 *759:A1 0
33 *747:A1 0
34 *748:A 0
35 *756:A 5.02669e-05
36 *632:A1 0.000195818
37 *626:A1 9.86165e-05
38 *641:A1 0
39 *755:A1 0.000770136
40 *689:A1 0
41 *920:X 0.000663315
42 *322:439 0.00051738
43 *322:422 0.000671377
44 *322:409 0.000193474
45 *322:403 0.000115308
46 *322:399 0.00020775
47 *322:351 0.00160825
48 *322:343 0.0011338
49 *322:341 3.26325e-05
50 *322:339 0.00109831
51 *322:330 0.00167566
52 *322:321 0.00207999
53 *322:278 0.00248178
54 *322:276 0.00144947
55 *322:255 0.00172433
56 *322:242 0.00120262
57 *322:229 0.00277974
58 *322:227 0.00167273
59 *322:221 0.00222088
60 *322:201 0.000344761
61 *322:197 0.001866
62 *322:190 0.00160256
63 *322:156 0.000579995
64 *322:141 0.00119648
65 *322:139 0.00079819
66 *322:135 0.00032073
67 *322:99 0.000514626
68 *322:86 0.000479174
69 *322:84 0.000777479
70 *322:76 0.00234093
71 *322:70 0.00182784
72 *322:68 0.000759427
73 *322:64 0.00207198
74 *322:62 0.00175573
75 *322:49 0.000436935
76 *322:10 0.00102859
300 *800:A 0.195306
*RES
1 *920:X *322:10 15.4463 
2 *322:10 *689:A1 9.3 
3 *322:10 *755:A1 37.631 
4 *920:X *322:49 25.7134 
5 *322:49 *641:A1 9.3 
6 *322:49 *322:62 0.94697 
7 *322:62 *322:64 5.4789 
8 *322:64 *322:68 3.4632 
9 *322:68 *322:70 4.5 
10 *322:70 *322:76 12.202 
11 *322:76 *322:84 12.9683 
12 *322:84 *322:86 1.37085 
13 *322:86 *626:A1 10.256 
14 *322:86 *322:99 9.65873 
15 *322:99 *632:A1 17.2632 
16 *322:99 *756:A 14.3411 
17 *322:84 *748:A 9.3 
18 *322:76 *747:A1 9.3 
19 *322:70 *322:135 7.69264 
20 *322:135 *322:139 3.4632 
21 *322:139 *322:141 5.51948 
22 *322:141 *759:A1 9.3 
23 *322:141 *322:156 12.5714 
24 *322:156 *635:A1 10.6709 
25 *322:156 *760:A 9.3 
26 *322:139 *776:A 9.3 
27 *322:135 *775:A1 9.3 
28 *322:68 *610:A 9.3 
29 *322:64 *609:A1 9.3 
30 *322:62 *322:190 1.8263 
31 *322:190 *767:A1 9.3 
32 *322:190 *322:197 5.10462 
33 *322:197 *322:201 5.54618 
34 *322:201 *686:A1 19.3916 
35 *322:201 *605:A1 13.8 
36 *322:197 *322:221 2.61544 
37 *322:221 *322:227 14.0325 
38 *322:227 *322:229 4.27489 
39 *322:229 *768:A 16.0821 
40 *322:229 *322:242 7.99928 
41 *322:242 *644:A1 13.8 
42 *322:242 *322:255 13.5909 
43 *322:255 *613:A1 10.256 
44 *322:255 *322:276 15.6919 
45 *322:276 *322:278 4.27489 
46 *322:278 *647:A1 24.9739 
47 *322:278 *703:A1 9.7329 
48 *322:276 *614:A 9.7329 
49 *322:227 *771:A1 9.3 
50 *322:227 *772:A 11.1038 
51 *322:221 *322:321 5.51948 
52 *322:321 *796:A 9.7329 
53 *322:321 *322:330 3.0303 
54 *322:330 *795:A1 9.3 
55 *322:330 *322:339 8.36003 
56 *322:339 *322:341 1.65945 
57 *322:341 *322:343 0.739538 
58 *322:343 *322:351 11.0657 
59 *322:351 *799:A1 24.8837 
60 *322:351 *665:A1 9.3 
61 *322:343 *696:A 40.8916 
62 *322:341 *656:A1 13.8 
63 *322:339 *322:399 8.12554 
64 *322:399 *322:403 1.38889 
65 *322:403 *322:409 7.11544 
66 *322:409 *792:A 14.3411 
67 *322:409 *322:422 9.53247 
68 *322:422 *662:A1 10.6709 
69 *322:422 *322:439 7.58442 
70 *322:439 *659:A1 13.9308 
71 *322:439 *791:A1 17.2271 
72 *322:403 *788:A 9.3 
73 *322:399 *787:A1 11.9154 
74 *605:A1 *606:A 22.0632 
75 *799:A1 *800:A 22.0632 
*END

*D_NET *323 0.0339923
*CONN
*I *609:A2 I *D sky130_fd_sc_hd__a21oi_1
*I *610:B I *D sky130_fd_sc_hd__and3_1
*I *689:A2 I *D sky130_fd_sc_hd__a22oi_1
*I *906:X O *D sky130_fd_sc_hd__buf_1
*CAP
1 *609:A2 4.23458e-05
2 *610:B 3.65928e-05
3 *689:A2 7.04109e-06
4 *906:X 0.00365856
5 *323:31 0.000256562
6 *323:16 0.00384322
43 *609:A2 0.026148
*RES
1 *906:X *323:16 41.9775 
2 *323:16 *689:A2 14.2284 
3 *323:16 *323:31 11.8323 
4 *323:31 *610:B 20.4104 
5 *323:31 *609:A2 11.1038 
*END

*D_NET *324 0.040022
*CONN
*I *605:A2 I *D sky130_fd_sc_hd__a21oi_1
*I *606:B I *D sky130_fd_sc_hd__and3_1
*I *686:A2 I *D sky130_fd_sc_hd__a22oi_1
*I *907:X O *D sky130_fd_sc_hd__buf_1
*CAP
1 *605:A2 3.54268e-05
2 *606:B 0.000632988
3 *686:A2 0.000102795
4 *907:X 0.00295787
5 *324:35 0.000693105
6 *324:24 0.00229003
7 *324:16 0.00512041
31 *605:A2 0.0281894
*RES
1 *907:X *324:16 46.2307 
2 *324:16 *324:24 15.4488 
3 *324:24 *686:A2 10.9234 
4 *324:24 *324:35 6.46609 
5 *324:35 *606:B 16.4154 
6 *324:35 *605:A2 14.8462 
*END

*D_NET *325 0.0219661
*CONN
*I *683:A2 I *D sky130_fd_sc_hd__a22oi_1
*I *601:A2 I *D sky130_fd_sc_hd__a21oi_1
*I *602:B I *D sky130_fd_sc_hd__and3_1
*I *908:X O *D sky130_fd_sc_hd__buf_1
*CAP
1 *683:A2 0.00014441
2 *601:A2 0
3 *602:B 0.000223515
4 *908:X 0.000528646
5 *325:16 0.000885699
6 *325:8 0.00133524
25 *683:A2 0.0188486
*RES
1 *908:X *325:8 16.0006 
2 *325:8 *325:16 10.1097 
3 *325:16 *602:B 23.3325 
4 *325:16 *601:A2 9.3 
5 *325:8 *683:A2 16.456 
*END

*D_NET *326 0.0636305
*CONN
*I *597:A2 I *D sky130_fd_sc_hd__a21oi_1
*I *598:B I *D sky130_fd_sc_hd__and3_1
*I *680:A2 I *D sky130_fd_sc_hd__a22oi_1
*I *909:X O *D sky130_fd_sc_hd__buf_1
*CAP
1 *597:A2 6.80348e-05
2 *598:B 0.000337177
3 *680:A2 4.47183e-05
4 *909:X 0.00126514
5 *326:27 0.00149006
6 *326:10 0.00239471
46 *597:A2 0.0580306
*RES
1 *909:X *326:10 49.1355 
2 *326:10 *680:A2 14.4899 
3 *326:10 *326:27 10.741 
4 *326:27 *598:B 10.6709 
5 *326:27 *597:A2 21.4926 
*END

*D_NET *327 0.0295322
*CONN
*I *593:A2 I *D sky130_fd_sc_hd__a21oi_1
*I *594:B I *D sky130_fd_sc_hd__and3_1
*I *677:A2 I *D sky130_fd_sc_hd__a22oi_1
*I *910:X O *D sky130_fd_sc_hd__buf_1
*CAP
1 *593:A2 0
2 *594:B 0.000127175
3 *677:A2 0
4 *910:X 0.00202427
5 *327:40 0.00027267
6 *327:34 0.00216976
34 *593:A2 0.0249383
*RES
1 *910:X *327:34 38.4746 
2 *327:34 *327:40 9.68128 
3 *327:40 *677:A2 9.3 
4 *327:40 *594:B 12.3619 
5 *327:34 *593:A2 13.8 
*END

*D_NET *328 0.0540554
*CONN
*I *590:B I *D sky130_fd_sc_hd__and3_1
*I *674:A2 I *D sky130_fd_sc_hd__a22oi_1
*I *589:A2 I *D sky130_fd_sc_hd__a21oi_1
*I *911:X O *D sky130_fd_sc_hd__buf_1
*CAP
1 *590:B 0
2 *674:A2 0.00272971
3 *589:A2 0.000113212
4 *911:X 0.000789198
5 *328:31 0.00286121
6 *328:16 0.000677373
7 *328:12 0.00122186
56 *590:B 0.0456629
*RES
1 *911:X *328:12 40.1077 
2 *328:12 *328:16 11.2464 
3 *328:16 *589:A2 17.0468 
4 *328:16 *328:31 5.04113 
5 *328:31 *674:A2 20.7764 
6 *328:31 *590:B 9.3 
*END

*D_NET *329 0.0325131
*CONN
*I *807:A2 I *D sky130_fd_sc_hd__a21oi_1
*I *671:A2 I *D sky130_fd_sc_hd__a22oi_1
*I *586:B I *D sky130_fd_sc_hd__and3_1
*I *912:X O *D sky130_fd_sc_hd__buf_1
*CAP
1 *807:A2 0
2 *671:A2 0.00046604
3 *586:B 3.9554e-05
4 *912:X 0.000979362
5 *329:22 0.000631945
6 *329:18 0.00110571
38 *807:A2 0.0292904
*RES
1 *912:X *329:18 32.7558 
2 *329:18 *329:22 3.73377 
3 *329:22 *586:B 16.686 
4 *329:22 *671:A2 18.8325 
5 *329:18 *807:A2 13.8 
*END

*D_NET *330 0.00972141
*CONN
*I *695:B_N I *D sky130_fd_sc_hd__nor2b_1
*I *913:X O *D sky130_fd_sc_hd__buf_1
*CAP
1 *695:B_N 0.000509677
2 *913:X 0.000509677
12 *695:B_N 0.00870206
*RES
1 *913:X *695:B_N 39.7573 
*END

*D_NET *331 0.426482
*CONN
*I *685:A I *D sky130_fd_sc_hd__nor3_1
*I *676:A I *D sky130_fd_sc_hd__nor3_1
*I *591:A I *D sky130_fd_sc_hd__nor3_1
*I *673:A I *D sky130_fd_sc_hd__nor3_1
*I *702:A I *D sky130_fd_sc_hd__nor2b_1
*I *620:C1 I *D sky130_fd_sc_hd__a211oi_1
*I *587:A I *D sky130_fd_sc_hd__nor3_1
*I *603:A I *D sky130_fd_sc_hd__nor3_1
*I *670:A I *D sky130_fd_sc_hd__nor3_1
*I *805:A I *D sky130_fd_sc_hd__nor3_1
*I *694:A I *D sky130_fd_sc_hd__nor3_1
*I *765:A I *D sky130_fd_sc_hd__nor3_1
*I *739:A I *D sky130_fd_sc_hd__nor2_1
*I *640:A I *D sky130_fd_sc_hd__nor3_1
*I *621:C1 I *D sky130_fd_sc_hd__a211oi_1
*I *624:C1 I *D sky130_fd_sc_hd__a211oi_1
*I *623:C1 I *D sky130_fd_sc_hd__a211oi_1
*I *733:A I *D sky130_fd_sc_hd__nor2_1
*I *721:A I *D sky130_fd_sc_hd__nor2_1
*I *727:A I *D sky130_fd_sc_hd__nor2_1
*I *622:C1 I *D sky130_fd_sc_hd__a211oi_1
*I *631:A I *D sky130_fd_sc_hd__nor3_1
*I *715:A I *D sky130_fd_sc_hd__nor2_1
*I *753:A I *D sky130_fd_sc_hd__nor3_2
*I *652:A I *D sky130_fd_sc_hd__nor3_1
*I *661:A I *D sky130_fd_sc_hd__nor3_1
*I *797:A I *D sky130_fd_sc_hd__nor3_1
*I *667:A I *D sky130_fd_sc_hd__nor3_1
*I *607:A I *D sky130_fd_sc_hd__nor3_1
*I *643:A I *D sky130_fd_sc_hd__nor3_1
*I *611:A I *D sky130_fd_sc_hd__nor3_1
*I *705:A I *D sky130_fd_sc_hd__nor3_1
*I *649:A I *D sky130_fd_sc_hd__nor3_1
*I *761:A I *D sky130_fd_sc_hd__nor3_1
*I *777:A I *D sky130_fd_sc_hd__nor3_1
*I *749:A I *D sky130_fd_sc_hd__nor3_1
*I *628:A I *D sky130_fd_sc_hd__nor3_1
*I *637:A I *D sky130_fd_sc_hd__nor3_1
*I *625:C1 I *D sky130_fd_sc_hd__a211oi_1
*I *757:A I *D sky130_fd_sc_hd__nor3_1
*I *745:A I *D sky130_fd_sc_hd__nor2_1
*I *634:A I *D sky130_fd_sc_hd__nor3_1
*I *691:A I *D sky130_fd_sc_hd__nor3_1
*I *769:A I *D sky130_fd_sc_hd__nor3_1
*I *615:A I *D sky130_fd_sc_hd__nor3_1
*I *773:A I *D sky130_fd_sc_hd__nor3_1
*I *793:A I *D sky130_fd_sc_hd__nor3_1
*I *664:A I *D sky130_fd_sc_hd__nor3_1
*I *646:A I *D sky130_fd_sc_hd__nor3_1
*I *789:A I *D sky130_fd_sc_hd__nor3_1
*I *658:A I *D sky130_fd_sc_hd__nor3_1
*I *701:A I *D sky130_fd_sc_hd__nor2_1
*I *709:C1 I *D sky130_fd_sc_hd__a211oi_1
*I *785:A I *D sky130_fd_sc_hd__nor3_1
*I *682:A I *D sky130_fd_sc_hd__nor3_1
*I *619:A I *D sky130_fd_sc_hd__nor3_1
*I *599:A I *D sky130_fd_sc_hd__nor3_1
*I *595:A I *D sky130_fd_sc_hd__nor3_1
*I *679:A I *D sky130_fd_sc_hd__nor3_1
*I *695:A I *D sky130_fd_sc_hd__nor2b_1
*I *708:A I *D sky130_fd_sc_hd__nor3_1
*I *781:A I *D sky130_fd_sc_hd__nor3_1
*I *801:A I *D sky130_fd_sc_hd__nor3_1
*I *688:A I *D sky130_fd_sc_hd__nor3_1
*I *655:A I *D sky130_fd_sc_hd__nor3_1
*I *914:X O *D sky130_fd_sc_hd__clkbuf_8
*CAP
1 *685:A 5.54314e-06
2 *676:A 1.27188e-05
3 *591:A 0.000608536
4 *673:A 0
5 *702:A 0.000234237
6 *620:C1 0.00056694
7 *587:A 0.000350071
8 *603:A 4.18358e-05
9 *670:A 0
10 *805:A 4.9421e-06
11 *694:A 0
12 *765:A 0
13 *739:A 0.000913885
14 *640:A 4.78107e-05
15 *621:C1 0
16 *624:C1 0
17 *623:C1 0
18 *733:A 0.000208199
19 *721:A 2.46965e-05
20 *727:A 0.000336954
21 *622:C1 0.000287709
22 *631:A 9.75745e-05
23 *715:A 0
24 *753:A 0.000836591
25 *652:A 5.55433e-06
26 *661:A 2.82401e-05
27 *797:A 3.8865e-05
28 *667:A 2.646e-05
29 *607:A 0
30 *643:A 3.0066e-05
31 *611:A 0
32 *705:A 0
33 *649:A 0
34 *761:A 0.00037155
35 *777:A 0
36 *749:A 0
37 *628:A 0
38 *637:A 0.000389751
39 *625:C1 0.000102551
40 *757:A 0
41 *745:A 0
42 *634:A 0.000322174
43 *691:A 0.000254712
44 *769:A 0
45 *615:A 0.000192785
46 *773:A 4.93413e-05
47 *793:A 4.83142e-05
48 *664:A 1.47404e-05
49 *646:A 0.000729929
50 *789:A 0
51 *658:A 0.000101427
52 *701:A 0.000603232
53 *709:C1 7.67124e-06
54 *785:A 0
55 *682:A 0.00054508
56 *619:A 4.99051e-05
57 *599:A 5.18678e-05
58 *595:A 0
59 *679:A 0.000159829
60 *695:A 0
61 *708:A 0.000288672
62 *781:A 1.87705e-05
63 *801:A 9.63918e-05
64 *688:A 0.000271846
65 *655:A 0
66 *914:X 6.58211e-05
67 *331:782 0.00149704
68 *331:780 0.00331504
69 *331:774 0.00347857
70 *331:766 0.000486714
71 *331:764 0.00119994
72 *331:743 0.00147915
73 *331:732 0.000385432
74 *331:695 0.00193402
75 *331:678 0.00127928
76 *331:646 0.000447132
77 *331:644 0.000642091
78 *331:634 0.000438659
79 *331:601 0.00102043
80 *331:595 0.000701029
81 *331:589 0.0023734
82 *331:585 0.00239413
83 *331:574 0.000302776
84 *331:565 0.000401776
85 *331:561 0.000769838
86 *331:559 0.000902465
87 *331:538 0.00136839
88 *331:536 0.000180333
89 *331:525 0.000192308
90 *331:523 0.000293047
91 *331:455 0.000607325
92 *331:449 0.000753978
93 *331:441 0.000640239
94 *331:407 0.00255195
95 *331:363 0.000966219
96 *331:357 0.000700973
97 *331:355 0.000251531
98 *331:349 0.00242045
99 *331:345 0.000549579
100 *331:341 0.000457239
101 *331:337 0.000231284
102 *331:324 0.000969796
103 *331:320 0.00198757
104 *331:298 0.000789519
105 *331:290 0.00239311
106 *331:282 0.000917564
107 *331:269 0.000938472
108 *331:261 0.000747681
109 *331:241 0.000157914
110 *331:222 0.000907429
111 *331:220 0.000930374
112 *331:216 0.000875487
113 *331:202 0.00012737
114 *331:145 0.000717211
115 *331:116 0.000356015
116 *331:107 0.000515798
117 *331:101 0.000613824
118 *331:79 0.00100082
119 *331:71 0.00101387
120 *331:69 0.000240063
121 *331:65 0.000123882
122 *331:41 0.000438454
123 *331:32 0.000829188
124 *331:26 0.000963239
125 *331:22 0.0016376
126 *331:14 0.00218638
127 *331:10 0.000215186
128 *331:8 0.000354736
526 *685:A 0.356476
*RES
1 *914:X *331:8 15.1709 
2 *331:8 *331:10 5.33911 
3 *331:10 *331:14 8.61255 
4 *331:14 *331:22 18.0188 
5 *331:22 *331:26 2.63348 
6 *331:26 *331:32 10.5339 
7 *331:32 *655:A 9.3 
8 *331:32 *331:41 0.974026 
9 *331:41 *688:A 12.3483 
10 *331:41 *801:A 20.2661 
11 *331:26 *331:65 9.53247 
12 *331:65 *331:69 5.83605 
13 *331:69 *331:71 0.193064 
14 *331:71 *331:79 11.824 
15 *331:79 *781:A 9.3 
16 *331:79 *708:A 13.16 
17 *331:71 *331:101 12.2574 
18 *331:101 *331:107 17.2345 
19 *331:107 *695:A 9.3 
20 *331:107 *331:116 3.04834 
21 *331:116 *679:A 27.2646 
22 *331:116 *595:A 9.3 
23 *331:101 *599:A 14.3411 
24 *331:69 *331:145 0.411447 
25 *331:145 *619:A 18.0307 
26 *331:145 *682:A 23.1371 
27 *331:65 *785:A 13.8 
28 *331:22 *709:C1 9.84113 
29 *331:14 *701:A 12.2401 
30 *331:10 *331:202 5.45599 
31 *331:202 *658:A 11.0857 
32 *331:202 *789:A 9.3 
33 *331:8 *331:216 8.25217 
34 *331:216 *331:220 4.91337 
35 *331:220 *331:222 0.265858 
36 *331:222 *646:A 20.7291 
37 *331:222 *331:241 9.41613 
38 *331:241 *664:A 10.256 
39 *331:241 *793:A 12.7452 
40 *331:220 *331:261 13.7091 
41 *331:261 *331:269 5.88023 
42 *331:269 *773:A 9.84113 
43 *331:269 *331:282 16.1789 
44 *331:282 *331:290 11.9048 
45 *331:290 *331:298 17.5498 
46 *331:298 *615:A 21.186 
47 *331:298 *769:A 9.3 
48 *331:290 *331:320 7.52165 
49 *331:320 *331:324 7.11544 
50 *331:324 *691:A 18.9768 
51 *331:324 *331:337 1.65945 
52 *331:337 *331:341 8.36003 
53 *331:341 *331:345 4.70779 
54 *331:345 *331:349 6.28571 
55 *331:349 *331:355 8.14358 
56 *331:355 *331:357 0.955989 
57 *331:357 *331:363 8.56782 
58 *331:363 *634:A 23.567 
59 *331:363 *745:A 9.3 
60 *331:357 *757:A 9.3 
61 *331:355 *625:C1 23.8736 
62 *331:349 *331:407 17.2525 
63 *331:407 *637:A 28.9602 
64 *331:407 *628:A 9.3 
65 *331:345 *749:A 9.3 
66 *331:341 *777:A 9.3 
67 *331:337 *331:441 2.57937 
68 *331:441 *331:449 12.7612 
69 *331:449 *331:455 6.49351 
70 *331:455 *761:A 13.1781 
71 *331:455 *649:A 9.3 
72 *331:449 *705:A 9.3 
73 *331:441 *611:A 13.8 
74 *331:320 *643:A 9.7329 
75 *331:290 *607:A 9.3 
76 *331:282 *667:A 11.5006 
77 *331:261 *797:A 9.84113 
78 *331:216 *661:A 15.3061 
79 *781:A *331:523 9.84113 
80 *331:523 *331:525 6.76407 
81 *331:525 *652:A 9.84113 
82 *331:525 *331:536 6.46609 
83 *331:536 *331:538 3.49928 
84 *331:538 *753:A 27.4898 
85 *331:538 *331:559 11.9134 
86 *331:559 *331:561 5.93434 
87 *331:561 *331:565 4.70779 
88 *331:565 *715:A 9.3 
89 *331:565 *331:574 0.974026 
90 *331:574 *631:A 10.256 
91 *331:574 *331:585 7.386 
92 *331:585 *331:589 12.5087 
93 *331:589 *331:595 3.48124 
94 *331:595 *331:601 10.2179 
95 *331:601 *622:C1 18.0569 
96 *331:601 *727:A 17.6781 
97 *331:595 *721:A 9.7329 
98 *331:589 *331:634 6.15945 
99 *331:634 *331:644 11.1558 
100 *331:644 *331:646 5.51948 
101 *331:646 *733:A 23.0799 
102 *331:646 *623:C1 9.3 
103 *331:644 *624:C1 9.3 
104 *331:634 *621:C1 13.8 
105 *331:585 *331:678 8.71212 
106 *331:678 *640:A 14.3411 
107 *331:678 *331:695 12.2742 
108 *331:695 *739:A 18.1564 
109 *331:695 *765:A 9.3 
110 *331:561 *694:A 9.3 
111 *331:559 *805:A 9.84113 
112 *331:536 *670:A 13.8 
113 *331:523 *331:732 9.22583 
114 *331:732 *603:A 14.3411 
115 *331:732 *331:743 3.19264 
116 *331:743 *587:A 21.4479 
117 *331:743 *331:764 15.1328 
118 *331:764 *331:766 6.56566 
119 *331:766 *331:774 8.66667 
120 *331:774 *331:780 11.3636 
121 *331:780 *331:782 6.76407 
122 *331:782 *620:C1 15.6672 
123 *331:782 *702:A 22.8635 
124 *331:780 *673:A 9.3 
125 *331:774 *591:A 15.6492 
126 *331:766 *676:A 15.1709 
127 *331:764 *685:A 14.3411 
*END

*D_NET *332 0.015586
*CONN
*I *696:B I *D sky130_fd_sc_hd__nand2_1
*I *915:X O *D sky130_fd_sc_hd__buf_1
*CAP
1 *696:B 0
2 *915:X 0.00146555
3 *332:20 0.00146555
16 *696:B 0.0126549
*RES
1 *915:X *332:20 46.5287 
2 *332:20 *696:B 9.3 
*END

*D_NET *333 0.0443999
*CONN
*I *668:A2 I *D sky130_fd_sc_hd__a22oi_1
*I *803:A2 I *D sky130_fd_sc_hd__a21oi_1
*I *804:B I *D sky130_fd_sc_hd__and3_1
*I *916:X O *D sky130_fd_sc_hd__buf_1
*CAP
1 *668:A2 0.000300713
2 *803:A2 0
3 *804:B 0.000265041
4 *916:X 0.00544258
5 *333:47 0.000308015
6 *333:34 0.00046683
7 *333:28 0.00563707
42 *668:A2 0.0319796
*RES
1 *916:X *333:28 48.3772 
2 *333:28 *333:34 10.6061 
3 *333:34 *804:B 16.8483 
4 *333:34 *333:47 0.739538 
5 *333:47 *803:A2 13.8 
6 *333:47 *668:A2 21.5381 
*END

*D_NET *334 0.0244549
*CONN
*I *665:A2 I *D sky130_fd_sc_hd__a22oi_1
*I *799:A2 I *D sky130_fd_sc_hd__a21oi_1
*I *800:B I *D sky130_fd_sc_hd__and3_1
*I *917:X O *D sky130_fd_sc_hd__buf_1
*CAP
1 *665:A2 2.86913e-05
2 *799:A2 0
3 *800:B 0.000691645
4 *917:X 9.13306e-05
5 *334:22 0.000946123
6 *334:8 0.0003745
22 *665:A2 0.0223226
*RES
1 *917:X *334:8 14.0078 
2 *334:8 *334:22 17.0628 
3 *334:22 *800:B 12.9616 
4 *334:22 *799:A2 9.3 
5 *334:8 *665:A2 9.88171 
*END

*D_NET *335 0.0280808
*CONN
*I *662:A2 I *D sky130_fd_sc_hd__a22oi_1
*I *796:B I *D sky130_fd_sc_hd__and3_1
*I *795:A2 I *D sky130_fd_sc_hd__a21oi_1
*I *918:X O *D sky130_fd_sc_hd__buf_1
*CAP
1 *662:A2 0.000728667
2 *796:B 0.000143668
3 *795:A2 0
4 *918:X 0
5 *335:16 0.000527086
6 *335:4 0.00111209
39 *662:A2 0.0255693
*RES
1 *918:X *335:4 9.3 
2 *335:4 *335:16 19.4798 
3 *335:16 *795:A2 9.3 
4 *335:16 *796:B 13.0879 
5 *335:4 *662:A2 35.9986 
*END

*D_NET *336 0.0153649
*CONN
*I *659:A2 I *D sky130_fd_sc_hd__a22oi_1
*I *791:A2 I *D sky130_fd_sc_hd__a21oi_1
*I *792:B I *D sky130_fd_sc_hd__and3_1
*I *919:X O *D sky130_fd_sc_hd__buf_1
*CAP
1 *659:A2 6.64794e-05
2 *791:A2 0.000136987
3 *792:B 0.00106347
4 *919:X 0.000103201
5 *336:29 0.000267657
6 *336:6 0.00123086
27 *659:A2 0.0124963
*RES
1 *919:X *336:6 9.84113 
2 *336:6 *792:B 23.9999 
3 *336:6 *336:29 7.69264 
4 *336:29 *791:A2 17.2271 
5 *336:29 *659:A2 14.7199 
*END

*D_NET *2 0.00789355
*CONN
*P p O
*I *808:Q O *D sky130_fd_sc_hd__dfxtp_1
*CAP
1 p 0.00105473
2 *808:Q 0.00105473
11 p 0.00578409
*RES
1 *808:Q p 28.6525 
*END

*D_NET *3 0.0231443
*CONN
*P rst I
*I *914:A I *D sky130_fd_sc_hd__clkbuf_8
*CAP
1 rst 0.000605865
2 *914:A 0.000605865
8 rst 0.0219325
*RES
1 rst *914:A 32.4803 
*END

*D_NET *337 0.00799171
*CONN
*I *699:B I *D sky130_fd_sc_hd__xnor2_1
*I *698:B I *D sky130_fd_sc_hd__nor2_1
*I *697:B I *D sky130_fd_sc_hd__nand2_1
*I *809:Q O *D sky130_fd_sc_hd__dfxtp_1
*CAP
1 *699:B 2.33222e-05
2 *698:B 0.000193965
3 *697:B 0
4 *809:Q 0.000364804
5 *337:12 0.000254794
6 *337:8 0.000448955
15 *699:B 0.00670587
*RES
1 *809:Q *337:8 15.1709 
2 *337:8 *337:12 7.69264 
3 *337:12 *697:B 9.3 
4 *337:12 *698:B 12.6369 
5 *337:8 *699:B 15.4595 
*END

*D_NET *338 0.021691
*CONN
*I *668:B2 I *D sky130_fd_sc_hd__a22oi_1
*I *802:B I *D sky130_fd_sc_hd__xor2_1
*I *669:B I *D sky130_fd_sc_hd__nor2_1
*I *819:Q O *D sky130_fd_sc_hd__dfxtp_1
*CAP
1 *668:B2 0
2 *802:B 2.45833e-05
3 *669:B 0.000222421
4 *819:Q 0.000944283
5 *338:14 0.000278507
6 *338:10 0.000975786
29 *668:B2 0.0192454
*RES
1 *819:Q *338:10 22.9811 
2 *338:10 *338:14 7.07937 
3 *338:14 *669:B 24.4147 
4 *338:14 *802:B 9.84113 
5 *338:10 *668:B2 13.8 
*END

*D_NET *339 0.0134549
*CONN
*I *666:B I *D sky130_fd_sc_hd__nor2_1
*I *798:B I *D sky130_fd_sc_hd__xor2_1
*I *665:B2 I *D sky130_fd_sc_hd__a22oi_1
*I *820:Q O *D sky130_fd_sc_hd__dfxtp_1
*CAP
1 *666:B 0
2 *798:B 1.41402e-05
3 *665:B2 3.22068e-05
4 *820:Q 0.000578871
5 *339:20 0.000260192
6 *339:16 0.000792716
24 *666:B 0.0117768
*RES
1 *820:Q *339:16 20.4919 
2 *339:16 *339:20 3.12049 
3 *339:20 *665:B2 14.5395 
4 *339:20 *798:B 15.5857 
5 *339:16 *666:B 13.8 
*END

*D_NET *340 0.0234663
*CONN
*I *662:B2 I *D sky130_fd_sc_hd__a22oi_1
*I *663:B I *D sky130_fd_sc_hd__nor2_1
*I *794:B I *D sky130_fd_sc_hd__xor2_1
*I *821:Q O *D sky130_fd_sc_hd__dfxtp_1
*CAP
1 *662:B2 0.00105884
2 *663:B 8.53866e-05
3 *794:B 0.000109027
4 *821:Q 0.000335376
5 *340:8 0.000194414
6 *340:6 0.00139422
21 *662:B2 0.020289
*RES
1 *821:Q *340:6 10.6709 
2 *340:6 *340:8 4.5 
3 *340:8 *794:B 16.8303 
4 *340:8 *663:B 19.7524 
5 *340:6 *662:B2 25.5872 
*END

*D_NET *341 0.0196798
*CONN
*I *660:B I *D sky130_fd_sc_hd__nor2_1
*I *790:B I *D sky130_fd_sc_hd__xor2_1
*I *659:B2 I *D sky130_fd_sc_hd__a22oi_1
*I *822:Q O *D sky130_fd_sc_hd__dfxtp_1
*CAP
1 *660:B 2.45105e-05
2 *790:B 0
3 *659:B2 0.000262242
4 *822:Q 0.000121253
5 *341:14 0.000294863
6 *341:12 0.000178384
27 *660:B 0.0187986
*RES
1 *822:Q *341:12 22.9898 
2 *341:12 *341:14 2.61544 
3 *341:14 *659:B2 25.9299 
4 *341:14 *790:B 9.3 
5 *341:12 *660:B 9.7329 
*END

*D_NET *342 0.0126256
*CONN
*I *786:B I *D sky130_fd_sc_hd__xor2_1
*I *657:B I *D sky130_fd_sc_hd__nor2_1
*I *656:B2 I *D sky130_fd_sc_hd__a22oi_1
*I *823:Q O *D sky130_fd_sc_hd__dfxtp_1
*CAP
1 *786:B 2.97007e-05
2 *657:B 0.000385696
3 *656:B2 0
4 *823:Q 0.000479694
5 *342:19 0.000426076
6 *342:10 0.000490374
22 *786:B 0.0108141
*RES
1 *823:Q *342:10 24.0814 
2 *342:10 *656:B2 13.8 
3 *342:10 *342:19 0.739538 
4 *342:19 *657:B 15.9104 
5 *342:19 *786:B 15.7661 
*END

*D_NET *343 0.00865455
*CONN
*I *782:B I *D sky130_fd_sc_hd__xor2_1
*I *653:B2 I *D sky130_fd_sc_hd__a22oi_1
*I *654:B I *D sky130_fd_sc_hd__nor2_1
*I *824:Q O *D sky130_fd_sc_hd__dfxtp_1
*CAP
1 *782:B 0.000119283
2 *653:B2 0
3 *654:B 2.79481e-05
4 *824:Q 0.000203792
5 *343:20 0.000452831
6 *343:10 0.000747957
23 *782:B 0.00710274
*RES
1 *824:Q *343:10 15.6939 
2 *343:10 *343:20 18.1898 
3 *343:20 *654:B 11.5186 
4 *343:20 *653:B2 9.3 
5 *343:10 *782:B 16.0727 
*END

*D_NET *344 0.0232534
*CONN
*I *650:B2 I *D sky130_fd_sc_hd__a22oi_1
*I *651:B I *D sky130_fd_sc_hd__nor2_1
*I *778:B I *D sky130_fd_sc_hd__xor2_1
*I *825:Q O *D sky130_fd_sc_hd__dfxtp_1
*CAP
1 *650:B2 0.000582344
2 *651:B 0
3 *778:B 0.00112211
4 *825:Q 0.000237491
5 *344:14 0.00128317
6 *344:6 0.00098089
25 *650:B2 0.0190474
*RES
1 *825:Q *344:6 10.256 
2 *344:6 *344:14 15.6198 
3 *344:14 *778:B 25.4429 
4 *344:14 *651:B 9.3 
5 *344:6 *650:B2 18.1564 
*END

*D_NET *345 0.00931589
*CONN
*I *774:B I *D sky130_fd_sc_hd__xor2_1
*I *648:B I *D sky130_fd_sc_hd__nor2_1
*I *647:B2 I *D sky130_fd_sc_hd__a22oi_1
*I *826:Q O *D sky130_fd_sc_hd__dfxtp_1
*CAP
1 *774:B 0
2 *648:B 8.31611e-05
3 *647:B2 0
4 *826:Q 0.000583143
5 *345:18 0.000304908
6 *345:12 0.00080489
22 *774:B 0.00753979
*RES
1 *826:Q *345:12 22.16 
2 *345:12 *345:18 8.14358 
3 *345:18 *647:B2 13.8 
4 *345:18 *648:B 17.5338 
5 *345:12 *774:B 9.3 
*END

*D_NET *346 0.00771517
*CONN
*I *770:B I *D sky130_fd_sc_hd__xor2_1
*I *644:B2 I *D sky130_fd_sc_hd__a22oi_1
*I *645:B I *D sky130_fd_sc_hd__nor2_1
*I *827:Q O *D sky130_fd_sc_hd__dfxtp_1
*CAP
1 *770:B 5.63323e-06
2 *644:B2 0
3 *645:B 7.23388e-05
4 *827:Q 0.000130715
5 *346:18 0.000224824
6 *346:10 0.000288833
21 *770:B 0.00699283
*RES
1 *827:Q *346:10 20.2661 
2 *346:10 *346:18 13.3651 
3 *346:18 *645:B 11.5367 
4 *346:18 *644:B2 9.3 
5 *346:10 *770:B 9.84113 
*END

*D_NET *347 0.0165839
*CONN
*I *642:B I *D sky130_fd_sc_hd__nor2_1
*I *766:B I *D sky130_fd_sc_hd__xor2_1
*I *641:B2 I *D sky130_fd_sc_hd__a22oi_1
*I *828:Q O *D sky130_fd_sc_hd__dfxtp_1
*CAP
1 *642:B 0.000138424
2 *766:B 2.62303e-05
3 *641:B2 5.65894e-05
4 *828:Q 0.000601975
5 *347:16 0.000223414
6 *347:12 0.000880994
29 *642:B 0.0146563
*RES
1 *828:Q *347:12 24.7127 
2 *347:12 *347:16 6.70058 
3 *347:16 *641:B2 21.1139 
4 *347:16 *766:B 9.84113 
5 *347:12 *642:B 16.9205 
*END

*D_NET *348 0.0405406
*CONN
*I *616:B I *D sky130_fd_sc_hd__xor2_1
*I *707:B I *D sky130_fd_sc_hd__nor2_1
*I *706:B2 I *D sky130_fd_sc_hd__a22oi_1
*I *810:Q O *D sky130_fd_sc_hd__dfxtp_1
*CAP
1 *616:B 0.000255052
2 *707:B 4.54716e-05
3 *706:B2 0.000239629
4 *810:Q 0.00217854
5 *348:26 0.000527734
6 *348:18 0.00267623
38 *616:B 0.0346179
*RES
1 *810:Q *348:18 40.2069 
2 *348:18 *348:26 10.1999 
3 *348:26 *706:B2 24.8296 
4 *348:26 *707:B 11.5186 
5 *348:18 *616:B 16.7401 
*END

*D_NET *349 0.0140786
*CONN
*I *762:B I *D sky130_fd_sc_hd__xor2_1
*I *638:B2 I *D sky130_fd_sc_hd__a22oi_1
*I *639:B I *D sky130_fd_sc_hd__nor2_1
*I *829:Q O *D sky130_fd_sc_hd__dfxtp_1
*CAP
1 *762:B 0.000120911
2 *638:B2 4.78223e-05
3 *639:B 0.000138198
4 *829:Q 0.000144913
5 *349:27 0.00106909
6 *349:6 0.00118347
22 *762:B 0.0113742
*RES
1 *829:Q *349:6 9.84113 
2 *349:6 *639:B 20.6268 
3 *349:6 *349:27 9.29798 
4 *349:27 *638:B2 14.3411 
5 *349:27 *762:B 16.686 
*END

*D_NET *350 0.00569299
*CONN
*I *636:B I *D sky130_fd_sc_hd__nor2_1
*I *758:B I *D sky130_fd_sc_hd__xor2_1
*I *635:B2 I *D sky130_fd_sc_hd__a22oi_1
*I *830:Q O *D sky130_fd_sc_hd__dfxtp_1
*CAP
1 *636:B 7.67451e-05
2 *758:B 0.000172142
3 *635:B2 0.000292291
4 *830:Q 0.000810803
5 *350:28 0.000767399
16 *636:B 0.00357361
*RES
1 *830:Q *635:B2 30.1072 
2 *830:Q *350:28 17.5518 
3 *350:28 *758:B 16.4154 
4 *350:28 *636:B 16.3794 
*END

*D_NET *351 0.0236706
*CONN
*I *754:B I *D sky130_fd_sc_hd__xor2_1
*I *632:B2 I *D sky130_fd_sc_hd__a22oi_1
*I *633:B I *D sky130_fd_sc_hd__nor2_1
*I *831:Q O *D sky130_fd_sc_hd__dfxtp_1
*CAP
1 *754:B 0.000244304
2 *632:B2 2.12318e-05
3 *633:B 0
4 *831:Q 0.000497421
5 *351:27 0.000302955
6 *351:18 0.000534841
27 *754:B 0.0220699
*RES
1 *831:Q *351:18 23.9551 
2 *351:18 *633:B 13.8 
3 *351:18 *351:27 2.886 
4 *351:27 *632:B2 16.0006 
5 *351:27 *754:B 18.9948 
*END

*D_NET *352 0.010078
*CONN
*I *750:B I *D sky130_fd_sc_hd__xor2_1
*I *629:B2 I *D sky130_fd_sc_hd__a22oi_1
*I *630:B I *D sky130_fd_sc_hd__nor2_1
*I *832:Q O *D sky130_fd_sc_hd__dfxtp_1
*CAP
1 *750:B 8.87532e-05
2 *629:B2 1.66234e-05
3 *630:B 4.97434e-05
4 *832:Q 0
5 *352:10 0.000154705
6 *352:4 0.000177092
18 *750:B 0.00959113
*RES
1 *832:Q *352:4 9.3 
2 *352:4 *352:10 14.3391 
3 *352:10 *630:B 11.5186 
4 *352:10 *629:B2 10.274 
5 *352:4 *750:B 10.6889 
*END

*D_NET *353 0.0117702
*CONN
*I *627:B I *D sky130_fd_sc_hd__nor2_1
*I *746:B I *D sky130_fd_sc_hd__xor2_1
*I *626:B2 I *D sky130_fd_sc_hd__a22oi_1
*I *833:Q O *D sky130_fd_sc_hd__dfxtp_1
*CAP
1 *627:B 5.01756e-05
2 *746:B 0.000150795
3 *626:B2 0.00011245
4 *833:Q 0.000178702
5 *353:24 0.000267223
16 *627:B 0.0110108
*RES
1 *833:Q *626:B2 19.9889 
2 *833:Q *353:24 16.7221 
3 *353:24 *746:B 16.0006 
4 *353:24 *627:B 16.3794 
*END

*D_NET *354 0.0307023
*CONN
*I *743:B I *D sky130_fd_sc_hd__xnor2_1
*I *742:B I *D sky130_fd_sc_hd__nor2_1
*I *741:B I *D sky130_fd_sc_hd__nand2_1
*I *834:Q O *D sky130_fd_sc_hd__dfxtp_1
*CAP
1 *743:B 0
2 *742:B 0.000141809
3 *741:B 0.000873414
4 *834:Q 0.00193701
5 *354:29 0.000203249
6 *354:12 0.00287186
25 *743:B 0.0246749
*RES
1 *834:Q *354:12 18.7156 
2 *354:12 *741:B 13.4847 
3 *354:12 *354:29 12.3369 
4 *354:29 *742:B 11.5186 
5 *354:29 *743:B 9.3 
*END

*D_NET *355 0.00399715
*CONN
*I *735:B I *D sky130_fd_sc_hd__nand2_1
*I *737:B I *D sky130_fd_sc_hd__xnor2_1
*I *736:B I *D sky130_fd_sc_hd__nor2_1
*I *835:Q O *D sky130_fd_sc_hd__dfxtp_1
*CAP
1 *735:B 0.00010487
2 *737:B 0
3 *736:B 0.000298156
4 *835:Q 0
5 *355:12 0.000431775
6 *355:6 0.00023849
12 *735:B 0.00292386
*RES
1 *835:Q *355:6 13.8 
2 *355:6 *355:12 6.70058 
3 *355:12 *736:B 13.0879 
4 *355:12 *737:B 9.3 
5 *355:6 *735:B 15.3873 
*END

*D_NET *356 0.00850246
*CONN
*I *731:B I *D sky130_fd_sc_hd__xnor2_1
*I *730:B I *D sky130_fd_sc_hd__nor2_1
*I *729:B I *D sky130_fd_sc_hd__nand2_1
*I *836:Q O *D sky130_fd_sc_hd__dfxtp_1
*CAP
1 *731:B 3.53168e-05
2 *730:B 1.07987e-05
3 *729:B 0.000135339
4 *836:Q 0.00073242
5 *356:16 0.000395213
6 *356:14 0.00101681
19 *731:B 0.00617657
*RES
1 *836:Q *356:14 24.4328 
2 *356:14 *356:16 3.0303 
3 *356:16 *729:B 11.1038 
4 *356:16 *730:B 9.7329 
5 *356:14 *731:B 10.5807 
*END

*D_NET *357 0.0115093
*CONN
*I *725:B I *D sky130_fd_sc_hd__xnor2_1
*I *723:B I *D sky130_fd_sc_hd__nand2_1
*I *724:B I *D sky130_fd_sc_hd__nor2_1
*I *837:Q O *D sky130_fd_sc_hd__dfxtp_1
*CAP
1 *725:B 0
2 *723:B 0.0001974
3 *724:B 0.00031962
4 *837:Q 0.00140943
5 *357:23 0.000516616
6 *357:6 0.00204827
14 *725:B 0.00701793
*RES
1 *837:Q *357:6 14.8195 
2 *357:6 *724:B 21.7993 
3 *357:6 *357:23 4.20274 
4 *357:23 *723:B 13.5929 
5 *357:23 *725:B 9.3 
*END

*D_NET *358 0.013723
*CONN
*I *717:B I *D sky130_fd_sc_hd__nand2_1
*I *718:B I *D sky130_fd_sc_hd__nor2_1
*I *719:B I *D sky130_fd_sc_hd__xnor2_1
*I *838:Q O *D sky130_fd_sc_hd__dfxtp_1
*CAP
1 *717:B 0.000333489
2 *718:B 6.08937e-05
3 *719:B 0.000126375
4 *838:Q 0.00026235
5 *358:19 0.000451425
6 *358:8 0.000445768
26 *717:B 0.0120427
*RES
1 *838:Q *358:8 18.2192 
2 *358:8 *719:B 16.8303 
3 *358:8 *358:19 2.11941 
4 *358:19 *718:B 14.9273 
5 *358:19 *717:B 18.8144 
*END

*D_NET *359 0.00954236
*CONN
*I *612:B I *D sky130_fd_sc_hd__xor2_1
*I *704:B I *D sky130_fd_sc_hd__nor2_1
*I *703:B2 I *D sky130_fd_sc_hd__a22oi_1
*I *811:Q O *D sky130_fd_sc_hd__dfxtp_1
*CAP
1 *612:B 0.000186954
2 *704:B 2.80564e-05
3 *703:B2 0.000114345
4 *811:Q 0.000314415
5 *359:14 0.000531809
6 *359:10 0.000890776
19 *612:B 0.00747601
*RES
1 *811:Q *359:10 16.6139 
2 *359:10 *359:14 8.36003 
3 *359:14 *703:B2 21.0417 
4 *359:14 *704:B 9.7329 
5 *359:10 *612:B 17.0287 
*END

*D_NET *360 0.019376
*CONN
*I *712:B I *D sky130_fd_sc_hd__nor2_1
*I *713:B I *D sky130_fd_sc_hd__xnor2_1
*I *711:B I *D sky130_fd_sc_hd__nand2_1
*I *839:Q O *D sky130_fd_sc_hd__dfxtp_1
*CAP
1 *712:B 0
2 *713:B 0.000113888
3 *711:B 0.000794344
4 *839:Q 0.00113858
5 *360:18 0.000958728
6 *360:12 0.00118908
24 *712:B 0.0151814
*RES
1 *839:Q *360:12 24.2343 
2 *360:12 *360:18 7.02525 
3 *360:18 *711:B 20.041 
4 *360:18 *713:B 15.1889 
5 *360:12 *712:B 9.3 
*END

*D_NET *361 0.00941707
*CONN
*I *608:B I *D sky130_fd_sc_hd__xor2_1
*I *690:B I *D sky130_fd_sc_hd__nor2_1
*I *689:B2 I *D sky130_fd_sc_hd__a22oi_1
*I *812:Q O *D sky130_fd_sc_hd__dfxtp_1
*CAP
1 *608:B 0
2 *690:B 5.06775e-05
3 *689:B2 2.1635e-05
4 *812:Q 0.000131053
5 *361:23 0.000115257
6 *361:8 0.000217268
19 *608:B 0.00888118
*RES
1 *812:Q *361:8 14.3411 
2 *361:8 *689:B2 15.4955 
3 *361:8 *361:23 8.61255 
4 *361:23 *690:B 11.5186 
5 *361:23 *608:B 9.3 
*END

*D_NET *362 0.0289016
*CONN
*I *686:B2 I *D sky130_fd_sc_hd__a22oi_1
*I *687:B I *D sky130_fd_sc_hd__nor2_1
*I *604:B I *D sky130_fd_sc_hd__xor2_1
*I *813:Q O *D sky130_fd_sc_hd__dfxtp_1
*CAP
1 *686:B2 0.000162419
2 *687:B 4.68501e-05
3 *604:B 0
4 *813:Q 0.00241273
5 *362:12 4.68501e-05
6 *362:10 0.00257515
29 *686:B2 0.0236576
*RES
1 *813:Q *362:10 36.852 
2 *362:10 *362:12 4.5 
3 *362:12 *604:B 9.3 
4 *362:12 *687:B 11.5186 
5 *362:10 *686:B2 18.0749 
*END

*D_NET *363 0.0266304
*CONN
*I *683:B2 I *D sky130_fd_sc_hd__a22oi_1
*I *600:B I *D sky130_fd_sc_hd__xor2_1
*I *684:B I *D sky130_fd_sc_hd__nor2_1
*I *814:Q O *D sky130_fd_sc_hd__dfxtp_1
*CAP
1 *683:B2 2.29185e-05
2 *600:B 7.59559e-05
3 *684:B 0.00066651
4 *814:Q 0.00214448
5 *363:14 0.00104785
6 *363:12 0.00247278
26 *683:B2 0.0201999
*RES
1 *814:Q *363:12 28.1846 
2 *363:12 *363:14 1.37085 
3 *363:14 *684:B 12.655 
4 *363:14 *600:B 22.0338 
5 *363:12 *683:B2 9.7329 
*END

*D_NET *364 0.0345421
*CONN
*I *680:B2 I *D sky130_fd_sc_hd__a22oi_1
*I *596:B I *D sky130_fd_sc_hd__xor2_1
*I *681:B I *D sky130_fd_sc_hd__nor2_1
*I *815:Q O *D sky130_fd_sc_hd__dfxtp_1
*CAP
1 *680:B2 0.000124633
2 *596:B 0
3 *681:B 0.000822855
4 *815:Q 0.000749924
5 *364:10 0.000854807
6 *364:8 0.00090651
32 *680:B2 0.0310834
*RES
1 *815:Q *364:8 16.8303 
2 *364:8 *364:10 1.96609 
3 *364:10 *681:B 33.1182 
4 *364:10 *596:B 13.8 
5 *364:8 *680:B2 20.041 
*END

*D_NET *365 0.00806255
*CONN
*I *677:B2 I *D sky130_fd_sc_hd__a22oi_1
*I *592:B I *D sky130_fd_sc_hd__xor2_1
*I *678:B I *D sky130_fd_sc_hd__nor2_1
*I *816:Q O *D sky130_fd_sc_hd__dfxtp_1
*CAP
1 *677:B2 7.64932e-05
2 *592:B 0
3 *678:B 7.73231e-05
4 *816:Q 0.00035841
5 *365:21 8.33219e-05
6 *365:8 0.000442562
18 *677:B2 0.00702444
*RES
1 *816:Q *365:8 15.1709 
2 *365:8 *678:B 16.3072 
3 *365:8 *365:21 0.739538 
4 *365:21 *592:B 13.8 
5 *365:21 *677:B2 19.1391 
*END

*D_NET *366 0.0163965
*CONN
*I *588:B I *D sky130_fd_sc_hd__xor2_1
*I *674:B2 I *D sky130_fd_sc_hd__a22oi_1
*I *675:B I *D sky130_fd_sc_hd__nor2_1
*I *817:Q O *D sky130_fd_sc_hd__dfxtp_1
*CAP
1 *588:B 0.000151828
2 *674:B2 3.0974e-05
3 *675:B 8.17513e-06
4 *817:Q 0
5 *366:14 0.000208765
6 *366:4 0.000321444
29 *588:B 0.0156753
*RES
1 *817:Q *366:4 9.3 
2 *366:4 *366:14 9.22583 
3 *366:14 *675:B 14.3411 
4 *366:14 *674:B2 15.7661 
5 *366:4 *588:B 24.5049 
*END

*D_NET *367 0.0219271
*CONN
*I *672:B I *D sky130_fd_sc_hd__nor2_1
*I *671:B2 I *D sky130_fd_sc_hd__a22oi_1
*I *806:B I *D sky130_fd_sc_hd__xor2_1
*I *818:Q O *D sky130_fd_sc_hd__dfxtp_1
*CAP
1 *672:B 0.000366555
2 *671:B2 0.000628072
3 *806:B 0.000150968
4 *818:Q 6.32356e-05
5 *367:27 0.00149952
6 *367:8 0.0007191
29 *672:B 0.0184996
*RES
1 *818:Q *367:8 16.3794 
2 *367:8 *806:B 16.668 
3 *367:8 *367:27 6.70058 
4 *367:27 *671:B2 23.1341 
5 *367:27 *672:B 26.2545 
*END

*D_NET *4 0.0739269
*CONN
*P x[0] I
*I *915:A I *D sky130_fd_sc_hd__buf_1
*CAP
1 x[0] 0.00120228
2 *915:A 0.000198439
3 *4:11 0.00140072
10 x[0] 0.0711255
*RES
1 x[0] *4:11 36.8398 
2 *4:11 *915:A 27.6802 
*END

*D_NET *5 0.0514235
*CONN
*P x[10] I
*I *916:A I *D sky130_fd_sc_hd__buf_1
*CAP
1 x[10] 0.000328767
2 *916:A 0.00121384
3 *5:11 0.0015426
15 x[10] 0.0483383
*RES
1 x[10] *5:11 32.9263 
2 *5:11 *916:A 27.6802 
*END

*D_NET *6 0.0230167
*CONN
*P x[11] I
*I *917:A I *D sky130_fd_sc_hd__buf_1
*CAP
1 x[11] 0.00273279
2 *917:A 0.00273279
10 x[11] 0.0175511
*RES
1 x[11] *917:A 37.7653 
*END

*D_NET *7 0.0183788
*CONN
*P x[12] I
*I *918:A I *D sky130_fd_sc_hd__buf_1
*CAP
1 x[12] 0.00307848
2 *918:A 0.00307848
14 x[12] 0.0122218
*RES
1 x[12] *918:A 48.1059 
*END

*D_NET *8 0.0195283
*CONN
*P x[13] I
*I *919:A I *D sky130_fd_sc_hd__buf_1
*CAP
1 x[13] 0.00161194
2 *919:A 0.00161194
17 x[13] 0.0163044
*RES
1 x[13] *919:A 37.753 
*END

*D_NET *9 0.0126209
*CONN
*P x[14] I
*I *886:A I *D sky130_fd_sc_hd__buf_1
*CAP
1 x[14] 0.00239344
2 *886:A 0.00239344
13 x[14] 0.00783398
*RES
1 x[14] *886:A 44.9254 
*END

*D_NET *10 0.0190269
*CONN
*P x[15] I
*I *887:A I *D sky130_fd_sc_hd__buf_1
*CAP
1 x[15] 0.00140156
2 *887:A 0.00140156
12 x[15] 0.0162238
*RES
1 x[15] *887:A 40.849 
*END

*D_NET *11 0.0147298
*CONN
*P x[16] I
*I *888:A I *D sky130_fd_sc_hd__buf_1
*CAP
1 x[16] 0.00171856
2 *888:A 0.00171856
15 x[16] 0.0112927
*RES
1 x[16] *888:A 24.3802 
*END

*D_NET *12 0.040867
*CONN
*P x[17] I
*I *889:A I *D sky130_fd_sc_hd__buf_1
*CAP
1 x[17] 0.00123774
2 *889:A 0.00123774
11 x[17] 0.0383915
*RES
1 x[17] *889:A 48.8461 
*END

*D_NET *13 0.0960538
*CONN
*P x[18] I
*I *890:A I *D sky130_fd_sc_hd__buf_1
*CAP
1 x[18] 0.000316705
2 *890:A 0
3 *13:19 0.00104718
4 *13:11 0.00136388
16 x[18] 0.0933261
*RES
1 x[18] *13:11 17.3606 
2 *13:11 *13:19 43.8665 
3 *13:19 *890:A 9.3 
*END

*D_NET *14 0.00966645
*CONN
*P x[19] I
*I *891:A I *D sky130_fd_sc_hd__buf_1
*CAP
1 x[19] 0.00101334
2 *891:A 0.00101334
18 x[19] 0.00763977
*RES
1 x[19] *891:A 24.3074 
*END

*D_NET *15 0.018309
*CONN
*P x[1] I
*I *892:A I *D sky130_fd_sc_hd__buf_1
*CAP
1 x[1] 0.00306918
2 *892:A 0.00306918
19 x[1] 0.0121706
*RES
1 x[1] *892:A 49.038 
*END

*D_NET *16 0.0643933
*CONN
*P x[20] I
*I *893:A I *D sky130_fd_sc_hd__buf_1
*CAP
1 x[20] 0.00352508
2 *893:A 0.000727278
3 *16:21 0.00425236
25 x[20] 0.0558886
*RES
1 x[20] *16:21 48.8447 
2 *16:21 *893:A 19.4818 
*END

*D_NET *17 0.051229
*CONN
*P x[21] I
*I *894:A I *D sky130_fd_sc_hd__buf_1
*CAP
1 x[21] 0.000713328
2 *894:A 0.000713328
12 x[21] 0.0498023
*RES
1 x[21] *894:A 48.8396 
*END

*D_NET *18 0.0362938
*CONN
*P x[22] I
*I *895:A I *D sky130_fd_sc_hd__buf_2
*CAP
1 x[22] 0.000788231
2 *895:A 0.000788231
5 x[22] 0.0347173
*RES
1 x[22] *895:A 37.3375 
*END

*D_NET *19 0.0523009
*CONN
*P x[23] I
*I *896:A I *D sky130_fd_sc_hd__buf_1
*CAP
1 x[23] 0.00124045
2 *896:A 0
3 *19:15 0.00124045
14 x[23] 0.04982
*RES
1 x[23] *19:15 44.8859 
2 *19:15 *896:A 9.3 
*END

*D_NET *20 0.0583964
*CONN
*P x[24] I
*I *897:A I *D sky130_fd_sc_hd__buf_1
*CAP
1 x[24] 0.00137389
2 *897:A 0
3 *20:17 0.00137389
11 x[24] 0.0556486
*RES
1 x[24] *20:17 47.7251 
2 *20:17 *897:A 13.8 
*END

*D_NET *21 0.0388321
*CONN
*P x[25] I
*I *898:A I *D sky130_fd_sc_hd__buf_1
*CAP
1 x[25] 0.00286789
2 *898:A 0.00286789
15 x[25] 0.0330963
*RES
1 x[25] *898:A 35.021 
*END

*D_NET *22 0.0370248
*CONN
*P x[26] I
*I *899:A I *D sky130_fd_sc_hd__buf_1
*CAP
1 x[26] 0.000916035
2 *899:A 0.000916035
8 x[26] 0.0351928
*RES
1 x[26] *899:A 37.753 
*END

*D_NET *23 0.0182298
*CONN
*P x[27] I
*I *900:A I *D sky130_fd_sc_hd__buf_1
*CAP
1 x[27] 0.00200455
2 *900:A 0.00200455
10 x[27] 0.0142207
*RES
1 x[27] *900:A 43.1392 
*END

*D_NET *24 0.0372608
*CONN
*P x[28] I
*I *901:A I *D sky130_fd_sc_hd__buf_1
*CAP
1 x[28] 0.000516674
2 *901:A 0.000516674
18 x[28] 0.0362275
*RES
1 x[28] *901:A 33.5687 
*END

*D_NET *25 0.0110518
*CONN
*P x[29] I
*I *902:A I *D sky130_fd_sc_hd__buf_1
*CAP
1 x[29] 0.00145779
2 *902:A 0.00145779
17 x[29] 0.00813623
*RES
1 x[29] *902:A 25.2537 
*END

*D_NET *26 0.0427064
*CONN
*P x[2] I
*I *903:A I *D sky130_fd_sc_hd__buf_1
*CAP
1 x[2] 0.00403613
2 *903:A 0.00403613
9 x[2] 0.0346342
*RES
1 x[2] *903:A 47.1177 
*END

*D_NET *27 0.0825566
*CONN
*P x[30] I
*I *904:A I *D sky130_fd_sc_hd__buf_1
*CAP
1 x[30] 0.000865319
2 *904:A 0.00272902
3 *27:11 0.00359434
13 x[30] 0.0753679
*RES
1 x[30] *27:11 30.1511 
2 *27:11 *904:A 45.3924 
*END

*D_NET *28 0.0789624
*CONN
*P x[31] I
*I *905:A I *D sky130_fd_sc_hd__buf_1
*CAP
1 x[31] 0.000404327
2 *905:A 0.000616227
3 *28:11 0.00102055
19 x[31] 0.0769213
*RES
1 x[31] *28:11 33.1447 
2 *28:11 *905:A 27.8245 
*END

*D_NET *29 0.00768277
*CONN
*P x[3] I
*I *906:A I *D sky130_fd_sc_hd__buf_1
*CAP
1 x[3] 0.00155406
2 *906:A 0.00155406
14 x[3] 0.00457465
*RES
1 x[3] *906:A 32.6162 
*END

*D_NET *30 0.0157241
*CONN
*P x[4] I
*I *907:A I *D sky130_fd_sc_hd__buf_1
*CAP
1 x[4] 0.00126632
2 *907:A 0.00126632
10 x[4] 0.0131914
*RES
1 x[4] *907:A 42.8589 
*END

*D_NET *31 0.0208405
*CONN
*P x[5] I
*I *908:A I *D sky130_fd_sc_hd__buf_1
*CAP
1 x[5] 0.000905688
2 *908:A 0.000905688
16 x[5] 0.0190291
*RES
1 x[5] *908:A 25.6228 
*END

*D_NET *32 0.0372034
*CONN
*P x[6] I
*I *909:A I *D sky130_fd_sc_hd__buf_1
*CAP
1 x[6] 0.00178392
2 *909:A 0.00178392
13 x[6] 0.0336356
*RES
1 x[6] *909:A 40.5263 
*END

*D_NET *33 0.0190172
*CONN
*P x[7] I
*I *910:A I *D sky130_fd_sc_hd__buf_1
*CAP
1 x[7] 0.00220623
2 *910:A 0
3 *33:27 0.00220623
20 x[7] 0.0146047
*RES
1 x[7] *33:27 45.158 
2 *33:27 *910:A 9.3 
*END

*D_NET *34 0.0303868
*CONN
*P x[8] I
*I *911:A I *D sky130_fd_sc_hd__buf_1
*CAP
1 x[8] 0.00308455
2 *911:A 0.00308455
15 x[8] 0.0242177
*RES
1 x[8] *911:A 35.0152 
*END

*D_NET *35 0.046758
*CONN
*P x[9] I
*I *912:A I *D sky130_fd_sc_hd__buf_1
*CAP
1 x[9] 0.00217677
2 *912:A 0
3 *35:23 0.00217677
20 x[9] 0.0424044
*RES
1 x[9] *35:23 46.2025 
2 *35:23 *912:A 9.3 
*END

*D_NET *36 0.0709726
*CONN
*P y I
*I *913:A I *D sky130_fd_sc_hd__buf_1
*CAP
1 y 0.0010103
2 *913:A 0.000156747
3 *36:15 0.00116705
13 y 0.0686385
*RES
1 y *36:15 48.7732 
2 *36:15 *913:A 15.7661 
*END

*D_NET *369 0.21124
*CONN
*I *617:A1 I *D sky130_fd_sc_hd__a21oi_1
*I *598:A I *D sky130_fd_sc_hd__and3_1
*I *706:A1 I *D sky130_fd_sc_hd__a22oi_1
*I *716:A I *D sky130_fd_sc_hd__nand2_1
*I *683:A1 I *D sky130_fd_sc_hd__a22oi_1
*I *601:A1 I *D sky130_fd_sc_hd__a21oi_1
*I *602:A I *D sky130_fd_sc_hd__and3_1
*I *807:A1 I *D sky130_fd_sc_hd__a21oi_1
*I *804:A I *D sky130_fd_sc_hd__and3_1
*I *668:A1 I *D sky130_fd_sc_hd__a22oi_1
*I *710:A I *D sky130_fd_sc_hd__nand2_1
*I *671:A1 I *D sky130_fd_sc_hd__a22oi_1
*I *692:A I *D sky130_fd_sc_hd__and3_1
*I *693:A1 I *D sky130_fd_sc_hd__a21oi_1
*I *722:A I *D sky130_fd_sc_hd__nand2_1
*I *751:A1 I *D sky130_fd_sc_hd__a21oi_1
*I *740:A I *D sky130_fd_sc_hd__nand2_1
*I *920:A I *D sky130_fd_sc_hd__buf_4
*I *653:A1 I *D sky130_fd_sc_hd__a22oi_1
*I *784:A I *D sky130_fd_sc_hd__and3_1
*I *783:A1 I *D sky130_fd_sc_hd__a21oi_1
*I *734:A I *D sky130_fd_sc_hd__nand2_1
*I *618:A I *D sky130_fd_sc_hd__and3_1
*I *779:A1 I *D sky130_fd_sc_hd__a21oi_1
*I *650:A1 I *D sky130_fd_sc_hd__a22oi_1
*I *780:A I *D sky130_fd_sc_hd__and3_1
*I *763:A1 I *D sky130_fd_sc_hd__a21oi_1
*I *764:A I *D sky130_fd_sc_hd__and3_1
*I *638:A1 I *D sky130_fd_sc_hd__a22oi_1
*I *629:A1 I *D sky130_fd_sc_hd__a22oi_1
*I *752:A I *D sky130_fd_sc_hd__and3_1
*I *803:A1 I *D sky130_fd_sc_hd__a21oi_1
*I *674:A1 I *D sky130_fd_sc_hd__a22oi_1
*I *586:A I *D sky130_fd_sc_hd__and3_1
*I *593:A1 I *D sky130_fd_sc_hd__a21oi_1
*I *680:A1 I *D sky130_fd_sc_hd__a22oi_1
*I *597:A1 I *D sky130_fd_sc_hd__a21oi_1
*I *728:A I *D sky130_fd_sc_hd__nand2_1
*I *594:A I *D sky130_fd_sc_hd__and3_1
*I *677:A1 I *D sky130_fd_sc_hd__a22oi_1
*I *589:A1 I *D sky130_fd_sc_hd__a21oi_1
*I *590:A I *D sky130_fd_sc_hd__and3_1
*I *840:Q O *D sky130_fd_sc_hd__dfxtp_4
*CAP
1 *617:A1 0.000190481
2 *598:A 1.54418e-05
3 *706:A1 6.75067e-05
4 *716:A 0
5 *683:A1 0
6 *601:A1 0.000236878
7 *602:A 4.15829e-05
8 *807:A1 0.000426506
9 *804:A 0
10 *668:A1 0.000121156
11 *710:A 0
12 *671:A1 0.000233979
13 *692:A 0.000180122
14 *693:A1 0
15 *722:A 2.27317e-05
16 *751:A1 0
17 *740:A 4.07145e-05
18 *920:A 0.00038101
19 *653:A1 0
20 *784:A 0
21 *783:A1 0
22 *734:A 0.000161483
23 *618:A 2.34111e-05
24 *779:A1 1.54005e-05
25 *650:A1 0
26 *780:A 2.42813e-05
27 *763:A1 0.000192131
28 *764:A 0
29 *638:A1 9.42623e-05
30 *629:A1 0.000168059
31 *752:A 0
32 *803:A1 0
33 *674:A1 2.97911e-05
34 *586:A 0.000598488
35 *593:A1 0
36 *680:A1 0.000239264
37 *597:A1 1.58663e-05
38 *728:A 0.000254224
39 *594:A 0
40 *677:A1 0
41 *589:A1 0
42 *590:A 0.000574542
43 *840:Q 0.000328861
44 *369:390 0.000363994
45 *369:388 0.000440122
46 *369:386 0.000195226
47 *369:316 0.00066998
48 *369:303 0.00119553
49 *369:299 0.000956163
50 *369:295 0.000555206
51 *369:282 0.000458486
52 *369:273 0.000332974
53 *369:258 0.00221814
54 *369:243 0.00293486
55 *369:234 0.000701431
56 *369:232 0.000426596
57 *369:219 0.000272009
58 *369:204 0.000328739
59 *369:202 0.00030728
60 *369:193 0.000588303
61 *369:187 0.000503131
62 *369:185 0.000252727
63 *369:181 0.000549637
64 *369:173 0.000433318
65 *369:171 9.8539e-05
66 *369:162 0.000574268
67 *369:158 0.000140864
68 *369:154 0.000495082
69 *369:128 0.00140775
70 *369:122 0.00111391
71 *369:112 0.000275013
72 *369:106 0.000238589
73 *369:100 0.000221109
74 *369:96 0.000151624
75 *369:92 0.000296226
76 *369:74 0.000578404
77 *369:61 0.000355006
78 *369:59 0.000172845
79 *369:43 0.000270506
80 *369:36 0.000271442
81 *369:14 0.00062934
82 *369:10 0.0003959
83 *369:8 0.000541753
311 *617:A1 0.18365
*RES
1 *840:Q *369:8 15.1709 
2 *369:8 *369:10 2.886 
3 *369:10 *369:14 7.99928 
4 *369:14 *590:A 13.3224 
5 *369:14 *589:A1 9.3 
6 *369:10 *369:36 7.5303 
7 *369:36 *677:A1 9.3 
8 *369:36 *369:43 1.37085 
9 *369:43 *594:A 9.3 
10 *369:43 *728:A 12.7632 
11 *369:8 *369:59 2.27273 
12 *369:59 *369:61 4.5 
13 *369:61 *597:A1 10.256 
14 *369:61 *369:74 3.58947 
15 *369:74 *680:A1 23.0258 
16 *369:74 *593:A1 9.3 
17 *369:59 *369:92 1.1995 
18 *369:92 *369:96 3.89424 
19 *369:96 *369:100 3.82145 
20 *369:100 *369:106 1.65945 
21 *369:106 *369:112 11.1378 
22 *369:112 *369:122 12.4633 
23 *369:122 *369:128 11.5797 
24 *369:128 *586:A 23.5489 
25 *369:128 *674:A1 9.7329 
26 *369:122 *369:154 3.95924 
27 *369:154 *369:158 8.36003 
28 *369:158 *369:162 2.21862 
29 *369:162 *803:A1 9.3 
30 *369:162 *369:171 3.4632 
31 *369:171 *369:173 0.541126 
32 *369:173 *369:181 11.1558 
33 *369:181 *369:185 5.45599 
34 *369:185 *369:187 1.78571 
35 *369:187 *369:193 9.78499 
36 *369:193 *752:A 13.8 
37 *369:193 *369:202 4.72583 
38 *369:202 *369:204 0.4329 
39 *369:204 *629:A1 15.712 
40 *369:204 *369:219 2.81385 
41 *369:219 *638:A1 15.1889 
42 *369:219 *369:232 2.886 
43 *369:232 *369:234 4.5 
44 *369:234 *764:A 9.3 
45 *369:234 *369:243 3.04834 
46 *369:243 *763:A1 19.8873 
47 *369:243 *369:258 8.42352 
48 *369:258 *780:A 9.7329 
49 *369:258 *369:273 10.8939 
50 *369:273 *650:A1 9.3 
51 *369:273 *369:282 2.94012 
52 *369:282 *779:A1 9.7329 
53 *369:282 *369:295 5.03247 
54 *369:295 *369:299 4.70779 
55 *369:299 *369:303 3.04834 
56 *369:303 *618:A 19.6528 
57 *369:303 *369:316 2.20058 
58 *369:316 *734:A 25.3707 
59 *369:316 *783:A1 9.3 
60 *369:299 *784:A 9.3 
61 *369:295 *653:A1 9.3 
62 *369:232 *920:A 26.8772 
63 *369:202 *740:A 14.8823 
64 *369:187 *751:A1 9.3 
65 *369:185 *722:A 9.7329 
66 *369:181 *369:386 9.76696 
67 *369:386 *369:388 0.4329 
68 *369:388 *369:390 1.78571 
69 *369:390 *693:A1 9.3 
70 *369:390 *692:A 13.1961 
71 *369:388 *671:A1 11.5006 
72 *369:386 *710:A 9.3 
73 *369:173 *668:A1 23.9818 
74 *369:171 *804:A 9.3 
75 *369:162 *807:A1 24.09 
76 *369:158 *602:A 20.9154 
77 *369:154 *601:A1 15.6939 
78 *369:112 *683:A1 9.3 
79 *369:106 *716:A 13.8 
80 *369:100 *706:A1 15.6038 
81 *369:96 *598:A 17.7962 
82 *369:92 *617:A1 19.5991 
*END
