*SPEF "ieee 1481-1999"
*DESIGN "spm"
*DATE "01:49:46 Friday July 24, 2026"
*VENDOR "The OpenROAD Project"
*PROGRAM "OpenROAD"
*VERSION "26Q3-155-g1bade74e72"
*DESIGN_FLOW "NAME_SCOPE LOCAL" "PIN_CAP NONE"
*DIVIDER /
*DELIMITER :
*BUS_DELIMITER []
*T_UNIT 1 NS
*C_UNIT 1 PF
*R_UNIT 1 OHM
*L_UNIT 1 HENRY

*NAME_MAP
*39 _000_
*40 _001_
*41 _002_
*42 _003_
*43 _004_
*44 _005_
*45 _006_
*46 _007_
*47 _008_
*48 _009_
*49 _010_
*50 _011_
*51 _012_
*52 _013_
*53 _014_
*54 _015_
*55 _016_
*56 _017_
*57 _018_
*58 _019_
*59 _020_
*60 _021_
*61 _022_
*62 _023_
*63 _024_
*64 _025_
*65 _026_
*66 _027_
*67 _028_
*68 _029_
*69 _030_
*70 _031_
*71 _032_
*72 _033_
*73 _034_
*74 _035_
*75 _036_
*76 _037_
*77 _038_
*78 _039_
*79 _040_
*80 _041_
*81 _042_
*82 _043_
*83 _044_
*84 _045_
*85 _046_
*86 _047_
*87 _048_
*88 _049_
*89 _050_
*90 _051_
*91 _052_
*92 _053_
*93 _054_
*94 _055_
*95 _056_
*96 _057_
*97 _058_
*98 _059_
*99 _060_
*100 _061_
*101 _062_
*102 _063_
*103 _064_
*104 _065_
*105 _066_
*106 _067_
*107 _068_
*108 _069_
*109 _070_
*110 _071_
*111 _072_
*112 _073_
*113 _074_
*114 _075_
*115 _076_
*116 _077_
*117 _078_
*118 _079_
*119 _080_
*120 _081_
*121 _082_
*122 _083_
*123 _084_
*124 _085_
*125 _086_
*126 _087_
*127 _088_
*128 _089_
*129 _090_
*130 _091_
*131 _092_
*132 _093_
*133 _094_
*134 _095_
*135 _096_
*136 _097_
*137 _098_
*138 _099_
*139 _100_
*140 _101_
*141 _102_
*142 _103_
*143 _104_
*144 _105_
*145 _106_
*146 _107_
*147 _108_
*148 _109_
*149 _110_
*150 _111_
*151 _112_
*152 _113_
*153 _114_
*154 _115_
*155 _116_
*156 _117_
*157 _118_
*158 _119_
*159 _120_
*160 _121_
*161 _122_
*162 _123_
*163 _124_
*164 _125_
*165 _126_
*166 _127_
*167 _128_
*168 _129_
*169 _130_
*170 _131_
*171 _132_
*172 _133_
*173 _134_
*174 _135_
*175 _136_
*176 _137_
*177 _138_
*178 _139_
*179 _140_
*180 _141_
*181 _142_
*182 _143_
*183 _144_
*184 _145_
*185 _146_
*186 _147_
*187 _148_
*188 _149_
*189 _150_
*190 _151_
*191 _152_
*192 _153_
*193 _154_
*194 _155_
*195 _156_
*196 _157_
*197 _158_
*198 _159_
*199 _160_
*200 _161_
*201 _162_
*202 _163_
*203 _164_
*204 _165_
*205 _166_
*206 _167_
*207 _168_
*208 _169_
*209 _170_
*210 _171_
*211 _172_
*212 _173_
*213 _174_
*214 _175_
*215 _176_
*216 _177_
*217 _178_
*218 _179_
*219 _180_
*220 _181_
*221 _182_
*222 _183_
*223 _184_
*224 _185_
*225 _186_
*226 _187_
*227 _188_
*228 _189_
*229 _190_
*230 _191_
*231 _192_
*232 _193_
*233 _194_
*234 _195_
*235 _196_
*236 _197_
*237 _198_
*238 _199_
*239 _200_
*240 _201_
*241 _202_
*242 _203_
*243 _204_
*244 _205_
*245 _206_
*246 _207_
*247 _208_
*248 _209_
*249 _210_
*250 _211_
*251 _212_
*252 _213_
*253 _214_
*254 _215_
*255 _216_
*256 _217_
*257 _218_
*258 _219_
*259 _220_
*260 _221_
*261 c[0]
*262 c[10]
*263 c[11]
*264 c[12]
*265 c[13]
*266 c[14]
*267 c[15]
*268 c[16]
*269 c[17]
*270 c[18]
*271 c[19]
*272 c[1]
*273 c[20]
*274 c[21]
*275 c[22]
*276 c[23]
*277 c[24]
*278 c[25]
*279 c[26]
*280 c[27]
*281 c[28]
*282 c[29]
*283 c[2]
*284 c[30]
*285 c[31]
*286 c[3]
*287 c[4]
*288 c[5]
*289 c[6]
*290 c[7]
*291 c[8]
*292 c[9]
*1 clk
*293 clknet_0_clk
*294 clknet_3_0__leaf_clk
*295 clknet_3_1__leaf_clk
*296 clknet_3_2__leaf_clk
*297 clknet_3_3__leaf_clk
*298 clknet_3_4__leaf_clk
*299 clknet_3_5__leaf_clk
*300 clknet_3_6__leaf_clk
*301 clknet_3_7__leaf_clk
*302 net10
*303 net11
*304 net12
*305 net13
*306 net14
*307 net15
*308 net16
*309 net17
*310 net18
*311 net19
*312 net20
*313 net21
*314 net22
*315 net23
*316 net24
*317 net25
*318 net26
*319 net27
*320 net28
*321 net29
*322 net3
*323 net30
*324 net31
*325 net32
*326 net33
*327 net34
*328 net35
*329 net36
*330 net37
*331 net4
*332 net5
*333 net6
*334 net7
*335 net8
*336 net9
*2 p_reg
*3 rst
*337 s[0]
*338 s[10]
*339 s[11]
*340 s[12]
*341 s[13]
*342 s[14]
*343 s[15]
*344 s[16]
*345 s[17]
*346 s[18]
*347 s[19]
*348 s[1]
*349 s[20]
*350 s[21]
*351 s[22]
*352 s[23]
*353 s[24]
*354 s[25]
*355 s[26]
*356 s[27]
*357 s[28]
*358 s[29]
*359 s[2]
*360 s[30]
*361 s[3]
*362 s[4]
*363 s[5]
*364 s[6]
*365 s[7]
*366 s[8]
*367 s[9]
*368 spare_tielo
*4 x[0]
*5 x[10]
*6 x[11]
*7 x[12]
*8 x[13]
*9 x[14]
*10 x[15]
*11 x[16]
*12 x[17]
*13 x[18]
*14 x[19]
*15 x[1]
*16 x[20]
*17 x[21]
*18 x[22]
*19 x[23]
*20 x[24]
*21 x[25]
*22 x[26]
*23 x[27]
*24 x[28]
*25 x[29]
*26 x[2]
*27 x[30]
*28 x[31]
*29 x[3]
*30 x[4]
*31 x[5]
*32 x[6]
*33 x[7]
*34 x[8]
*35 x[9]
*36 y
*369 y_rep[0]
*370 FILLER_0_121
*371 FILLER_0_126
*372 FILLER_0_13
*373 FILLER_0_31
*374 FILLER_0_42
*375 FILLER_0_61
*376 FILLER_10_117
*377 FILLER_10_134
*378 FILLER_10_16
*379 FILLER_10_27
*380 FILLER_10_31
*381 FILLER_10_35
*382 FILLER_10_60
*383 FILLER_11_0
*384 FILLER_11_134
*385 FILLER_11_97
*386 FILLER_12_0
*387 FILLER_12_112
*388 FILLER_12_35
*389 FILLER_12_56
*390 FILLER_12_62
*391 FILLER_12_91
*392 FILLER_13_0
*393 FILLER_13_128
*394 FILLER_13_15
*395 FILLER_13_67
*396 FILLER_13_73
*397 FILLER_13_84
*398 FILLER_13_98
*399 FILLER_14_111
*400 FILLER_14_28
*401 FILLER_14_51
*402 FILLER_14_68
*403 FILLER_14_74
*404 FILLER_14_81
*405 FILLER_14_89
*406 FILLER_14_91
*407 FILLER_14_97
*408 FILLER_15_0
*409 FILLER_15_109
*410 FILLER_15_19
*411 FILLER_15_26
*412 FILLER_15_33
*413 FILLER_15_51
*414 FILLER_15_55
*415 FILLER_15_61
*416 FILLER_15_7
*417 FILLER_15_70
*418 FILLER_15_84
*419 FILLER_16_110
*420 FILLER_16_16
*421 FILLER_16_23
*422 FILLER_16_35
*423 FILLER_16_45
*424 FILLER_16_55
*425 FILLER_16_72
*426 FILLER_16_84
*427 FILLER_16_91
*428 FILLER_16_99
*429 FILLER_17_16
*430 FILLER_17_28
*431 FILLER_17_36
*432 FILLER_17_48
*433 FILLER_17_54
*434 FILLER_17_61
*435 FILLER_18_0
*436 FILLER_18_100
*437 FILLER_18_27
*438 FILLER_18_72
*439 FILLER_18_78
*440 FILLER_18_8
*441 FILLER_19_134
*442 FILLER_19_16
*443 FILLER_19_37
*444 FILLER_19_45
*445 FILLER_19_53
*446 FILLER_19_57
*447 FILLER_19_61
*448 FILLER_19_67
*449 FILLER_1_135
*450 FILLER_1_19
*451 FILLER_1_46
*452 FILLER_1_59
*453 FILLER_1_61
*454 FILLER_1_79
*455 FILLER_20_113
*456 FILLER_20_23
*457 FILLER_20_31
*458 FILLER_20_44
*459 FILLER_20_70
*460 FILLER_20_87
*461 FILLER_21_0
*462 FILLER_21_131
*463 FILLER_21_31
*464 FILLER_21_40
*465 FILLER_21_58
*466 FILLER_21_6
*467 FILLER_21_61
*468 FILLER_21_65
*469 FILLER_21_70
*470 FILLER_21_76
*471 FILLER_21_81
*472 FILLER_21_89
*473 FILLER_21_91
*474 FILLER_21_95
*475 FILLER_2_0
*476 FILLER_2_11
*477 FILLER_2_66
*478 FILLER_3_0
*479 FILLER_3_100
*480 FILLER_3_118
*481 FILLER_3_12
*482 FILLER_3_121
*483 FILLER_3_47
*484 FILLER_3_57
*485 FILLER_3_61
*486 FILLER_3_67
*487 FILLER_3_72
*488 FILLER_4_102
*489 FILLER_4_125
*490 FILLER_4_16
*491 FILLER_4_28
*492 FILLER_4_31
*493 FILLER_4_48
*494 FILLER_4_79
*495 FILLER_4_91
*496 FILLER_5_100
*497 FILLER_5_118
*498 FILLER_5_121
*499 FILLER_5_134
*500 FILLER_5_16
*501 FILLER_5_59
*502 FILLER_5_69
*503 FILLER_5_81
*504 FILLER_6_107
*505 FILLER_6_13
*506 FILLER_6_31
*507 FILLER_6_51
*508 FILLER_6_77
*509 FILLER_7_0
*510 FILLER_7_118
*511 FILLER_7_12
*512 FILLER_7_121
*513 FILLER_7_132
*514 FILLER_7_18
*515 FILLER_7_41
*516 FILLER_7_45
*517 FILLER_7_53
*518 FILLER_7_57
*519 FILLER_7_61
*520 FILLER_7_76
*521 FILLER_8_0
*522 FILLER_8_13
*523 FILLER_8_17
*524 FILLER_8_28
*525 FILLER_8_37
*526 FILLER_8_47
*527 FILLER_8_54
*528 FILLER_8_69
*529 FILLER_8_78
*530 FILLER_8_82
*531 FILLER_8_91
*532 FILLER_9_0
*533 FILLER_9_119
*534 FILLER_9_22
*535 FILLER_9_43
*536 FILLER_9_58
*537 FILLER_9_77
*538 TAP_TAPCELL_ROW_0_0
*539 TAP_TAPCELL_ROW_0_1
*540 TAP_TAPCELL_ROW_0_2
*541 TAP_TAPCELL_ROW_0_3
*542 TAP_TAPCELL_ROW_10_22
*543 TAP_TAPCELL_ROW_10_23
*544 TAP_TAPCELL_ROW_11_24
*545 TAP_TAPCELL_ROW_11_25
*546 TAP_TAPCELL_ROW_12_26
*547 TAP_TAPCELL_ROW_12_27
*548 TAP_TAPCELL_ROW_13_28
*549 TAP_TAPCELL_ROW_13_29
*550 TAP_TAPCELL_ROW_14_30
*551 TAP_TAPCELL_ROW_14_31
*552 TAP_TAPCELL_ROW_15_32
*553 TAP_TAPCELL_ROW_15_33
*554 TAP_TAPCELL_ROW_16_34
*555 TAP_TAPCELL_ROW_16_35
*556 TAP_TAPCELL_ROW_17_36
*557 TAP_TAPCELL_ROW_17_37
*558 TAP_TAPCELL_ROW_18_38
*559 TAP_TAPCELL_ROW_18_39
*560 TAP_TAPCELL_ROW_19_40
*561 TAP_TAPCELL_ROW_19_41
*562 TAP_TAPCELL_ROW_1_4
*563 TAP_TAPCELL_ROW_1_5
*564 TAP_TAPCELL_ROW_20_42
*565 TAP_TAPCELL_ROW_20_43
*566 TAP_TAPCELL_ROW_21_44
*567 TAP_TAPCELL_ROW_21_45
*568 TAP_TAPCELL_ROW_21_46
*569 TAP_TAPCELL_ROW_21_47
*570 TAP_TAPCELL_ROW_2_6
*571 TAP_TAPCELL_ROW_2_7
*572 TAP_TAPCELL_ROW_3_8
*573 TAP_TAPCELL_ROW_3_9
*574 TAP_TAPCELL_ROW_4_10
*575 TAP_TAPCELL_ROW_4_11
*576 TAP_TAPCELL_ROW_5_12
*577 TAP_TAPCELL_ROW_5_13
*578 TAP_TAPCELL_ROW_6_14
*579 TAP_TAPCELL_ROW_6_15
*580 TAP_TAPCELL_ROW_7_16
*581 TAP_TAPCELL_ROW_7_17
*582 TAP_TAPCELL_ROW_8_18
*583 TAP_TAPCELL_ROW_8_19
*584 TAP_TAPCELL_ROW_9_20
*585 TAP_TAPCELL_ROW_9_21
*586 _222_
*587 _223_
*588 _224_
*589 _225_
*590 _226_
*591 _227_
*592 _228_
*593 _229_
*594 _230_
*595 _231_
*596 _232_
*597 _233_
*598 _234_
*599 _235_
*600 _236_
*601 _237_
*602 _238_
*603 _239_
*604 _240_
*605 _241_
*606 _242_
*607 _243_
*608 _244_
*609 _245_
*610 _246_
*611 _247_
*612 _248_
*613 _249_
*614 _250_
*615 _251_
*616 _252_
*617 _253_
*618 _254_
*619 _255_
*620 _256_
*621 _257_
*622 _258_
*623 _259_
*624 _260_
*625 _261_
*626 _262_
*627 _263_
*628 _264_
*629 _265_
*630 _266_
*631 _267_
*632 _268_
*633 _269_
*634 _270_
*635 _271_
*636 _272_
*637 _273_
*638 _274_
*639 _275_
*640 _276_
*641 _277_
*642 _278_
*643 _279_
*644 _280_
*645 _281_
*646 _282_
*647 _283_
*648 _284_
*649 _285_
*650 _286_
*651 _287_
*652 _288_
*653 _289_
*654 _290_
*655 _291_
*656 _292_
*657 _293_
*658 _294_
*659 _295_
*660 _296_
*661 _297_
*662 _298_
*663 _299_
*664 _300_
*665 _301_
*666 _302_
*667 _303_
*668 _304_
*669 _305_
*670 _306_
*671 _307_
*672 _308_
*673 _309_
*674 _310_
*675 _311_
*676 _312_
*677 _313_
*678 _314_
*679 _315_
*680 _316_
*681 _317_
*682 _318_
*683 _319_
*684 _320_
*685 _321_
*686 _322_
*687 _323_
*688 _324_
*689 _325_
*690 _326_
*691 _327_
*692 _328_
*693 _329_
*694 _330_
*695 _331_
*696 _332_
*697 _333_
*698 _334_
*699 _335_
*700 _336_
*701 _337_
*702 _338_
*703 _339_
*704 _340_
*705 _341_
*706 _342_
*707 _343_
*708 _344_
*709 _345_
*710 _346_
*711 _347_
*712 _348_
*713 _349_
*714 _350_
*715 _351_
*716 _352_
*717 _353_
*718 _354_
*719 _355_
*720 _356_
*721 _357_
*722 _358_
*723 _359_
*724 _360_
*725 _361_
*726 _362_
*727 _363_
*728 _364_
*729 _365_
*730 _366_
*731 _367_
*732 _368_
*733 _369_
*734 _370_
*735 _371_
*736 _372_
*737 _373_
*738 _374_
*739 _375_
*740 _376_
*741 _377_
*742 _378_
*743 _379_
*744 _380_
*745 _381_
*746 _382_
*747 _383_
*748 _384_
*749 _385_
*750 _386_
*751 _387_
*752 _388_
*753 _389_
*754 _390_
*755 _391_
*756 _392_
*757 _393_
*758 _394_
*759 _395_
*760 _396_
*761 _397_
*762 _398_
*763 _399_
*764 _400_
*765 _401_
*766 _402_
*767 _403_
*768 _404_
*769 _405_
*770 _406_
*771 _407_
*772 _408_
*773 _409_
*774 _410_
*775 _411_
*776 _412_
*777 _413_
*778 _414_
*779 _415_
*780 _416_
*781 _417_
*782 _418_
*783 _419_
*784 _420_
*785 _421_
*786 _422_
*787 _423_
*788 _424_
*789 _425_
*790 _426_
*791 _427_
*792 _428_
*793 _429_
*794 _430_
*795 _431_
*796 _432_
*797 _433_
*798 _434_
*799 _435_
*800 _436_
*801 _437_
*802 _438_
*803 _439_
*804 _440_
*805 _441_
*806 _442_
*807 _443_
*808 _444_
*809 _445_
*810 _446_
*811 _447_
*812 _448_
*813 _449_
*814 _450_
*815 _451_
*816 _452_
*817 _453_
*818 _454_
*819 _455_
*820 _456_
*821 _457_
*822 _458_
*823 _459_
*824 _460_
*825 _461_
*826 _462_
*827 _463_
*828 _464_
*829 _465_
*830 _466_
*831 _467_
*832 _468_
*833 _469_
*834 _470_
*835 _471_
*836 _472_
*837 _473_
*838 _474_
*839 _475_
*840 _476_
*841 _477_
*842 _478_
*843 _479_
*844 _480_
*845 _481_
*846 _482_
*847 _483_
*848 _484_
*849 _485_
*850 _486_
*851 _487_
*852 _488_
*853 _489_
*854 _490_
*855 _491_
*856 _492_
*857 _493_
*858 _494_
*859 _495_
*860 _496_
*861 _497_
*862 _498_
*863 _499_
*864 _500_
*865 _501_
*866 _502_
*867 _503_
*868 _504_
*869 _505_
*870 _506_
*871 _507_
*872 _508_
*873 clkbuf_0_clk
*874 clkbuf_3_0__f_clk
*875 clkbuf_3_1__f_clk
*876 clkbuf_3_2__f_clk
*877 clkbuf_3_3__f_clk
*878 clkbuf_3_4__f_clk
*879 clkbuf_3_5__f_clk
*880 clkbuf_3_6__f_clk
*881 clkbuf_3_7__f_clk
*882 clkload0
*883 clkload1
*884 clkload2
*885 clkload3
*886 input10
*887 input11
*888 input12
*889 input13
*890 input14
*891 input15
*892 input16
*893 input17
*894 input18
*895 input19
*896 input20
*897 input21
*898 input22
*899 input23
*900 input24
*901 input25
*902 input26
*903 input27
*904 input28
*905 input29
*906 input30
*907 input31
*908 input32
*909 input33
*910 input34
*911 input35
*912 input36
*913 input37
*914 input4
*915 input5
*916 input6
*917 input7
*918 input8
*919 input9
*920 place3
*921 spare_aoi_0
*922 spare_dff_0
*923 spare_inverter_0
*924 spare_mux2_0
*925 spare_nand2_0
*926 spare_nor2_0
*927 spare_tielo_drv

*PORTS
clk I
p O
rst I
x[0] I
x[10] I
x[11] I
x[12] I
x[13] I
x[14] I
x[15] I
x[16] I
x[17] I
x[18] I
x[19] I
x[1] I
x[20] I
x[21] I
x[22] I
x[23] I
x[24] I
x[25] I
x[26] I
x[27] I
x[28] I
x[29] I
x[2] I
x[30] I
x[31] I
x[3] I
x[4] I
x[5] I
x[6] I
x[7] I
x[8] I
x[9] I
y I

*D_NET *39 0.00573204
*CONN
*I *865:D I *D sky130_fd_sc_hd__dfxtp_1
*I *628:Y O *D sky130_fd_sc_hd__nor3_1
*CAP
1 *865:D 0.00261262
2 *628:Y 0.00261262
3 *865:D *637:A 0.000506804
*RES
1 *628:Y *865:D 27.0374 
*END

*D_NET *40 0.00204353
*CONN
*I *864:D I *D sky130_fd_sc_hd__dfxtp_1
*I *631:Y O *D sky130_fd_sc_hd__nor3_1
*CAP
1 *864:D 0.000486653
2 *631:Y 0.000486653
3 *864:D *631:B 0.000760142
4 *864:D *864:CLK 0
5 *864:D *331:589 0.000310082
*RES
1 *631:Y *864:D 31.769 
*END

*D_NET *41 0.00131084
*CONN
*I *863:D I *D sky130_fd_sc_hd__dfxtp_1
*I *634:Y O *D sky130_fd_sc_hd__nor3_1
*CAP
1 *863:D 0.000452959
2 *634:Y 0.000452959
3 *863:D *634:A 0.000380998
4 *863:D *634:B 1.74694e-05
5 *863:D *634:C 6.45024e-06
*RES
1 *634:Y *863:D 30.3462 
*END

*D_NET *42 0.00206576
*CONN
*I *862:D I *D sky130_fd_sc_hd__dfxtp_1
*I *637:Y O *D sky130_fd_sc_hd__nor3_1
*CAP
1 *862:D 0.000480512
2 *637:Y 0.000480512
3 *862:D *637:B 0.00110474
4 *862:D *299:57 0
5 *862:D *299:59 0
*RES
1 *637:Y *862:D 31.9992 
*END

*D_NET *43 0.00535535
*CONN
*I *861:D I *D sky130_fd_sc_hd__dfxtp_1
*I *640:Y O *D sky130_fd_sc_hd__nor3_1
*CAP
1 *861:D 0.000198521
2 *640:Y 0.000198521
3 *861:D *631:B 7.04018e-05
4 *861:D *631:C 0.00110474
5 *861:D *639:B 0.000240194
6 *861:D *851:CLK 0.00209901
7 *861:D *74:10 0
8 *861:D *174:24 0.000429343
9 *861:D *331:678 0.00101461
*RES
1 *640:Y *861:D 35.326 
*END

*D_NET *44 0.00147711
*CONN
*I *860:D I *D sky130_fd_sc_hd__dfxtp_1
*I *643:Y O *D sky130_fd_sc_hd__nor3_1
*CAP
1 *860:D 0.000356486
2 *643:Y 0.000356486
3 *860:D *691:A 0.0004514
4 *860:D *331:324 2.76439e-05
5 *860:D *347:12 0.000285095
*RES
1 *643:Y *860:D 30.7019 
*END

*D_NET *45 0.00390161
*CONN
*I *859:D I *D sky130_fd_sc_hd__dfxtp_1
*I *646:Y O *D sky130_fd_sc_hd__nor3_1
*CAP
1 *859:D 4.99136e-05
2 *646:Y 4.99136e-05
3 *859:D *646:B 0.00110474
4 *859:D *859:CLK 0.00132191
5 *859:D *305:38 0.000270391
6 *859:D *322:255 0.00110474
*RES
1 *646:Y *859:D 31.5179 
*END

*D_NET *46 0.0113743
*CONN
*I *858:D I *D sky130_fd_sc_hd__dfxtp_1
*I *649:Y O *D sky130_fd_sc_hd__nor3_1
*CAP
1 *858:D 0.000571257
2 *649:Y 0.000571257
3 *858:D *648:B 0
4 *858:D *649:C 0.000240194
5 *858:D *843:CLK 0.000506804
6 *858:D *269:10 0.002061
7 *858:D *299:33 0.000932441
8 *858:D *299:45 0.00649132
*RES
1 *649:Y *858:D 38.2553 
*END

*D_NET *47 0.00145611
*CONN
*I *857:D I *D sky130_fd_sc_hd__dfxtp_1
*I *652:Y O *D sky130_fd_sc_hd__nor3_1
*CAP
1 *857:D 0.00055184
2 *652:Y 0.00055184
3 *857:D *652:C 0.000167179
4 *857:D *778:B 2.8989e-05
5 *857:D *857:CLK 0.000156265
6 *857:D *338:10 0
*RES
1 *652:Y *857:D 30.7019 
*END

*D_NET *48 0.00232093
*CONN
*I *856:D I *D sky130_fd_sc_hd__dfxtp_1
*I *655:Y O *D sky130_fd_sc_hd__nor3_1
*CAP
1 *856:D 0.000258222
2 *655:Y 0.000258222
3 *856:D *655:B 0.000759635
4 *856:D *852:CLK 7.09466e-05
5 *856:D *293:124 4.0541e-05
6 *856:D *300:18 0.000933364
7 *856:D *300:63 0
*RES
1 *655:Y *856:D 30.3253 
*END

*D_NET *49 0.000973459
*CONN
*I *855:D I *D sky130_fd_sc_hd__dfxtp_1
*I *658:Y O *D sky130_fd_sc_hd__nor3_1
*CAP
1 *855:D 0.000176885
2 *658:Y 0.000176885
3 *855:D *789:C 0.000310596
4 *855:D *266:12 0.000112927
5 *855:D *302:23 0.000196166
*RES
1 *658:Y *855:D 30.1161 
*END

*D_NET *50 0.0030714
*CONN
*I *854:D I *D sky130_fd_sc_hd__dfxtp_1
*I *661:Y O *D sky130_fd_sc_hd__nor3_1
*CAP
1 *854:D 0.00036939
2 *661:Y 0.00036939
3 *854:D *661:A 0.000430747
4 *854:D *661:B 0.00101719
5 *854:D *326:10 0.000211205
6 *854:D *331:216 0.000673486
*RES
1 *661:Y *854:D 32.9617 
*END

*D_NET *51 0.00396104
*CONN
*I *853:D I *D sky130_fd_sc_hd__dfxtp_1
*I *664:Y O *D sky130_fd_sc_hd__nor3_1
*CAP
1 *853:D 0.000413347
2 *664:Y 0.000413347
3 *853:D *663:A 0.00110423
4 *853:D *664:B 0.00058683
5 *853:D *264:8 0.000167179
6 *853:D *301:14 0.000544814
7 *853:D *305:32 0.000167179
8 *853:D *305:38 0.000564107
*RES
1 *664:Y *853:D 33.9242 
*END

*D_NET *52 0.0067691
*CONN
*I *852:D I *D sky130_fd_sc_hd__dfxtp_1
*I *667:Y O *D sky130_fd_sc_hd__nor3_1
*CAP
1 *852:D 0.000968272
2 *667:Y 0.000968272
3 *852:D *667:A 0.000217333
4 *852:D *667:C 0.000184906
5 *852:D *331:290 0.00443031
*RES
1 *667:Y *852:D 25.5519 
*END

*D_NET *53 0.00375413
*CONN
*I *851:D I *D sky130_fd_sc_hd__dfxtp_1
*I *670:Y O *D sky130_fd_sc_hd__nor3_1
*CAP
1 *851:D 0.000611798
2 *670:Y 0.000611798
3 *851:D *669:A 0.000506804
4 *851:D *669:B 0.000932441
5 *851:D *753:A 0.00042352
6 *851:D *174:24 0.000667772
7 *851:D *331:538 0
*RES
1 *670:Y *851:D 35.054 
*END

*D_NET *54 0.0029964
*CONN
*I *850:D I *D sky130_fd_sc_hd__dfxtp_1
*I *673:Y O *D sky130_fd_sc_hd__nor3_1
*CAP
1 *850:D 0.000285129
2 *673:Y 0.000285129
3 *850:D *672:B 0
4 *850:D *673:B 0.00110423
5 *850:D *296:52 0.00132191
*RES
1 *673:Y *850:D 31.5179 
*END

*D_NET *55 0.00336105
*CONN
*I *849:D I *D sky130_fd_sc_hd__dfxtp_1
*I *676:Y O *D sky130_fd_sc_hd__nor3_1
*CAP
1 *849:D 0.000650677
2 *676:Y 0.000650677
3 *849:D *588:B 0.00044546
4 *849:D *291:18 0.000895354
5 *849:D *331:774 0.0004514
6 *849:D *331:780 0.000267486
*RES
1 *676:Y *849:D 31.994 
*END

*D_NET *56 0.00306598
*CONN
*I *848:D I *D sky130_fd_sc_hd__dfxtp_1
*I *679:Y O *D sky130_fd_sc_hd__nor3_1
*CAP
1 *848:D 0.000355667
2 *679:Y 0.000355667
3 *848:D *679:B 0.000760142
4 *848:D *681:B 0.000310596
5 *848:D *290:8 0.0012839
*RES
1 *679:Y *848:D 31.769 
*END

*D_NET *57 0.00477796
*CONN
*I *847:D I *D sky130_fd_sc_hd__dfxtp_1
*I *682:Y O *D sky130_fd_sc_hd__nor3_1
*CAP
1 *847:D 0.000131655
2 *682:Y 0.000131655
3 *847:D *728:B 0.000760142
4 *847:D *326:10 0.000760142
5 *16:19 *847:D 0.00209901
6 *35:19 *847:D 0.000895354
*RES
1 *682:Y *847:D 31.769 
*END

*D_NET *58 0.00462298
*CONN
*I *846:D I *D sky130_fd_sc_hd__dfxtp_1
*I *685:Y O *D sky130_fd_sc_hd__nor3_1
*CAP
1 *846:D 0.000302205
2 *685:Y 0.000302205
3 *846:D *587:A 0.000592203
4 *846:D *684:B 5.73995e-05
5 *846:D *685:C 0.0011517
6 *846:D *296:16 0.000156265
7 *846:D *317:22 0.002061
8 *846:D *369:128 0
9 *846:D *369:154 0
*RES
1 *685:Y *846:D 33.3383 
*END

*D_NET *59 0.0033574
*CONN
*I *845:D I *D sky130_fd_sc_hd__dfxtp_1
*I *688:Y O *D sky130_fd_sc_hd__nor3_1
*CAP
1 *845:D 0.00113216
2 *688:Y 0.00113216
3 *845:D *688:B 7.9476e-05
4 *845:D *688:C 0.000118254
5 *845:D *287:10 0.000895354
*RES
1 *688:Y *845:D 25.5519 
*END

*D_NET *60 0.00418122
*CONN
*I *844:D I *D sky130_fd_sc_hd__dfxtp_1
*I *691:Y O *D sky130_fd_sc_hd__nor3_1
*CAP
1 *844:D 0.00118355
2 *691:Y 0.00118355
3 *844:D *689:B1 0.000103664
4 *844:D *844:CLK 0.00171046
*RES
1 *691:Y *844:D 25.5519 
*END

*D_NET *61 0.00407804
*CONN
*I *839:D I *D sky130_fd_sc_hd__dfxtp_1
*I *694:Y O *D sky130_fd_sc_hd__nor3_1
*CAP
1 *839:D 0.000749957
2 *694:Y 0.000749957
3 *839:D *694:B 0
4 *839:D *838:D 0.00132191
5 *839:D *159:12 0.000102678
6 *839:D *360:12 0.00115354
*RES
1 *694:Y *839:D 35.8491 
*END

*D_NET *62 0.0111664
*CONN
*I *840:D I *D sky130_fd_sc_hd__dfxtp_4
*I *695:Y O *D sky130_fd_sc_hd__nor2b_1
*CAP
1 *840:D 0.00162496
2 *695:Y 0.00162496
3 *840:D *317:22 0.000551691
4 *840:D *331:107 0.00654929
5 *840:D *331:116 0.00031255
6 *840:D *363:12 7.9476e-05
7 *840:D *369:8 0.00042352
*RES
1 *695:Y *840:D 30.3381 
*END

*D_NET *63 0.00595299
*CONN
*I *808:D I *D sky130_fd_sc_hd__dfxtp_1
*I *701:Y O *D sky130_fd_sc_hd__nor2_1
*CAP
1 *808:D 0.000272303
2 *701:Y 0.000272303
3 *808:D *324:16 0.000597079
4 *891:A *808:D 0.000380998
5 *917:A *808:D 0.00443031
*RES
1 *701:Y *808:D 35.0122 
*END

*D_NET *64 0.00432335
*CONN
*I *872:D I *D sky130_fd_sc_hd__dfxtp_1
*I *702:Y O *D sky130_fd_sc_hd__nor2b_1
*CAP
1 *872:D 0.000365521
2 *702:Y 0.000365521
3 *872:D *620:B1 0
4 *872:D *620:C1 0.00248756
5 *872:D *702:A 0.00110474
*RES
1 *702:Y *872:D 32.9617 
*END

*D_NET *65 0.00116312
*CONN
*I *843:D I *D sky130_fd_sc_hd__dfxtp_1
*I *705:Y O *D sky130_fd_sc_hd__nor3_1
*CAP
1 *843:D 0.000446363
2 *705:Y 0.000446363
3 *843:D *269:21 0
4 *843:D *283:10 0
5 *843:D *310:42 0.000270391
*RES
1 *705:Y *843:D 31.5179 
*END

*D_NET *66 0.00609619
*CONN
*I *842:D I *D sky130_fd_sc_hd__dfxtp_1
*I *708:Y O *D sky130_fd_sc_hd__nor3_1
*CAP
1 *842:D 0.000192187
2 *708:Y 0.000192187
3 *842:D *708:B 0.000760142
4 *842:D *708:C 0.00193008
5 *842:D *297:14 0.00115298
6 *842:D *297:18 0.00167245
7 *842:D *309:18 0.000196166
*RES
1 *708:Y *842:D 32.5223 
*END

*D_NET *67 0.00216915
*CONN
*I *841:D I *D sky130_fd_sc_hd__dfxtp_1
*I *709:Y O *D sky130_fd_sc_hd__a211oi_1
*CAP
1 *841:D 0.00012651
2 *709:Y 0.00012651
3 *841:D *709:A1 0.000895354
4 *841:D *709:A2 0.00102077
*RES
1 *709:Y *841:D 20.5093 
*END

*D_NET *68 0.0107617
*CONN
*I *838:D I *D sky130_fd_sc_hd__dfxtp_1
*I *715:Y O *D sky130_fd_sc_hd__nor2_1
*CAP
1 *838:D 0.00249219
2 *715:Y 0.00249219
3 *838:D *620:A1 0
4 *838:D *715:B 0
5 *838:D *838:CLK 0.00365321
6 *838:D *839:CLK 0.00029535
7 *838:D *360:12 0.000506804
8 *839:D *838:D 0.00132191
*RES
1 *715:Y *838:D 43.4235 
*END

*D_NET *69 0.00577921
*CONN
*I *837:D I *D sky130_fd_sc_hd__dfxtp_1
*I *721:Y O *D sky130_fd_sc_hd__nor2_1
*CAP
1 *837:D 0.00155856
2 *721:Y 0.00155856
3 *837:D *622:C1 0
4 *837:D *721:B 0.00195564
5 *837:D *726:B 0
6 *837:D *837:CLK 0.000270391
7 *837:D *838:CLK 0
8 *837:D *331:601 0
9 *837:D *357:6 0.000436059
*RES
1 *721:Y *837:D 40.6825 
*END

*D_NET *70 0.000510047
*CONN
*I *836:D I *D sky130_fd_sc_hd__dfxtp_1
*I *727:Y O *D sky130_fd_sc_hd__nor2_1
*CAP
1 *836:D 0.00015694
2 *727:Y 0.00015694
3 *836:D *294:74 0.000196166
4 *836:D *331:601 0
*RES
1 *727:Y *836:D 29.3628 
*END

*D_NET *71 0.00147557
*CONN
*I *835:D I *D sky130_fd_sc_hd__dfxtp_1
*I *733:Y O *D sky130_fd_sc_hd__nor2_1
*CAP
1 *835:D 0.000723965
2 *733:Y 0.000723965
3 *835:D *733:B 2.76439e-05
4 *835:D *295:90 0
*RES
1 *733:Y *835:D 31.5127 
*END

*D_NET *72 0.00555757
*CONN
*I *834:D I *D sky130_fd_sc_hd__dfxtp_1
*I *739:Y O *D sky130_fd_sc_hd__nor2_1
*CAP
1 *834:D 0.00126728
2 *739:Y 0.00126728
3 *834:D *739:B 0.000379182
4 *834:D *867:D 0
5 *834:D *298:16 0.00132191
6 *834:D *354:12 0.00132191
*RES
1 *739:Y *834:D 35.2423 
*END

*D_NET *73 0.00084044
*CONN
*I *833:D I *D sky130_fd_sc_hd__dfxtp_1
*I *745:Y O *D sky130_fd_sc_hd__nor2_1
*CAP
1 *833:D 0.00042022
2 *745:Y 0.00042022
3 *833:D *863:CLK 0
*RES
1 *745:Y *833:D 30.3253 
*END

*D_NET *74 0.0131861
*CONN
*I *832:D I *D sky130_fd_sc_hd__dfxtp_1
*I *749:Y O *D sky130_fd_sc_hd__nor3_1
*CAP
1 *832:D 1.50052e-05
2 *749:Y 0.0021474
3 *74:10 0.00216241
4 *832:D *164:14 5.15469e-05
5 *74:10 *631:B 0
6 *74:10 *639:B 0
7 *74:10 *747:A2 0.00144934
8 *74:10 *749:B 0.000140596
9 *74:10 *755:A1 0.000415544
10 *74:10 *765:C 0.000662605
11 *74:10 *825:D 0
12 *74:10 *828:D 0
13 *74:10 *829:D 0
14 *74:10 *832:CLK 0.00127704
15 *74:10 *279:16 0
16 *74:10 *293:42 0.00108274
17 *74:10 *293:52 0.00111161
18 *74:10 *293:86 0.00246406
19 *74:10 *313:18 0.000167179
20 *74:10 *313:24 3.90084e-05
21 *74:10 *331:407 0
22 *861:D *74:10 0
*RES
1 *749:Y *74:10 46.5873 
2 *74:10 *832:D 13.9935 
*END

*D_NET *75 0.032974
*CONN
*I *831:D I *D sky130_fd_sc_hd__dfxtp_1
*I *753:Y O *D sky130_fd_sc_hd__nor3_2
*CAP
1 *831:D 0.00272499
2 *753:Y 0.00202026
3 *75:12 0.00474525
4 *831:D *625:B1 0.00404176
5 *831:D *828:D 0.00314219
6 *831:D *867:D 0.00275364
7 *831:D *300:31 0.000506804
8 *831:D *351:18 0.00331995
9 *75:12 *629:A2 0.00231083
10 *75:12 *763:A1 0.000587843
11 *75:12 *763:A2 0.000182216
12 *75:12 *819:CLK 0.00162113
13 *75:12 *819:D 0
14 *75:12 *164:12 0.00167245
15 *75:12 *184:22 0.000133393
16 *75:12 *309:33 0.000140804
17 *75:12 *344:14 0.00248313
18 *75:12 *347:12 0.000587336
19 *75:12 *369:202 0
20 *75:12 *369:204 0
21 *75:12 *369:219 0
*RES
1 *753:Y *75:12 37.2359 
2 *75:12 *831:D 30.187 
*END

*D_NET *76 0.0110443
*CONN
*I *830:D I *D sky130_fd_sc_hd__dfxtp_1
*I *757:Y O *D sky130_fd_sc_hd__nor3_1
*CAP
1 *830:D 0.0024019
2 *757:Y 0.0024019
3 *830:D *635:B1 0.00024063
4 *830:D *635:B2 0.000506804
5 *830:D *757:C 0.000167179
6 *830:D *759:B1 0.000931427
7 *830:D *761:B 0.0002814
8 *830:D *879:A 0.000487606
9 *830:D *189:10 0
10 *830:D *198:10 0.00137788
11 *830:D *293:86 0.000320427
12 *830:D *322:84 0.000310596
13 *830:D *322:99 0.000587843
14 *830:D *322:156 0.000760142
15 *830:D *350:28 0.000268606
*RES
1 *757:Y *830:D 49.1565 
*END

*D_NET *77 0.0194784
*CONN
*I *829:D I *D sky130_fd_sc_hd__dfxtp_1
*I *761:Y O *D sky130_fd_sc_hd__nor3_1
*CAP
1 *829:D 0.00153631
2 *761:Y 0.000489428
3 *77:8 0.00202574
4 *829:D *624:B1 0.000310596
5 *829:D *625:B1 0.000266786
6 *829:D *625:C1 0.00282722
7 *829:D *747:B1 0.000932441
8 *829:D *755:A1 0
9 *829:D *755:A2 0.000492812
10 *829:D *757:C 7.04018e-05
11 *829:D *759:A2 0.00161961
12 *829:D *761:B 9.66445e-05
13 *829:D *761:C 0.000803408
14 *829:D *867:CLK 0.00129622
15 *829:D *867:D 0
16 *829:D *189:10 0.00144934
17 *829:D *293:42 0.00100045
18 *829:D *293:52 0.000133393
19 *829:D *293:86 0
20 *829:D *295:25 0.00120609
21 *829:D *295:27 0.000932441
22 *829:D *295:72 2.30846e-05
23 *829:D *299:10 0.000285095
24 *829:D *299:33 0
25 *829:D *322:99 0
26 *829:D *331:355 0.000521801
27 *829:D *331:407 0.00105541
28 *829:D *345:18 0
29 *77:8 *761:B 0.000103664
30 *74:10 *829:D 0
*RES
1 *761:Y *77:8 14.909 
2 *77:8 *829:D 49.7101 
*END

*D_NET *78 0.00734432
*CONN
*I *828:D I *D sky130_fd_sc_hd__dfxtp_1
*I *765:Y O *D sky130_fd_sc_hd__nor3_1
*CAP
1 *828:D 0.00103286
2 *765:Y 0.00103286
3 *828:D *739:A 5.73995e-05
4 *828:D *765:B 0.000895354
5 *828:D *825:D 0
6 *828:D *279:16 0.00118366
7 *831:D *828:D 0.00314219
8 *74:10 *828:D 0
*RES
1 *765:Y *828:D 35.3627 
*END

*D_NET *79 0.00250832
*CONN
*I *827:D I *D sky130_fd_sc_hd__dfxtp_1
*I *769:Y O *D sky130_fd_sc_hd__nor3_1
*CAP
1 *827:D 0.000179657
2 *769:Y 0.000179657
3 *827:D *615:A 8.89286e-05
4 *827:D *768:B 0.000133262
5 *827:D *768:C 0.000931427
6 *827:D *769:B 0.000450571
7 *827:D *827:CLK 0.000544814
*RES
1 *769:Y *827:D 31.2669 
*END

*D_NET *80 0.0271345
*CONN
*I *826:D I *D sky130_fd_sc_hd__dfxtp_1
*I *773:Y O *D sky130_fd_sc_hd__nor3_1
*CAP
1 *826:D 0
2 *773:Y 0.00725665
3 *80:18 0.00725665
4 *80:18 *768:A 0.000345153
5 *80:18 *768:C 0.000411586
6 *80:18 *769:B 0.000103664
7 *80:18 *769:C 0.000494056
8 *80:18 *770:A 7.9476e-05
9 *80:18 *770:B 0.000167179
10 *80:18 *772:B 0.000895354
11 *80:18 *772:C 2.74519e-05
12 *80:18 *773:B 0.00364307
13 *80:18 *811:CLK 0.00520741
14 *80:18 *811:D 0.000156265
15 *80:18 *207:8 0.000167179
16 *80:18 *322:229 7.83243e-05
17 *80:18 *331:298 0.000189668
18 *80:18 *346:18 0.000551691
19 *80:18 *359:10 0.000103664
*RES
1 *773:Y *80:18 41.9879 
2 *80:18 *826:D 9.3 
*END

*D_NET *81 0.00916033
*CONN
*I *825:D I *D sky130_fd_sc_hd__dfxtp_1
*I *777:Y O *D sky130_fd_sc_hd__nor3_1
*CAP
1 *825:D 0.00125477
2 *777:Y 0.00125477
3 *825:D *689:B2 0.000169792
4 *825:D *691:B 0
5 *825:D *755:A1 0
6 *825:D *765:B 3.19632e-05
7 *825:D *777:B 0.000243245
8 *825:D *777:C 0.000587843
9 *825:D *825:CLK 0.0016056
10 *825:D *844:CLK 0
11 *825:D *252:12 0
12 *825:D *279:16 0.000329428
13 *825:D *286:10 4.44643e-05
14 *825:D *293:86 0
15 *825:D *298:40 0.00103379
16 *825:D *298:66 0.00137839
17 *825:D *322:76 0.000196166
18 *825:D *322:135 0.000115084
19 *825:D *361:23 0.000915016
20 *828:D *825:D 0
21 *74:10 *825:D 0
*RES
1 *777:Y *825:D 46.0808 
*END

*D_NET *82 0.00274843
*CONN
*I *824:D I *D sky130_fd_sc_hd__dfxtp_1
*I *781:Y O *D sky130_fd_sc_hd__nor3_1
*CAP
1 *824:D 0.000112755
2 *781:Y 0.000112755
3 *824:D *781:B 0.000211205
4 *824:D *781:C 0.000587843
5 *824:D *297:48 0.000877583
6 *824:D *331:79 0.000846292
*RES
1 *781:Y *824:D 30.885 
*END

*D_NET *83 0.00401757
*CONN
*I *823:D I *D sky130_fd_sc_hd__dfxtp_1
*I *785:Y O *D sky130_fd_sc_hd__nor3_1
*CAP
1 *823:D 0.000731744
2 *785:Y 0.000731744
3 *823:D *331:65 0.00127704
4 *823:D *348:18 0.00127704
*RES
1 *785:Y *823:D 33.7986 
*END

*D_NET *84 0.0059346
*CONN
*I *822:D I *D sky130_fd_sc_hd__dfxtp_1
*I *789:Y O *D sky130_fd_sc_hd__nor3_1
*CAP
1 *822:D 0.000297103
2 *789:Y 0.000297103
3 *822:D *789:B 0.00196623
4 *822:D *789:C 0.00087381
5 *822:D *822:CLK 0
6 *822:D *222:18 0.000933364
7 *822:D *326:10 0.000633616
8 *7:17 *822:D 0.000933364
*RES
1 *789:Y *822:D 36.0165 
*END

*D_NET *85 0.0169682
*CONN
*I *821:D I *D sky130_fd_sc_hd__dfxtp_1
*I *793:Y O *D sky130_fd_sc_hd__nor3_1
*CAP
1 *821:D 0.00600998
2 *793:Y 0.00600998
3 *821:D *644:A2 0
4 *821:D *662:A2 0.00143925
5 *821:D *791:B1 0.000428415
6 *821:D *821:CLK 0.000540776
7 *821:D *881:A 0.000451383
8 *821:D *293:177 0.000139316
9 *821:D *301:14 0.000786123
10 *821:D *310:26 0.000156589
11 *821:D *322:422 0.000760142
12 *821:D *331:261 0.000246199
*RES
1 *793:Y *821:D 45.9762 
*END

*D_NET *86 0.00350694
*CONN
*I *820:D I *D sky130_fd_sc_hd__dfxtp_1
*I *797:Y O *D sky130_fd_sc_hd__nor3_1
*CAP
1 *820:D 0.000709849
2 *797:Y 0.000709849
3 *820:D *797:B 0.000760142
4 *820:D *797:C 0.000758622
5 *820:D *348:18 0.000568475
*RES
1 *797:Y *820:D 33.694 
*END

*D_NET *87 0.00797439
*CONN
*I *819:D I *D sky130_fd_sc_hd__dfxtp_1
*I *801:Y O *D sky130_fd_sc_hd__nor3_1
*CAP
1 *819:D 0.00258609
2 *801:Y 0.00258609
3 *819:D *650:B2 0.00171046
4 *819:D *652:B 0
5 *819:D *687:A 0.000238428
6 *819:D *687:B 0.000551691
7 *819:D *801:C 3.90084e-05
8 *819:D *94:12 0.000262616
9 *819:D *287:10 0
10 *819:D *293:23 0
11 *819:D *362:10 0
12 *1:18 *819:D 0
13 *75:12 *819:D 0
*RES
1 *801:Y *819:D 46.3737 
*END

*D_NET *88 0.00183576
*CONN
*I *818:D I *D sky130_fd_sc_hd__dfxtp_1
*I *805:Y O *D sky130_fd_sc_hd__nor3_1
*CAP
1 *818:D 0.000197816
2 *805:Y 0.000197816
3 *818:D *317:22 0.000933364
4 *818:D *331:559 0.000310596
5 *818:D *369:386 0.000196166
*RES
1 *805:Y *818:D 30.3253 
*END

*D_NET *89 0.00422374
*CONN
*I *817:D I *D sky130_fd_sc_hd__dfxtp_1
*I *587:Y O *D sky130_fd_sc_hd__nor3_1
*CAP
1 *817:D 0.000221351
2 *587:Y 0.000221351
3 *817:D *586:B 7.04018e-05
4 *817:D *586:C 0.000587843
5 *817:D *672:A 0.00131903
6 *817:D *849:CLK 0.000270391
7 *817:D *331:780 0.000256341
8 *817:D *333:34 0.00127704
9 *817:D *366:14 0
*RES
1 *587:Y *817:D 34.3636 
*END

*D_NET *90 0.000878139
*CONN
*I *816:D I *D sky130_fd_sc_hd__dfxtp_1
*I *591:Y O *D sky130_fd_sc_hd__nor3_1
*CAP
1 *816:D 0.000325464
2 *591:Y 0.000325464
3 *816:D *588:A 0
4 *816:D *591:B 0
5 *816:D *710:B 0
6 *816:D *816:CLK 7.09466e-05
7 *816:D *237:8 0.000156265
8 *816:D *291:10 0
*RES
1 *591:Y *816:D 30.0742 
*END

*D_NET *91 0.0110957
*CONN
*I *815:D I *D sky130_fd_sc_hd__dfxtp_1
*I *595:Y O *D sky130_fd_sc_hd__nor3_1
*CAP
1 *815:D 0.000258845
2 *595:Y 0.000258845
3 *815:D *681:A 0.00110474
4 *815:D *174:14 0.00394103
5 *815:D *289:12 0.00110423
6 *815:D *327:34 0.00132191
7 *815:D *364:8 0.00167245
8 *898:A *815:D 0.00136268
9 *33:27 *815:D 7.09466e-05
*RES
1 *595:Y *815:D 36.5396 
*END

*D_NET *92 0.00533042
*CONN
*I *814:D I *D sky130_fd_sc_hd__dfxtp_1
*I *599:Y O *D sky130_fd_sc_hd__nor3_1
*CAP
1 *814:D 0.000586053
2 *599:Y 0.000586053
3 *814:D *840:CLK 0.000421996
4 *814:D *328:16 0
5 *814:D *331:107 0.00101399
6 *814:D *369:106 0.000930414
7 *814:D *369:112 0.00179191
*RES
1 *599:Y *814:D 36.8535 
*END

*D_NET *93 0.00181916
*CONN
*I *813:D I *D sky130_fd_sc_hd__dfxtp_1
*I *603:Y O *D sky130_fd_sc_hd__nor3_1
*CAP
1 *813:D 3.73981e-05
2 *603:Y 3.73981e-05
3 *813:D *813:CLK 0.000156265
4 *813:D *314:16 0.00110474
5 *813:D *331:732 0.0004514
6 *813:D *362:10 3.19632e-05
*RES
1 *603:Y *813:D 30.0742 
*END

*D_NET *94 0.0163238
*CONN
*I *812:D I *D sky130_fd_sc_hd__dfxtp_1
*I *607:Y O *D sky130_fd_sc_hd__nor3_1
*CAP
1 *812:D 0
2 *607:Y 0.00313523
3 *94:12 0.00313523
4 *94:12 *686:B1 0
5 *94:12 *686:B2 0
6 *94:12 *689:A2 0.000139371
7 *94:12 *689:B2 0.000895354
8 *94:12 *755:A1 0.000130924
9 *94:12 *920:A 0.00322665
10 *94:12 *184:22 0.00368537
11 *94:12 *249:10 0
12 *94:12 *271:12 0
13 *94:12 *322:10 0.000699465
14 *94:12 *322:49 0.000506804
15 *94:12 *361:8 0.000506804
16 *819:D *94:12 0.000262616
*RES
1 *607:Y *94:12 40.7144 
2 *94:12 *812:D 9.3 
*END

*D_NET *95 0.000812491
*CONN
*I *811:D I *D sky130_fd_sc_hd__dfxtp_1
*I *611:Y O *D sky130_fd_sc_hd__nor3_1
*CAP
1 *811:D 7.52391e-05
2 *611:Y 7.52391e-05
3 *811:D *305:53 0.000195774
4 *811:D *331:449 0.000309975
5 *80:18 *811:D 0.000156265
*RES
1 *611:Y *811:D 29.3628 
*END

*D_NET *96 0.00751841
*CONN
*I *810:D I *D sky130_fd_sc_hd__dfxtp_1
*I *615:Y O *D sky130_fd_sc_hd__nor3_1
*CAP
1 *810:D 0.00179971
2 *615:Y 0.00179971
3 *810:D *615:C 2.41884e-05
4 *810:D *644:A2 0.00209772
5 *810:D *645:A 0.000158952
6 *810:D *645:B 0.0012839
7 *810:D *821:CLK 0.000197961
8 *810:D *301:35 0.000156265
9 *810:D *322:242 0
10 *810:D *346:10 0
*RES
1 *615:Y *810:D 39.7618 
*END

*D_NET *97 0.00375186
*CONN
*I *809:D I *D sky130_fd_sc_hd__dfxtp_1
*I *619:Y O *D sky130_fd_sc_hd__nor3_1
*CAP
1 *809:D 0.000927264
2 *619:Y 0.000927264
3 *809:D *617:B1 0.000506804
4 *809:D *619:A 2.41884e-05
5 *809:D *734:A 9.93907e-05
6 *809:D *809:CLK 0.000506804
7 *809:D *302:10 0.000760142
8 *809:D *328:12 0
*RES
1 *619:Y *809:D 32.1875 
*END

*D_NET *98 0.00845612
*CONN
*I *871:D I *D sky130_fd_sc_hd__dfxtp_1
*I *620:Y O *D sky130_fd_sc_hd__a211oi_1
*CAP
1 *871:D 0.000921934
2 *620:Y 0.000921934
3 *871:D *620:A1 7.04018e-05
4 *871:D *620:B1 0.000151702
5 *871:D *711:B 0.000760142
6 *871:D *712:A 8.91622e-05
7 *871:D *714:B 0.00244955
8 *871:D *284:21 0.0012839
9 *871:D *294:53 0.000569579
10 *871:D *294:57 0.000252682
11 *871:D *360:12 6.27732e-05
12 *871:D *360:18 0.000922348
*RES
1 *620:Y *871:D 38.611 
*END

*D_NET *99 0.00289755
*CONN
*I *870:D I *D sky130_fd_sc_hd__dfxtp_1
*I *621:Y O *D sky130_fd_sc_hd__a211oi_1
*CAP
1 *870:D 0.000804439
2 *621:Y 0.000804439
3 *870:D *174:24 0.000597079
4 *870:D *282:10 0.000310596
5 *870:D *293:52 0
6 *870:D *331:644 0.000380998
*RES
1 *621:Y *870:D 34.5309 
*END

*D_NET *100 0.00582627
*CONN
*I *869:D I *D sky130_fd_sc_hd__dfxtp_1
*I *622:Y O *D sky130_fd_sc_hd__a211oi_1
*CAP
1 *869:D 0.000405885
2 *622:Y 0.000405885
3 *869:D *622:A2 0
4 *869:D *622:B1 0.00120595
5 *869:D *726:B 0.000932441
6 *869:D *294:70 0.00287611
*RES
1 *622:Y *869:D 33.0872 
*END

*D_NET *101 0.00706661
*CONN
*I *868:D I *D sky130_fd_sc_hd__dfxtp_1
*I *623:Y O *D sky130_fd_sc_hd__a211oi_1
*CAP
1 *868:D 0.00073562
2 *623:Y 0.00073562
3 *868:D *623:A2 0.000256341
4 *868:D *623:B1 0.00264885
5 *868:D *733:A 0.002061
6 *868:D *174:24 0
7 *868:D *280:12 0
8 *868:D *295:90 0.00024063
9 *868:D *331:646 0.00038855
10 *868:D *356:14 0
*RES
1 *623:Y *868:D 36.5605 
*END

*D_NET *102 0.00989432
*CONN
*I *867:D I *D sky130_fd_sc_hd__dfxtp_1
*I *624:Y O *D sky130_fd_sc_hd__a211oi_1
*CAP
1 *867:D 0.000650314
2 *624:Y 0.000650314
3 *867:D *624:A1 0.000563214
4 *867:D *624:A2 0
5 *867:D *624:B1 0.000310596
6 *867:D *738:B 0.00248313
7 *867:D *867:CLK 0.00219157
8 *867:D *179:16 3.52009e-05
9 *867:D *351:18 0.000256341
10 *829:D *867:D 0
11 *831:D *867:D 0.00275364
12 *834:D *867:D 0
*RES
1 *624:Y *867:D 42.1838 
*END

*D_NET *103 0.0115814
*CONN
*I *866:D I *D sky130_fd_sc_hd__dfxtp_1
*I *625:Y O *D sky130_fd_sc_hd__a211oi_1
*CAP
1 *866:D 0.002929
2 *625:Y 0.002929
3 *866:D *625:A1 8.91622e-05
4 *866:D *625:C1 0.000118254
5 *866:D *632:A2 0.00190896
6 *866:D *632:B1 0.000621438
7 *866:D *633:A 0.00110474
8 *866:D *634:B 0.000895354
9 *866:D *744:A 0.000165863
10 *866:D *831:CLK 0.0004514
11 *866:D *278:14 0.000342093
12 *866:D *298:70 0
13 *866:D *351:18 2.61555e-05
*RES
1 *625:Y *866:D 48.1313 
*END

*D_NET *104 0.00559163
*CONN
*I *628:B I *D sky130_fd_sc_hd__nor3_1
*I *626:Y O *D sky130_fd_sc_hd__a22oi_1
*CAP
1 *628:B 0.00184887
2 *626:Y 0.00184887
3 *628:B *626:B1 0.000158952
4 *628:B *627:B 0.000355715
5 *628:B *637:A 0.000243245
6 *628:B *299:61 0
7 *628:B *299:63 0
8 *628:B *353:24 0.00113598
*RES
1 *626:Y *628:B 35.8857 
*END

*D_NET *105 0.00145286
*CONN
*I *628:C I *D sky130_fd_sc_hd__nor3_1
*I *627:Y O *D sky130_fd_sc_hd__nor2_1
*CAP
1 *628:C 8.78552e-05
2 *627:Y 8.78552e-05
3 *628:C *627:A 3.90084e-05
4 *628:C *637:A 0.00042352
5 *628:C *637:B 0.000679861
6 *628:C *331:407 0.000134764
*RES
1 *627:Y *628:C 21.6548 
*END

*D_NET *106 0.0101835
*CONN
*I *631:B I *D sky130_fd_sc_hd__nor3_1
*I *629:Y O *D sky130_fd_sc_hd__a22oi_1
*CAP
1 *631:B 0.00108346
2 *629:Y 0.00108346
3 *631:B *629:B2 0.00038855
4 *631:B *630:B 0.00167245
5 *631:B *631:C 0.00506761
6 *631:B *864:CLK 0
7 *631:B *293:52 0
8 *631:B *349:6 1.74694e-05
9 *631:B *349:27 3.99301e-05
10 *861:D *631:B 7.04018e-05
11 *864:D *631:B 0.000760142
12 *74:10 *631:B 0
*RES
1 *629:Y *631:B 41.4514 
*END

*D_NET *107 0.00879319
*CONN
*I *631:C I *D sky130_fd_sc_hd__nor3_1
*I *630:Y O *D sky130_fd_sc_hd__nor2_1
*CAP
1 *631:C 0.000373633
2 *630:Y 0.000373633
3 *631:C *715:B 0.000895354
4 *631:C *331:585 0.000418488
5 *631:C *331:678 0.000559727
6 *631:B *631:C 0.00506761
7 *861:D *631:C 0.00110474
*RES
1 *630:Y *631:C 40.0286 
*END

*D_NET *108 0.00456257
*CONN
*I *634:B I *D sky130_fd_sc_hd__nor3_1
*I *632:Y O *D sky130_fd_sc_hd__a22oi_1
*CAP
1 *634:B 0.000856061
2 *632:Y 0.000856061
3 *634:B *632:B1 0.0012839
4 *634:B *632:B2 0.000256341
5 *634:B *744:A 0.00039738
6 *863:D *634:B 1.74694e-05
7 *866:D *634:B 0.000895354
*RES
1 *632:Y *634:B 25.0026 
*END

*D_NET *109 0.0100453
*CONN
*I *634:C I *D sky130_fd_sc_hd__nor3_1
*I *633:Y O *D sky130_fd_sc_hd__nor2_1
*CAP
1 *634:C 0.00320123
2 *633:Y 0.00320123
3 *634:C *625:A2 0.0036152
4 *634:C *741:B 2.11936e-05
5 *863:D *634:C 6.45024e-06
*RES
1 *633:Y *634:C 28.5387 
*END

*D_NET *110 0.00968954
*CONN
*I *637:B I *D sky130_fd_sc_hd__nor3_1
*I *635:Y O *D sky130_fd_sc_hd__a22oi_1
*CAP
1 *637:B 0.00203986
2 *635:Y 0.00203986
3 *637:B *627:A 5.73995e-05
4 *637:B *637:A 0.00374662
5 *637:B *299:57 0
6 *637:B *299:59 0
7 *637:B *299:61 0
8 *637:B *331:407 2.11936e-05
9 *628:C *637:B 0.000679861
10 *862:D *637:B 0.00110474
*RES
1 *635:Y *637:B 39.2126 
*END

*D_NET *111 0.0013973
*CONN
*I *637:C I *D sky130_fd_sc_hd__nor3_1
*I *636:Y O *D sky130_fd_sc_hd__nor2_1
*CAP
1 *637:C 0.000424349
2 *636:Y 0.000424349
3 *637:C *637:A 0.000167179
4 *637:C *299:45 0
5 *637:C *299:57 0.000381419
*RES
1 *636:Y *637:C 21.6548 
*END

*D_NET *112 0.00206029
*CONN
*I *640:B I *D sky130_fd_sc_hd__nor3_1
*I *638:Y O *D sky130_fd_sc_hd__a22oi_1
*CAP
1 *640:B 0.000193918
2 *638:Y 0.000193918
3 *640:B *639:A 0.00167245
*RES
1 *638:Y *640:B 20.6714 
*END

*D_NET *113 0.000740922
*CONN
*I *640:C I *D sky130_fd_sc_hd__nor3_1
*I *639:Y O *D sky130_fd_sc_hd__nor2_1
*CAP
1 *640:C 0.000161092
2 *639:Y 0.000161092
3 *640:C *639:A 0.000300483
4 *640:C *639:B 0.000118254
*RES
1 *639:Y *640:C 20.2111 
*END

*D_NET *114 0.00416518
*CONN
*I *643:B I *D sky130_fd_sc_hd__nor3_1
*I *641:Y O *D sky130_fd_sc_hd__a22oi_1
*CAP
1 *643:B 0.000310212
2 *641:Y 0.000310212
3 *643:B *641:B2 0.00110373
4 *643:B *643:C 0
5 *643:B *768:B 1.83088e-05
6 *643:B *271:27 7.04018e-05
7 *643:B *331:320 0.000384512
8 *643:B *331:324 0.00029535
9 *643:B *347:16 0.00167245
*RES
1 *641:Y *643:B 33.1448 
*END

*D_NET *115 0.00358713
*CONN
*I *643:C I *D sky130_fd_sc_hd__nor3_1
*I *642:Y O *D sky130_fd_sc_hd__nor2_1
*CAP
1 *643:C 0.000118499
2 *642:Y 0.000118499
3 *643:C *642:B 0.00102861
4 *643:C *691:A 0.000107237
5 *643:C *313:18 0.00167245
6 *643:C *322:64 0.000238428
7 *643:C *331:337 0.00024063
8 *643:C *331:441 6.27732e-05
9 *643:B *643:C 0
*RES
1 *642:Y *643:C 32.6635 
*END

*D_NET *116 0.00467256
*CONN
*I *646:B I *D sky130_fd_sc_hd__nor3_1
*I *644:Y O *D sky130_fd_sc_hd__a22oi_1
*CAP
1 *646:B 0.000295192
2 *644:Y 0.000295192
3 *646:B *615:B 0
4 *646:B *615:C 0
5 *646:B *646:C 0.000551881
6 *646:B *770:A 0.000415544
7 *646:B *270:10 0.000689196
8 *646:B *310:26 0.000895354
9 *646:B *322:255 0.000182216
10 *646:B *346:18 0.000243245
11 *859:D *646:B 0.00110474
*RES
1 *644:Y *646:B 34.1909 
*END

*D_NET *117 0.00435619
*CONN
*I *646:C I *D sky130_fd_sc_hd__nor3_1
*I *645:Y O *D sky130_fd_sc_hd__nor2_1
*CAP
1 *646:C 0.000204985
2 *645:Y 0.000204985
3 *646:C *615:B 0
4 *646:C *615:C 0.000151702
5 *646:C *310:26 0.000895354
6 *646:C *310:42 0.000256341
7 *646:C *319:16 0.00167245
8 *646:C *322:255 0
9 *646:C *322:276 0.000418488
10 *646:B *646:C 0.000551881
*RES
1 *645:Y *646:C 34.7977 
*END

*D_NET *118 0.00141266
*CONN
*I *649:B I *D sky130_fd_sc_hd__nor3_1
*I *647:Y O *D sky130_fd_sc_hd__a22oi_1
*CAP
1 *649:B 0.000154947
2 *647:Y 0.000154947
3 *649:B *649:C 0.000506804
4 *649:B *761:A 8.91622e-05
5 *649:B *331:455 0.000506804
*RES
1 *647:Y *649:B 20.1902 
*END

*D_NET *119 0.00307419
*CONN
*I *649:C I *D sky130_fd_sc_hd__nor3_1
*I *648:Y O *D sky130_fd_sc_hd__nor2_1
*CAP
1 *649:C 0.000339931
2 *648:Y 0.000339931
3 *649:C *648:B 0.0004514
4 *649:C *761:A 0.000895354
5 *649:C *843:CLK 0.000167179
6 *649:C *299:33 0.000133393
7 *649:B *649:C 0.000506804
8 *858:D *649:C 0.000240194
*RES
1 *648:Y *649:C 31.6173 
*END

*D_NET *120 0.00705871
*CONN
*I *652:B I *D sky130_fd_sc_hd__nor3_1
*I *650:Y O *D sky130_fd_sc_hd__a22oi_1
*CAP
1 *652:B 0.000450004
2 *650:Y 0.000450004
3 *652:B *650:B2 0.000679861
4 *652:B *651:A 0.00244955
5 *652:B *778:B 0.000808032
6 *652:B *338:10 0.000944212
7 *819:D *652:B 0
8 *1:18 *652:B 0.00127704
*RES
1 *650:Y *652:B 39.0243 
*END

*D_NET *121 0.000727737
*CONN
*I *652:C I *D sky130_fd_sc_hd__nor3_1
*I *651:Y O *D sky130_fd_sc_hd__nor2_1
*CAP
1 *652:C 9.02991e-05
2 *651:Y 9.02991e-05
3 *652:C *651:A 0.000300483
4 *652:C *309:18 7.9476e-05
5 *857:D *652:C 0.000167179
*RES
1 *651:Y *652:C 20.2111 
*END

*D_NET *122 0.00710092
*CONN
*I *655:B I *D sky130_fd_sc_hd__nor3_1
*I *653:Y O *D sky130_fd_sc_hd__a22oi_1
*CAP
1 *655:B 0.00107365
2 *653:Y 0.00107365
3 *655:B *655:C 0.00231033
4 *655:B *852:CLK 0.000211205
5 *655:B *293:177 0
6 *655:B *300:63 0
7 *655:B *362:10 0
8 *655:B *369:295 0.00167245
9 *856:D *655:B 0.000759635
*RES
1 *653:Y *655:B 34.7977 
*END

*D_NET *123 0.00396958
*CONN
*I *655:C I *D sky130_fd_sc_hd__nor3_1
*I *654:Y O *D sky130_fd_sc_hd__nor2_1
*CAP
1 *655:C 0.000424107
2 *654:Y 0.000424107
3 *655:C *688:A 0.00029535
4 *655:C *781:B 0
5 *655:C *267:16 0.0002405
6 *655:C *293:124 0.000275188
7 *655:C *293:148 0
8 *655:C *293:177 0
9 *655:B *655:C 0.00231033
*RES
1 *654:Y *655:C 34.5466 
*END

*D_NET *124 0.00366761
*CONN
*I *658:B I *D sky130_fd_sc_hd__nor3_1
*I *656:Y O *D sky130_fd_sc_hd__a22oi_1
*CAP
1 *658:B 9.91847e-05
2 *656:Y 9.91847e-05
3 *658:B *656:A2 0.000139371
4 *658:B *657:A 0.000506804
5 *658:B *658:C 0.000762058
6 *658:B *696:A 0.002061
*RES
1 *656:Y *658:B 22.1152 
*END

*D_NET *125 0.00314588
*CONN
*I *658:C I *D sky130_fd_sc_hd__nor3_1
*I *657:Y O *D sky130_fd_sc_hd__nor2_1
*CAP
1 *658:C 0.000595073
2 *657:Y 0.000595073
3 *658:C *656:A2 0.000139371
4 *658:C *657:A 0.000158952
5 *658:C *657:B 0.000895354
6 *658:B *658:C 0.000762058
*RES
1 *657:Y *658:C 23.5798 
*END

*D_NET *126 0.0100852
*CONN
*I *661:B I *D sky130_fd_sc_hd__nor3_1
*I *659:Y O *D sky130_fd_sc_hd__a22oi_1
*CAP
1 *661:B 0.00298013
2 *659:Y 0.00298013
3 *661:B *659:B2 0.00244955
4 *661:B *661:A 7.04018e-05
5 *661:B *791:A2 0
6 *661:B *326:10 0.000587843
7 *854:D *661:B 0.00101719
*RES
1 *659:Y *661:B 36.0531 
*END

*D_NET *127 0.00772458
*CONN
*I *661:C I *D sky130_fd_sc_hd__nor3_1
*I *660:Y O *D sky130_fd_sc_hd__nor2_1
*CAP
1 *661:C 0.000843596
2 *660:Y 0.000843596
3 *661:C *661:A 0.000845785
4 *661:C *265:10 0.000506804
5 *661:C *265:16 0.000506804
6 *661:C *305:32 0.0011517
7 *661:C *331:216 0.00153498
8 *909:A *661:C 0.000207416
9 *17:25 *661:C 0.0012839
*RES
1 *660:Y *661:C 35.9067 
*END

*D_NET *128 0.00402089
*CONN
*I *664:B I *D sky130_fd_sc_hd__nor3_1
*I *662:Y O *D sky130_fd_sc_hd__a22oi_1
*CAP
1 *664:B 0.000925753
2 *662:Y 0.000925753
3 *664:B *662:B1 1.47434e-05
4 *664:B *662:B2 1.74694e-05
5 *664:B *663:A 7.04018e-05
6 *664:B *305:32 0.00147994
7 *853:D *664:B 0.00058683
*RES
1 *662:Y *664:B 31.2407 
*END

*D_NET *129 0.0013237
*CONN
*I *664:C I *D sky130_fd_sc_hd__nor3_1
*I *663:Y O *D sky130_fd_sc_hd__nor2_1
*CAP
1 *664:C 6.64959e-05
2 *663:Y 6.64959e-05
3 *664:C *313:12 0.000895354
4 *664:C *319:16 0.00029535
*RES
1 *663:Y *664:C 20.2111 
*END

*D_NET *130 0.00214872
*CONN
*I *667:B I *D sky130_fd_sc_hd__nor3_1
*I *665:Y O *D sky130_fd_sc_hd__a22oi_1
*CAP
1 *667:B 0.000525725
2 *665:Y 0.000525725
3 *667:B *798:B 0.000128171
4 *667:B *228:14 0.000506804
5 *667:B *263:12 0.000151702
6 *667:B *307:12 0
7 *667:B *339:20 0.000310596
*RES
1 *665:Y *667:B 30.2782 
*END

*D_NET *131 0.00191779
*CONN
*I *667:C I *D sky130_fd_sc_hd__nor3_1
*I *666:Y O *D sky130_fd_sc_hd__nor2_1
*CAP
1 *667:C 0.000378869
2 *666:Y 0.000378869
3 *667:C *666:A 0.000194801
4 *667:C *667:A 0.000763145
5 *667:C *331:290 1.72006e-05
6 *852:D *667:C 0.000184906
*RES
1 *666:Y *667:C 21.8013 
*END

*D_NET *132 0.00115513
*CONN
*I *670:B I *D sky130_fd_sc_hd__nor3_1
*I *668:Y O *D sky130_fd_sc_hd__a22oi_1
*CAP
1 *670:B 0.000244685
2 *668:Y 0.000244685
3 *670:B *668:B1 0.000158952
4 *670:B *669:A 0.000506804
*RES
1 *668:Y *670:B 20.1902 
*END

*D_NET *133 0.00144374
*CONN
*I *670:C I *D sky130_fd_sc_hd__nor3_1
*I *669:Y O *D sky130_fd_sc_hd__nor2_1
*CAP
1 *670:C 4.28622e-05
2 *669:Y 4.28622e-05
3 *670:C *668:B1 9.33746e-05
4 *670:C *669:A 0.000233831
5 *670:C *669:B 0.000118254
6 *670:C *314:16 0.000912555
*RES
1 *669:Y *670:C 20.2111 
*END

*D_NET *134 0.00243743
*CONN
*I *673:B I *D sky130_fd_sc_hd__nor3_1
*I *671:Y O *D sky130_fd_sc_hd__a22oi_1
*CAP
1 *673:B 0.000544977
2 *671:Y 0.000544977
3 *673:B *671:B2 0.000243245
4 *673:B *672:B 0
5 *673:B *710:B 0
6 *673:B *285:16 0
7 *850:D *673:B 0.00110423
*RES
1 *671:Y *673:B 33.082 
*END

*D_NET *135 0.00116334
*CONN
*I *673:C I *D sky130_fd_sc_hd__nor3_1
*I *672:Y O *D sky130_fd_sc_hd__nor2_1
*CAP
1 *673:C 0.000290433
2 *672:Y 0.000290433
3 *673:C *672:A 0
4 *673:C *331:780 0.000158952
5 *673:C *331:782 0.00042352
*RES
1 *672:Y *673:C 21.6548 
*END

*D_NET *136 0.00246979
*CONN
*I *676:B I *D sky130_fd_sc_hd__nor3_1
*I *674:Y O *D sky130_fd_sc_hd__a22oi_1
*CAP
1 *676:B 0.000374197
2 *674:Y 0.000374197
3 *676:B *586:A 0
4 *676:B *587:C 7.01947e-05
5 *676:B *674:B1 0.000760142
6 *676:B *676:C 0.000233831
7 *676:B *291:18 7.9476e-05
8 *676:B *329:22 0
9 *676:B *331:766 0
10 *676:B *333:26 0.000577751
11 *676:B *369:128 0
*RES
1 *674:Y *676:B 31.994 
*END

*D_NET *137 0.00105379
*CONN
*I *676:C I *D sky130_fd_sc_hd__nor3_1
*I *675:Y O *D sky130_fd_sc_hd__nor2_1
*CAP
1 *676:C 9.2494e-05
2 *675:Y 9.2494e-05
3 *676:C *586:A 0
4 *676:C *291:18 0.000506804
5 *676:C *333:26 0.000128171
6 *676:B *676:C 0.000233831
*RES
1 *675:Y *676:C 20.2111 
*END

*D_NET *138 0.0081415
*CONN
*I *679:B I *D sky130_fd_sc_hd__nor3_1
*I *677:Y O *D sky130_fd_sc_hd__a22oi_1
*CAP
1 *679:B 0.0015473
2 *677:Y 0.0015473
3 *679:B *594:B 0.000637248
4 *679:B *679:C 7.09466e-05
5 *679:B *681:B 0.00100963
6 *679:B *141:14 0.00231083
7 *679:B *327:40 2.85077e-05
8 *679:B *369:36 0.000189668
9 *679:B *369:43 3.99301e-05
10 *848:D *679:B 0.000760142
*RES
1 *677:Y *679:B 35.8857 
*END

*D_NET *139 0.00519621
*CONN
*I *679:C I *D sky130_fd_sc_hd__nor3_1
*I *678:Y O *D sky130_fd_sc_hd__nor2_1
*CAP
1 *679:C 0.00109523
2 *678:Y 0.00109523
3 *679:C *681:B 0.0004514
4 *679:C *141:14 0.00248341
5 *679:B *679:C 7.09466e-05
*RES
1 *678:Y *679:C 32.4334 
*END

*D_NET *140 0.00278446
*CONN
*I *682:B I *D sky130_fd_sc_hd__nor3_1
*I *680:Y O *D sky130_fd_sc_hd__a22oi_1
*CAP
1 *682:B 8.93556e-05
2 *680:Y 8.93556e-05
3 *682:B *680:A2 0.000139371
4 *682:B *680:B2 0.00167245
5 *682:B *141:14 0.000506804
6 *912:A *682:B 0.000158952
7 *15:21 *682:B 0.000128171
*RES
1 *680:Y *682:B 21.1527 
*END

*D_NET *141 0.0304995
*CONN
*I *682:C I *D sky130_fd_sc_hd__nor3_1
*I *681:Y O *D sky130_fd_sc_hd__nor2_1
*CAP
1 *682:C 0
2 *681:Y 0.000928558
3 *141:14 0.000928558
4 *141:14 *591:B 0.000506804
5 *141:14 *591:C 0.0012839
6 *141:14 *681:A 0.012348
7 *141:14 *681:B 0.000237504
8 *141:14 *682:A 3.90084e-05
9 *141:14 *728:B 0.0055835
10 *141:14 *289:12 0.00275628
11 *141:14 *312:18 0.000506804
12 *679:B *141:14 0.00231083
13 *679:C *141:14 0.00248341
14 *682:B *141:14 0.000506804
15 *15:21 *141:14 7.9476e-05
*RES
1 *681:Y *141:14 46.9653 
2 *141:14 *682:C 9.3 
*END

*D_NET *142 0.00175812
*CONN
*I *685:B I *D sky130_fd_sc_hd__nor3_1
*I *683:Y O *D sky130_fd_sc_hd__a22oi_1
*CAP
1 *685:B 2.535e-05
2 *683:Y 2.535e-05
3 *685:B *684:A 0.0012839
4 *685:B *317:22 0.00042352
*RES
1 *683:Y *685:B 20.1902 
*END

*D_NET *143 0.00245561
*CONN
*I *685:C I *D sky130_fd_sc_hd__nor3_1
*I *684:Y O *D sky130_fd_sc_hd__nor2_1
*CAP
1 *685:C 5.85331e-05
2 *684:Y 5.85331e-05
3 *685:C *684:A 0.00110738
4 *685:C *684:B 7.9476e-05
5 *846:D *685:C 0.0011517
*RES
1 *684:Y *685:C 21.3201 
*END

*D_NET *144 0.00440306
*CONN
*I *688:B I *D sky130_fd_sc_hd__nor3_1
*I *686:Y O *D sky130_fd_sc_hd__a22oi_1
*CAP
1 *688:B 0.00028563
2 *686:Y 0.00028563
3 *688:B *686:B2 0.00162164
4 *688:B *688:C 0.000363345
5 *688:B *852:CLK 0
6 *688:B *249:10 0.000662605
7 *688:B *362:10 0.00110474
8 *845:D *688:B 7.9476e-05
*RES
1 *686:Y *688:B 34.1909 
*END

*D_NET *145 0.00116427
*CONN
*I *688:C I *D sky130_fd_sc_hd__nor3_1
*I *687:Y O *D sky130_fd_sc_hd__nor2_1
*CAP
1 *688:C 0.000321829
2 *687:Y 0.000321829
3 *688:C *852:CLK 0
4 *688:C *300:63 3.90084e-05
5 *688:C *362:10 0
6 *688:B *688:C 0.000363345
7 *845:D *688:C 0.000118254
*RES
1 *687:Y *688:C 30.9896 
*END

*D_NET *146 0.00192737
*CONN
*I *691:B I *D sky130_fd_sc_hd__nor3_1
*I *689:Y O *D sky130_fd_sc_hd__a22oi_1
*CAP
1 *691:B 8.9713e-05
2 *689:Y 8.9713e-05
3 *691:B *689:B1 0.00127704
4 *691:B *689:B2 0.000107237
5 *691:B *691:C 7.09466e-05
6 *691:B *755:A1 7.04018e-05
7 *691:B *361:23 0.000222322
8 *825:D *691:B 0
*RES
1 *689:Y *691:B 30.5921 
*END

*D_NET *147 0.00455813
*CONN
*I *691:C I *D sky130_fd_sc_hd__nor3_1
*I *690:Y O *D sky130_fd_sc_hd__nor2_1
*CAP
1 *691:C 0.00140713
2 *690:Y 0.00140713
3 *691:C *689:B1 0.000140804
4 *691:C *690:A 7.9476e-05
5 *691:C *690:B 0.000551691
6 *691:C *286:10 0.000760142
7 *691:C *323:31 0
8 *691:C *361:23 0.000140804
9 *691:B *691:C 7.09466e-05
*RES
1 *690:Y *691:C 32.9146 
*END

*D_NET *148 0.0078324
*CONN
*I *694:B I *D sky130_fd_sc_hd__nor3_1
*I *702:B_N I *D sky130_fd_sc_hd__nor2b_1
*I *692:X O *D sky130_fd_sc_hd__and3_1
*CAP
1 *694:B 0.000654228
2 *702:B_N 0.000903296
3 *692:X 0
4 *148:6 0.00155752
5 *694:B *694:C 0.000759635
6 *694:B *818:CLK 0
7 *694:B *285:16 0.000242739
8 *694:B *331:561 0.0007771
9 *694:B *331:565 0.000895354
10 *702:B_N *702:A 0.0012839
11 *702:B_N *285:16 0.000758622
12 *839:D *694:B 0
*RES
1 *692:X *148:6 13.8 
2 *148:6 *702:B_N 19.8469 
3 *148:6 *694:B 19.2192 
*END

*D_NET *149 0.00523027
*CONN
*I *694:C I *D sky130_fd_sc_hd__nor3_1
*I *693:Y O *D sky130_fd_sc_hd__a21oi_1
*CAP
1 *694:C 0.000892284
2 *693:Y 0.000892284
3 *694:C *692:B 0.000895354
4 *694:C *169:14 0
5 *694:C *331:561 0.000506804
6 *694:C *331:565 0.0012839
7 *694:B *694:C 0.000759635
*RES
1 *693:Y *694:C 33.0611 
*END

*D_NET *150 0.0125691
*CONN
*I *700:A I *D sky130_fd_sc_hd__xnor2_1
*I *709:A1 I *D sky130_fd_sc_hd__a211oi_1
*I *696:Y O *D sky130_fd_sc_hd__nand2_1
*CAP
1 *700:A 0.000126978
2 *709:A1 0.00145292
3 *696:Y 0.000680812
4 *150:10 0.00226071
5 *700:A *696:A 4.44643e-05
6 *700:A *700:B 0.00188008
7 *700:A *808:CLK 0.000329559
8 *700:A *841:CLK 0.000107237
9 *709:A1 *709:A2 5.52877e-05
10 *709:A1 *709:C1 0.000128171
11 *709:A1 *331:26 0.000895354
12 *150:10 *696:A 0.000711429
13 *150:10 *696:B 0.000506804
14 *150:10 *700:B 0.000501694
15 *150:10 *179:16 0.00101859
16 *150:10 *302:10 6.45024e-06
17 *150:10 *318:24 0.000315174
18 *841:D *709:A1 0.000895354
19 *886:A *150:10 0.000587843
20 *902:A *700:A 0
21 *902:A *709:A1 6.41898e-05
*RES
1 *696:Y *150:10 21.6359 
2 *150:10 *709:A1 18.2672 
3 *150:10 *700:A 18.037 
*END

*D_NET *151 0.0109765
*CONN
*I *709:A2 I *D sky130_fd_sc_hd__a211oi_1
*I *697:Y O *D sky130_fd_sc_hd__nand2_1
*CAP
1 *709:A2 0.000713947
2 *697:Y 0.000713947
3 *709:A2 *699:B 0.000932441
4 *709:A2 *709:B1 0.000922931
5 *709:A2 *709:C1 0.000506804
6 *709:A2 *734:B 0.000285095
7 *709:A2 *300:101 0.00246675
8 *709:A2 *323:16 0.00150743
9 *709:A2 *326:10 0
10 *709:A2 *331:26 0.000401712
11 *709:A2 *337:12 0.00144934
12 *709:A1 *709:A2 5.52877e-05
13 *841:D *709:A2 0.00102077
*RES
1 *697:Y *709:A2 44.6946 
*END

*D_NET *152 0.0172721
*CONN
*I *709:B1 I *D sky130_fd_sc_hd__a211oi_1
*I *698:Y O *D sky130_fd_sc_hd__nor2_1
*CAP
1 *709:B1 0.00375727
2 *698:Y 0.00375727
3 *709:B1 *261:8 0.000861494
4 *709:B1 *261:10 0.00248313
5 *709:B1 *300:101 0.0012839
6 *709:B1 *323:16 0.00420612
7 *709:A2 *709:B1 0.000922931
*RES
1 *698:Y *709:B1 44.6109 
*END

*D_NET *153 0.00948163
*CONN
*I *700:B I *D sky130_fd_sc_hd__xnor2_1
*I *699:Y O *D sky130_fd_sc_hd__xnor2_1
*CAP
1 *700:B 0.00194578
2 *699:Y 0.00194578
3 *700:B *696:A 0.000944212
4 *700:B *699:A 0.000551691
5 *700:B *734:B 0.00167245
6 *700:A *700:B 0.00188008
7 *887:A *700:B 3.99301e-05
8 *150:10 *700:B 0.000501694
*RES
1 *699:Y *700:B 36.8482 
*END

*D_NET *154 0.00226899
*CONN
*I *701:B I *D sky130_fd_sc_hd__nor2_1
*I *700:Y O *D sky130_fd_sc_hd__xnor2_1
*CAP
1 *701:B 0.000174319
2 *700:Y 0.000174319
3 *701:B *701:A 0.00010671
4 *701:B *307:12 0.000679861
5 *701:B *331:22 0.000238428
6 *891:A *701:B 0.000895354
*RES
1 *700:Y *701:B 22.6383 
*END

*D_NET *155 0.00169885
*CONN
*I *705:B I *D sky130_fd_sc_hd__nor3_1
*I *703:Y O *D sky130_fd_sc_hd__a22oi_1
*CAP
1 *705:B 1.26484e-05
2 *703:Y 1.26484e-05
3 *705:B *647:A1 5.52877e-05
4 *705:B *703:B2 3.90084e-05
5 *705:B *305:38 0.0012839
6 *705:B *331:455 0.00029535
*RES
1 *703:Y *705:B 20.1902 
*END

*D_NET *156 0.0053703
*CONN
*I *705:C I *D sky130_fd_sc_hd__nor3_1
*I *704:Y O *D sky130_fd_sc_hd__nor2_1
*CAP
1 *705:C 0.00171213
2 *704:Y 0.00171213
3 *705:C *703:B2 0.000506804
4 *705:C *704:A 0
5 *705:C *305:53 0.000932441
6 *705:C *359:14 0.000506804
*RES
1 *704:Y *705:C 33.0401 
*END

*D_NET *157 0.00829632
*CONN
*I *708:B I *D sky130_fd_sc_hd__nor3_1
*I *706:Y O *D sky130_fd_sc_hd__a22oi_1
*CAP
1 *708:B 0.00192555
2 *706:Y 0.00192555
3 *708:B *708:C 0.000760142
4 *708:B *174:18 0.000345503
5 *708:B *293:148 4.44643e-05
6 *708:B *293:154 0.000355715
7 *708:B *297:31 0
8 *708:B *309:18 0.00167245
9 *708:B *327:34 0.000506804
10 *842:D *708:B 0.000760142
*RES
1 *706:Y *708:B 36.367 
*END

*D_NET *158 0.0163662
*CONN
*I *708:C I *D sky130_fd_sc_hd__nor3_1
*I *707:Y O *D sky130_fd_sc_hd__nor2_1
*CAP
1 *708:C 0.00410973
2 *707:Y 0.00410973
3 *708:C *706:B2 0.0028381
4 *708:C *707:A 7.9476e-05
5 *708:C *707:B 0.00167245
6 *708:C *708:A 0.00029535
7 *708:C *293:154 0.000310596
8 *708:C *297:14 0.000260521
9 *708:B *708:C 0.000760142
10 *842:D *708:C 0.00193008
*RES
1 *707:Y *708:C 40.0705 
*END

*D_NET *159 0.0111587
*CONN
*I *620:A1 I *D sky130_fd_sc_hd__a211oi_1
*I *714:A I *D sky130_fd_sc_hd__xnor2_1
*I *710:Y O *D sky130_fd_sc_hd__nand2_1
*CAP
1 *620:A1 0.000294731
2 *714:A 0.000390462
3 *710:Y 0.00164508
4 *159:12 0.00233027
5 *620:A1 *711:A 4.44643e-05
6 *620:A1 *711:B 0.00127704
7 *620:A1 *872:CLK 0.000909937
8 *620:A1 *294:28 6.39828e-05
9 *620:A1 *294:30 0.000732799
10 *620:A1 *360:12 0
11 *620:A1 *360:18 0.000344598
12 *714:A *714:B 0.000243245
13 *714:A *169:14 0.000343795
14 *714:A *294:28 2.22322e-05
15 *159:12 *818:CLK 0.000157096
16 *159:12 *169:14 0.00127718
17 *159:12 *312:18 9.98321e-05
18 *159:12 *321:18 0.000651791
19 *159:12 *369:386 0.000157096
20 *838:D *620:A1 0
21 *839:D *159:12 0.000102678
22 *871:D *620:A1 7.04018e-05
*RES
1 *710:Y *159:12 19.846 
2 *159:12 *714:A 18.3803 
3 *159:12 *620:A1 23.5812 
*END

*D_NET *160 0.001021
*CONN
*I *620:A2 I *D sky130_fd_sc_hd__a211oi_1
*I *711:Y O *D sky130_fd_sc_hd__nand2_1
*CAP
1 *620:A2 6.2822e-05
2 *711:Y 6.2822e-05
3 *620:A2 *711:B 0.000895354
*RES
1 *711:Y *620:A2 19.709 
*END

*D_NET *161 0.00268761
*CONN
*I *620:B1 I *D sky130_fd_sc_hd__a211oi_1
*I *712:Y O *D sky130_fd_sc_hd__nor2_1
*CAP
1 *620:B1 0.000431727
2 *712:Y 0.000431727
3 *620:B1 *711:B 0
4 *620:B1 *872:CLK 0.00167245
5 *871:D *620:B1 0.000151702
6 *872:D *620:B1 0
*RES
1 *712:Y *620:B1 31.2407 
*END

*D_NET *162 0.00698689
*CONN
*I *714:B I *D sky130_fd_sc_hd__xnor2_1
*I *713:Y O *D sky130_fd_sc_hd__xnor2_1
*CAP
1 *714:B 0.00179328
2 *713:Y 0.00179328
3 *714:B *838:CLK 0
4 *714:B *294:30 0.000451192
5 *714:B *360:18 0.000256341
6 *714:A *714:B 0.000243245
7 *871:D *714:B 0.00244955
*RES
1 *713:Y *714:B 33.8771 
*END

*D_NET *163 0.0035336
*CONN
*I *715:B I *D sky130_fd_sc_hd__nor2_1
*I *714:Y O *D sky130_fd_sc_hd__xnor2_1
*CAP
1 *715:B 0.000841041
2 *714:Y 0.000841041
3 *715:B *631:A 0.000103664
4 *715:B *294:28 0.000759129
5 *715:B *331:565 9.33746e-05
6 *715:B *358:8 0
7 *631:C *715:B 0.000895354
8 *838:D *715:B 0
*RES
1 *714:Y *715:B 33.898 
*END

*D_NET *164 0.0573219
*CONN
*I *621:A1 I *D sky130_fd_sc_hd__a211oi_1
*I *720:A I *D sky130_fd_sc_hd__xnor2_1
*I *716:Y O *D sky130_fd_sc_hd__nand2_1
*CAP
1 *621:A1 0
2 *720:A 0.00103468
3 *716:Y 0.00885196
4 *164:14 0.0082941
5 *164:12 0.0161114
6 *720:A *719:A 0.00162164
7 *720:A *720:B 0.00105166
8 *720:A *721:B 0.0018759
9 *720:A *874:A 0.000277437
10 *720:A *331:644 0.000140804
11 *720:A *358:8 0
12 *164:12 *600:A 0.0012839
13 *164:12 *600:B 0.000103664
14 *164:12 *752:B 1.74694e-05
15 *164:12 *752:C 2.72343e-05
16 *164:12 *753:B 0.000246425
17 *164:12 *753:C 0.000696141
18 *164:12 *803:B1 0.000506804
19 *164:12 *804:C 0.000760206
20 *164:12 *246:20 0.000103664
21 *164:12 *314:16 0.00021712
22 *164:12 *318:24 0.000506804
23 *164:12 *369:158 0.0036152
24 *164:12 *369:162 0.00167245
25 *164:12 *369:171 0.000479247
26 *164:12 *369:173 0.000506804
27 *164:12 *369:181 0.00244955
28 *164:14 *717:A 0.000167179
29 *164:14 *718:A 0.000167179
30 *164:14 *750:B 7.9476e-05
31 *164:14 *752:B 1.10576e-05
32 *164:14 *752:C 0.000574378
33 *164:14 *832:CLK 0.000895354
34 *164:14 *192:6 0.000158952
35 *164:14 *276:12 0.00029535
36 *164:14 *282:18 0.000558284
37 *832:D *164:14 5.15469e-05
38 *908:A *164:12 0.000238428
39 *75:12 *164:12 0.00167245
*RES
1 *716:Y *164:12 34.1782 
2 *164:12 *164:14 16.5087 
3 *164:14 *720:A 30.4148 
4 *164:14 *621:A1 9.3 
*END

*D_NET *165 0.000897633
*CONN
*I *621:A2 I *D sky130_fd_sc_hd__a211oi_1
*I *717:Y O *D sky130_fd_sc_hd__nand2_1
*CAP
1 *621:A2 0.000155676
2 *717:Y 0.000155676
3 *621:A2 *717:A 0.000506804
4 *621:A2 *717:B 7.9476e-05
*RES
1 *717:Y *621:A2 19.709 
*END

*D_NET *166 0.002595
*CONN
*I *621:B1 I *D sky130_fd_sc_hd__a211oi_1
*I *718:Y O *D sky130_fd_sc_hd__nor2_1
*CAP
1 *621:B1 0.000655551
2 *718:Y 0.000655551
3 *621:B1 *717:B 0.0012839
*RES
1 *718:Y *621:B1 20.1902 
*END

*D_NET *167 0.00740425
*CONN
*I *720:B I *D sky130_fd_sc_hd__xnor2_1
*I *719:Y O *D sky130_fd_sc_hd__xnor2_1
*CAP
1 *720:B 0.0021384
2 *719:Y 0.0021384
3 *720:B *874:A 0.00131873
4 *720:B *293:52 0.000516862
5 *720:B *358:8 0.000240194
6 *720:A *720:B 0.00105166
*RES
1 *719:Y *720:B 35.6137 
*END

*D_NET *168 0.00616509
*CONN
*I *721:B I *D sky130_fd_sc_hd__nor2_1
*I *720:Y O *D sky130_fd_sc_hd__xnor2_1
*CAP
1 *721:B 0.000965749
2 *720:Y 0.000965749
3 *721:B *721:A 2.72343e-05
4 *721:B *331:595 7.9476e-05
5 *721:B *331:601 0.00029535
6 *721:B *358:8 0
7 *720:A *721:B 0.0018759
8 *837:D *721:B 0.00195564
*RES
1 *720:Y *721:B 34.6303 
*END

*D_NET *169 0.0117907
*CONN
*I *726:A I *D sky130_fd_sc_hd__xnor2_1
*I *622:A1 I *D sky130_fd_sc_hd__a211oi_1
*I *722:Y O *D sky130_fd_sc_hd__nand2_1
*CAP
1 *726:A 7.09754e-05
2 *622:A1 0.000336673
3 *722:Y 0.00390025
4 *169:14 0.0043079
5 *622:A1 *622:B1 7.09466e-05
6 *622:A1 *726:B 0
7 *622:A1 *294:74 0
8 *726:A *622:C1 0
9 *726:A *294:74 0
10 *169:14 *818:CLK 0.000485772
11 *169:14 *312:18 0.000997174
12 *694:C *169:14 0
13 *714:A *169:14 0.000343795
14 *159:12 *169:14 0.00127718
*RES
1 *722:Y *169:14 27.8187 
2 *169:14 *622:A1 16.6142 
3 *169:14 *726:A 14.48 
*END

*D_NET *170 0.00340037
*CONN
*I *622:A2 I *D sky130_fd_sc_hd__a211oi_1
*I *723:Y O *D sky130_fd_sc_hd__nand2_1
*CAP
1 *622:A2 0.0012504
2 *723:Y 0.0012504
3 *622:A2 *622:B1 0.000196166
4 *622:A2 *723:B 0.000551691
5 *622:A2 *726:B 0
6 *622:A2 *281:12 0.000151702
7 *622:A2 *294:74 0
8 *869:D *622:A2 0
*RES
1 *723:Y *622:A2 34.0863 
*END

*D_NET *171 0.00784584
*CONN
*I *622:B1 I *D sky130_fd_sc_hd__a211oi_1
*I *724:Y O *D sky130_fd_sc_hd__nor2_1
*CAP
1 *622:B1 0.0018948
2 *724:Y 0.0018948
3 *622:B1 *726:B 4.44643e-05
4 *622:B1 *294:70 0.00253871
5 *622:B1 *294:74 0
6 *622:A1 *622:B1 7.09466e-05
7 *622:A2 *622:B1 0.000196166
8 *869:D *622:B1 0.00120595
*RES
1 *724:Y *622:B1 34.0026 
*END

*D_NET *172 0.00451053
*CONN
*I *726:B I *D sky130_fd_sc_hd__xnor2_1
*I *725:Y O *D sky130_fd_sc_hd__xnor2_1
*CAP
1 *726:B 0.00069326
2 *725:Y 0.00069326
3 *726:B *622:C1 0.00127653
4 *726:B *724:B 0
5 *726:B *727:A 0.00042352
6 *726:B *727:B 0.00029535
7 *726:B *281:12 0.000151702
8 *622:A1 *726:B 0
9 *622:A2 *726:B 0
10 *622:B1 *726:B 4.44643e-05
11 *837:D *726:B 0
12 *869:D *726:B 0.000932441
*RES
1 *725:Y *726:B 36.8064 
*END

*D_NET *173 0.00286112
*CONN
*I *727:B I *D sky130_fd_sc_hd__nor2_1
*I *726:Y O *D sky130_fd_sc_hd__xnor2_1
*CAP
1 *727:B 0.00111248
2 *726:Y 0.00111248
3 *727:B *727:A 0.000340819
4 *726:B *727:B 0.00029535
*RES
1 *726:Y *727:B 24.1029 
*END

*D_NET *174 0.0721683
*CONN
*I *732:A I *D sky130_fd_sc_hd__xnor2_1
*I *623:A1 I *D sky130_fd_sc_hd__a211oi_1
*I *728:Y O *D sky130_fd_sc_hd__nand2_1
*CAP
1 *732:A 0.000184959
2 *623:A1 0
3 *728:Y 0.000553764
4 *174:24 0.0146306
5 *174:18 0.0151281
6 *174:14 0.0012362
7 *732:A *732:B 0
8 *732:A *733:A 0.00031125
9 *174:14 *595:C 0.000380791
10 *174:14 *679:A 0.00162113
11 *174:14 *681:A 0.000163472
12 *174:14 *289:12 2.22322e-05
13 *174:14 *312:18 0.000329395
14 *174:14 *326:27 0.000476856
15 *174:14 *327:34 0.000583428
16 *174:14 *332:16 0.00105561
17 *174:14 *364:8 8.91622e-05
18 *174:18 *599:B 0.00167245
19 *174:18 *599:C 0.000217333
20 *174:18 *602:A 0.00029535
21 *174:18 *602:B 0.00322665
22 *174:18 *603:B 0.0036152
23 *174:18 *603:C 0.00021424
24 *174:18 *706:A1 0.000178324
25 *174:18 *706:A2 0.00280432
26 *174:18 *802:A 0
27 *174:18 *308:6 0.00271985
28 *174:18 *309:18 0.00215017
29 *174:18 *325:16 5.52877e-05
30 *174:18 *326:27 0.000256341
31 *174:18 *327:34 0.00269905
32 *174:24 *669:B 0.000256341
33 *174:24 *732:B 0
34 *174:24 *733:A 6.27732e-05
35 *174:24 *753:A 1.47434e-05
36 *174:24 *802:A 0.0012839
37 *174:24 *851:CLK 0.000780508
38 *174:24 *262:12 0.000506804
39 *174:24 *295:33 0.000551691
40 *174:24 *295:50 0.00029535
41 *174:24 *295:90 0.00166842
42 *708:B *174:18 0.000345503
43 *815:D *174:14 0.00394103
44 *851:D *174:24 0.000667772
45 *861:D *174:24 0.000429343
46 *868:D *174:24 0
47 *870:D *174:24 0.000597079
48 *893:A *174:18 0.000973577
49 *898:A *174:14 0.00136268
50 *15:21 *174:18 0.000895354
51 *33:27 *174:14 0.0006639
*RES
1 *728:Y *174:14 33.8881 
2 *174:14 *174:18 22.2261 
3 *174:18 *174:24 40.0858 
4 *174:24 *623:A1 13.8 
5 *174:24 *732:A 16.4364 
*END

*D_NET *175 0.00333456
*CONN
*I *623:A2 I *D sky130_fd_sc_hd__a211oi_1
*I *729:Y O *D sky130_fd_sc_hd__nand2_1
*CAP
1 *623:A2 0.0010323
2 *729:Y 0.0010323
3 *623:A2 *733:A 0.000506804
4 *623:A2 *295:90 0.000506804
5 *868:D *623:A2 0.000256341
*RES
1 *729:Y *623:A2 25.5048 
*END

*D_NET *176 0.00597053
*CONN
*I *623:B1 I *D sky130_fd_sc_hd__a211oi_1
*I *730:Y O *D sky130_fd_sc_hd__nor2_1
*CAP
1 *623:B1 0.00140744
2 *730:Y 0.00140744
3 *623:B1 *295:90 0.000506804
4 *868:D *623:B1 0.00264885
*RES
1 *730:Y *623:B1 31.994 
*END

*D_NET *177 0.00213567
*CONN
*I *732:B I *D sky130_fd_sc_hd__xnor2_1
*I *731:Y O *D sky130_fd_sc_hd__xnor2_1
*CAP
1 *732:B 0.00074603
2 *731:Y 0.00074603
3 *732:B *624:A2 0
4 *732:B *733:B 0.000262616
5 *732:B *295:80 0.000380998
6 *732:A *732:B 0
7 *174:24 *732:B 0
*RES
1 *731:Y *732:B 34.6722 
*END

*D_NET *178 0.0044391
*CONN
*I *733:B I *D sky130_fd_sc_hd__nor2_1
*I *732:Y O *D sky130_fd_sc_hd__xnor2_1
*CAP
1 *733:B 0.00207442
2 *732:Y 0.00207442
3 *732:B *733:B 0.000262616
4 *835:D *733:B 2.76439e-05
*RES
1 *732:Y *733:B 23.9355 
*END

*D_NET *179 0.0225915
*CONN
*I *738:A I *D sky130_fd_sc_hd__xnor2_1
*I *624:A1 I *D sky130_fd_sc_hd__a211oi_1
*I *734:Y O *D sky130_fd_sc_hd__nand2_1
*CAP
1 *738:A 0
2 *624:A1 0.000695182
3 *734:Y 0.00644062
4 *179:16 0.0071358
5 *624:A1 *624:A2 0.000461419
6 *624:A1 *624:B1 3.90084e-05
7 *624:A1 *735:A 0.00144934
8 *624:A1 *738:B 0.00231083
9 *624:A1 *331:646 0.000134764
10 *179:16 *653:A2 0.000111079
11 *179:16 *738:B 0.000243245
12 *179:16 *765:B 0.000102678
13 *179:16 *293:42 0
14 *179:16 *293:124 0.000186188
15 *179:16 *318:24 0.000416199
16 *179:16 *331:79 0.000499378
17 *867:D *624:A1 0.000563214
18 *867:D *179:16 3.52009e-05
19 *888:A *179:16 0.000748741
20 *902:A *179:16 0
21 *150:10 *179:16 0.00101859
*RES
1 *734:Y *179:16 32.1328 
2 *179:16 *624:A1 22.5251 
3 *179:16 *738:A 13.8 
*END

*D_NET *180 0.00300579
*CONN
*I *624:A2 I *D sky130_fd_sc_hd__a211oi_1
*I *735:Y O *D sky130_fd_sc_hd__nand2_1
*CAP
1 *624:A2 0.000347879
2 *735:Y 0.000347879
3 *624:A2 *624:B1 0
4 *624:A2 *735:A 0.000932441
5 *624:A2 *735:B 2.8989e-05
6 *624:A2 *331:646 0.000506804
7 *624:A2 *355:12 0.000380377
8 *624:A1 *624:A2 0.000461419
9 *732:B *624:A2 0
10 *867:D *624:A2 0
*RES
1 *735:Y *624:A2 32.9983 
*END

*D_NET *181 0.00239855
*CONN
*I *624:B1 I *D sky130_fd_sc_hd__a211oi_1
*I *736:Y O *D sky130_fd_sc_hd__nor2_1
*CAP
1 *624:B1 0.000236314
2 *736:Y 0.000236314
3 *624:B1 *295:27 4.44643e-05
4 *624:B1 *295:72 7.9476e-05
5 *624:B1 *295:80 0.000128171
6 *624:B1 *331:644 0.000506804
7 *624:B1 *331:646 0.000506804
8 *624:A1 *624:B1 3.90084e-05
9 *624:A2 *624:B1 0
10 *829:D *624:B1 0.000310596
11 *867:D *624:B1 0.000310596
*RES
1 *736:Y *624:B1 31.5964 
*END

*D_NET *182 0.00514002
*CONN
*I *738:B I *D sky130_fd_sc_hd__xnor2_1
*I *737:Y O *D sky130_fd_sc_hd__xnor2_1
*CAP
1 *738:B 5.1407e-05
2 *737:Y 5.1407e-05
3 *624:A1 *738:B 0.00231083
4 *867:D *738:B 0.00248313
5 *179:16 *738:B 0.000243245
*RES
1 *737:Y *738:B 32.7263 
*END

*D_NET *183 0.00320334
*CONN
*I *739:B I *D sky130_fd_sc_hd__nor2_1
*I *738:Y O *D sky130_fd_sc_hd__xnor2_1
*CAP
1 *739:B 0.00112332
2 *738:Y 0.00112332
3 *739:B *739:A 0.000577522
4 *834:D *739:B 0.000379182
*RES
1 *738:Y *739:B 24.3958 
*END

*D_NET *184 0.0291266
*CONN
*I *744:A I *D sky130_fd_sc_hd__xnor2_1
*I *625:A1 I *D sky130_fd_sc_hd__a211oi_1
*I *740:Y O *D sky130_fd_sc_hd__nand2_1
*CAP
1 *744:A 0.00164373
2 *625:A1 0.00179345
3 *740:Y 0.00169875
4 *184:22 0.00184847
5 *625:A1 *625:C1 0.000506804
6 *625:A1 *632:A2 0.000506804
7 *744:A *632:A2 0.000373367
8 *744:A *632:B1 0.000256341
9 *744:A *632:B2 0.002061
10 *744:A *634:A 7.09466e-05
11 *744:A *744:B 0.000243245
12 *744:A *745:B 0
13 *184:22 *689:B2 0.00029535
14 *184:22 *763:A2 0.00189529
15 *184:22 *819:CLK 0.000704018
16 *184:22 *845:CLK 0.000211205
17 *184:22 *884:A 0.00115683
18 *184:22 *920:A 0.00207064
19 *184:22 *298:66 0.00121326
20 *184:22 *298:70 0.000556332
21 *184:22 *309:33 0.00144934
22 *184:22 *322:10 0.00209901
23 *184:22 *347:12 0.000262863
24 *184:22 *369:219 0.00110474
25 *184:22 *369:232 0.000633616
26 *634:B *744:A 0.00039738
27 *866:D *625:A1 8.91622e-05
28 *866:D *744:A 0.000165863
29 *75:12 *184:22 0.000133393
30 *94:12 *184:22 0.00368537
*RES
1 *740:Y *184:22 49.8737 
2 *184:22 *625:A1 10.8902 
3 *625:A1 *744:A 39.6311 
*END

*D_NET *185 0.0110686
*CONN
*I *625:A2 I *D sky130_fd_sc_hd__a211oi_1
*I *741:Y O *D sky130_fd_sc_hd__nand2_1
*CAP
1 *625:A2 0.00240911
2 *741:Y 0.00240911
3 *625:A2 *632:A1 2.8989e-05
4 *625:A2 *633:A 0
5 *625:A2 *741:A 0.000421569
6 *625:A2 *741:B 9.73295e-05
7 *625:A2 *755:B1 0.00110474
8 *625:A2 *831:CLK 0.000121518
9 *625:A2 *298:16 0.00063792
10 *625:A2 *354:12 0.000223071
11 *634:C *625:A2 0.0036152
*RES
1 *741:Y *625:A2 40.3006 
*END

*D_NET *186 0.0174268
*CONN
*I *625:B1 I *D sky130_fd_sc_hd__a211oi_1
*I *742:Y O *D sky130_fd_sc_hd__nor2_1
*CAP
1 *625:B1 0.00464059
2 *742:Y 0.00464059
3 *625:B1 *742:A 0.00042352
4 *625:B1 *742:B 7.9476e-05
5 *625:B1 *744:B 3.99301e-05
6 *625:B1 *755:A2 0.000932441
7 *625:B1 *755:B1 0.000211205
8 *625:B1 *757:B 0.000587843
9 *625:B1 *278:14 0.00029535
10 *625:B1 *278:16 0.000167179
11 *625:B1 *351:18 0.00110015
12 *829:D *625:B1 0.000266786
13 *831:D *625:B1 0.00404176
*RES
1 *742:Y *625:B1 42.393 
*END

*D_NET *187 0.00373634
*CONN
*I *744:B I *D sky130_fd_sc_hd__xnor2_1
*I *743:Y O *D sky130_fd_sc_hd__xnor2_1
*CAP
1 *744:B 0.00054846
2 *743:Y 0.00054846
3 *744:B *741:A 0.00110474
4 *744:B *745:B 8.89286e-05
5 *744:B *278:14 0.000172635
6 *744:B *351:18 2.41884e-05
7 *744:B *354:29 0.000965756
8 *625:B1 *744:B 3.99301e-05
9 *744:A *744:B 0.000243245
*RES
1 *743:Y *744:B 33.3749 
*END

*D_NET *188 0.0077619
*CONN
*I *745:B I *D sky130_fd_sc_hd__nor2_1
*I *744:Y O *D sky130_fd_sc_hd__xnor2_1
*CAP
1 *745:B 0.001063
2 *744:Y 0.001063
3 *745:B *634:A 0.000506804
4 *745:B *741:A 7.04018e-05
5 *745:B *754:B 0.00137839
6 *745:B *331:363 0.0015542
7 *745:B *351:18 0.000415544
8 *745:B *351:27 0.00155069
9 *745:B *354:29 7.09466e-05
10 *744:A *745:B 0
11 *744:B *745:B 8.89286e-05
*RES
1 *744:Y *745:B 40.5308 
*END

*D_NET *189 0.00602563
*CONN
*I *748:C I *D sky130_fd_sc_hd__and3_1
*I *747:B1 I *D sky130_fd_sc_hd__a21oi_1
*I *746:X O *D sky130_fd_sc_hd__xor2_1
*CAP
1 *748:C 3.60359e-05
2 *747:B1 7.1729e-05
3 *746:X 0.000438858
4 *189:10 0.000546623
5 *747:B1 *322:84 0.00120595
6 *747:B1 *322:99 0
7 *747:B1 *331:355 0.00029535
8 *747:B1 *331:357 3.90084e-05
9 *748:C *626:A2 0.000118254
10 *748:C *313:24 9.98251e-06
11 *189:10 *761:B 0.000606195
12 *189:10 *322:141 0.000103664
13 *189:10 *322:156 0.000172198
14 *829:D *747:B1 0.000932441
15 *829:D *189:10 0.00144934
16 *830:D *189:10 0
*RES
1 *746:X *189:10 18.8635 
2 *189:10 *747:B1 16.8339 
3 *189:10 *748:C 14.0302 
*END

*D_NET *190 0.00330603
*CONN
*I *749:B I *D sky130_fd_sc_hd__nor3_1
*I *747:Y O *D sky130_fd_sc_hd__a21oi_1
*CAP
1 *749:B 0.000312031
2 *747:Y 0.000312031
3 *749:B *747:A2 0.00131605
4 *749:B *322:76 3.99301e-05
5 *749:B *322:84 5.73995e-05
6 *749:B *331:355 0.00102861
7 *749:B *331:407 9.93907e-05
8 *74:10 *749:B 0.000140596
*RES
1 *747:Y *749:B 32.538 
*END

*D_NET *191 0.00163781
*CONN
*I *749:C I *D sky130_fd_sc_hd__nor3_1
*I *748:X O *D sky130_fd_sc_hd__and3_1
*CAP
1 *749:C 7.83438e-05
2 *748:X 7.83438e-05
3 *749:C *626:A2 0.000159515
4 *749:C *313:24 0.000814802
5 *749:C *331:349 0.000506804
*RES
1 *748:X *749:C 20.5668 
*END

*D_NET *192 0.00340165
*CONN
*I *751:B1 I *D sky130_fd_sc_hd__a21oi_1
*I *752:C I *D sky130_fd_sc_hd__and3_1
*I *750:X O *D sky130_fd_sc_hd__xor2_1
*CAP
1 *751:B1 7.58464e-05
2 *752:C 7.9348e-05
3 *750:X 0.000111481
4 *192:6 0.000266675
5 *751:B1 *629:A2 0.000344598
6 *751:B1 *752:B 3.90084e-05
7 *751:B1 *312:22 0.00110474
8 *751:B1 *369:193 0.000592203
9 *752:C *752:B 9.98251e-06
10 *752:C *753:C 1.72006e-05
11 *164:12 *752:C 2.72343e-05
12 *164:14 *752:C 0.000574378
13 *164:14 *192:6 0.000158952
*RES
1 *750:X *192:6 10.409 
2 *192:6 *752:C 10.8693 
3 *192:6 *751:B1 21.9198 
*END

*D_NET *193 0.00589147
*CONN
*I *753:B I *D sky130_fd_sc_hd__nor3_2
*I *751:Y O *D sky130_fd_sc_hd__a21oi_1
*CAP
1 *753:B 0.00164649
2 *751:Y 0.00164649
3 *753:B *629:A2 0
4 *753:B *753:A 7.09466e-05
5 *753:B *753:C 0.000506804
6 *753:B *317:22 0.00042352
7 *753:B *369:181 0.00110373
8 *753:B *369:187 0.000114799
9 *753:B *369:193 0.000132268
10 *164:12 *753:B 0.000246425
*RES
1 *751:Y *753:B 34.0235 
*END

*D_NET *194 0.00228958
*CONN
*I *753:C I *D sky130_fd_sc_hd__nor3_2
*I *752:X O *D sky130_fd_sc_hd__and3_1
*CAP
1 *753:C 0.000451126
2 *752:X 0.000451126
3 *753:C *369:181 0.000167179
4 *752:C *753:C 1.72006e-05
5 *753:B *753:C 0.000506804
6 *164:12 *753:C 0.000696141
*RES
1 *752:X *753:C 23.0986 
*END

*D_NET *195 0.0113446
*CONN
*I *755:B1 I *D sky130_fd_sc_hd__a21oi_1
*I *756:C I *D sky130_fd_sc_hd__and3_1
*I *754:X O *D sky130_fd_sc_hd__xor2_1
*CAP
1 *755:B1 0.00024341
2 *756:C 0.000283927
3 *754:X 6.69124e-05
4 *195:6 0.00059425
5 *755:B1 *632:A1 0.000248477
6 *755:B1 *755:A2 0.002061
7 *755:B1 *757:B 0.00264208
8 *755:B1 *298:16 0.00322665
9 *755:B1 *322:99 0.000415544
10 *756:C *756:A 0.000118254
11 *195:6 *756:A 0.000128171
12 *625:A2 *755:B1 0.00110474
13 *625:B1 *755:B1 0.000211205
*RES
1 *754:X *195:6 9.92771 
2 *195:6 *756:C 11.6434 
3 *195:6 *755:B1 28.4898 
*END

*D_NET *196 0.010906
*CONN
*I *757:B I *D sky130_fd_sc_hd__nor3_1
*I *755:Y O *D sky130_fd_sc_hd__a21oi_1
*CAP
1 *757:B 0.00164989
2 *755:Y 0.00164989
3 *757:B *755:A2 0.000791676
4 *757:B *311:16 0.000689196
5 *757:B *311:18 0.00196623
6 *757:B *322:99 0.000422411
7 *757:B *331:363 0.000506804
8 *625:B1 *757:B 0.000587843
9 *755:B1 *757:B 0.00264208
*RES
1 *755:Y *757:B 39.0034 
*END

*D_NET *197 0.00495326
*CONN
*I *757:C I *D sky130_fd_sc_hd__nor3_1
*I *756:X O *D sky130_fd_sc_hd__and3_1
*CAP
1 *757:C 0.000454561
2 *756:X 0.000454561
3 *757:C *625:C1 0.000931934
4 *757:C *311:16 0.000845785
5 *757:C *311:18 7.09466e-05
6 *757:C *322:84 0.000167179
7 *757:C *331:357 0.000506804
8 *757:C *331:363 0.0012839
9 *829:D *757:C 7.04018e-05
10 *830:D *757:C 0.000167179
*RES
1 *756:X *757:C 32.5798 
*END

*D_NET *198 0.00774938
*CONN
*I *760:C I *D sky130_fd_sc_hd__and3_1
*I *759:B1 I *D sky130_fd_sc_hd__a21oi_1
*I *758:X O *D sky130_fd_sc_hd__xor2_1
*CAP
1 *760:C 4.53996e-06
2 *759:B1 3.5737e-05
3 *758:X 0.000468673
4 *198:10 0.00050895
5 *759:B1 *761:B 0.000931934
6 *760:C *635:A2 0.000118254
7 *760:C *310:44 1.38219e-05
8 *760:C *331:407 0.000185828
9 *198:10 *635:B1 0
10 *198:10 *761:B 0.00317233
11 *830:D *759:B1 0.000931427
12 *830:D *198:10 0.00137788
*RES
1 *758:X *198:10 21.458 
2 *198:10 *759:B1 15.725 
3 *198:10 *760:C 14.0302 
*END

*D_NET *199 0.00929432
*CONN
*I *761:B I *D sky130_fd_sc_hd__nor3_1
*I *759:Y O *D sky130_fd_sc_hd__a21oi_1
*CAP
1 *761:B 0.000564568
2 *759:Y 0.000564568
3 *761:B *759:A2 0.000662191
4 *761:B *761:C 0.00231083
5 *761:B *299:33 0
6 *759:B1 *761:B 0.000931934
7 *829:D *761:B 9.66445e-05
8 *830:D *761:B 0.0002814
9 *77:8 *761:B 0.000103664
10 *189:10 *761:B 0.000606195
11 *198:10 *761:B 0.00317233
*RES
1 *759:Y *761:B 39.0871 
*END

*D_NET *200 0.00330612
*CONN
*I *761:C I *D sky130_fd_sc_hd__nor3_1
*I *760:X O *D sky130_fd_sc_hd__and3_1
*CAP
1 *761:C 9.5938e-05
2 *760:X 9.5938e-05
3 *761:C *299:33 0
4 *761:B *761:C 0.00231083
5 *829:D *761:C 0.000803408
*RES
1 *760:X *761:C 32.3706 
*END

*D_NET *201 0.00425524
*CONN
*I *764:C I *D sky130_fd_sc_hd__and3_1
*I *763:B1 I *D sky130_fd_sc_hd__a21oi_1
*I *762:X O *D sky130_fd_sc_hd__xor2_1
*CAP
1 *764:C 0.00015236
2 *763:B1 0.000406345
3 *762:X 0
4 *201:4 0.000558705
5 *763:B1 *762:A 9.93907e-05
6 *763:B1 *763:A2 0.000118254
7 *763:B1 *765:B 0.000229598
8 *763:B1 *920:A 0.000861494
9 *763:B1 *331:695 0
10 *763:B1 *344:6 0.000506804
11 *763:B1 *369:232 0.000415544
12 *764:C *765:C 0.000437342
13 *764:C *857:CLK 0
14 *764:C *369:243 0.000469404
*RES
1 *762:X *201:4 9.3 
2 *201:4 *763:B1 23.0078 
3 *201:4 *764:C 12.1247 
*END

*D_NET *202 0.0088715
*CONN
*I *765:B I *D sky130_fd_sc_hd__nor3_1
*I *763:Y O *D sky130_fd_sc_hd__a21oi_1
*CAP
1 *765:B 0.00355638
2 *763:Y 0.00355638
3 *765:B *739:A 0.00018314
4 *765:B *763:A2 2.41884e-05
5 *765:B *825:CLK 0.000230702
6 *765:B *331:695 6.11237e-05
7 *763:B1 *765:B 0.000229598
8 *825:D *765:B 3.19632e-05
9 *828:D *765:B 0.000895354
10 *179:16 *765:B 0.000102678
*RES
1 *763:Y *765:B 28.5387 
*END

*D_NET *203 0.0063117
*CONN
*I *765:C I *D sky130_fd_sc_hd__nor3_1
*I *764:X O *D sky130_fd_sc_hd__and3_1
*CAP
1 *765:C 0.00189899
2 *764:X 0.00189899
3 *765:C *762:A 0.00029535
4 *765:C *764:B 0.000506804
5 *765:C *279:16 0
6 *765:C *295:6 0.000506804
7 *765:C *369:243 0.000104816
8 *764:C *765:C 0.000437342
9 *74:10 *765:C 0.000662605
*RES
1 *764:X *765:C 41.2003 
*END

*D_NET *204 0.00532933
*CONN
*I *768:C I *D sky130_fd_sc_hd__and3_1
*I *767:B1 I *D sky130_fd_sc_hd__a21oi_1
*I *766:X O *D sky130_fd_sc_hd__xor2_1
*CAP
1 *768:C 0.000281453
2 *767:B1 0
3 *766:X 0.00032377
4 *204:10 0.000605223
5 *768:C *768:A 0.000760206
6 *768:C *768:B 0.000845192
7 *768:C *769:B 0.000438518
8 *768:C *769:C 0.000118254
9 *768:C *331:298 0
10 *204:10 *271:12 0.000243245
11 *204:10 *271:27 0
12 *204:10 *322:49 0.000266786
13 *204:10 *331:298 0
14 *204:10 *331:320 0.000103664
15 *827:D *768:C 0.000931427
16 *80:18 *768:C 0.000411586
*RES
1 *766:X *204:10 17.4198 
2 *204:10 *767:B1 13.8 
3 *204:10 *768:C 20.9977 
*END

*D_NET *205 0.00392001
*CONN
*I *769:B I *D sky130_fd_sc_hd__nor3_1
*I *767:Y O *D sky130_fd_sc_hd__a21oi_1
*CAP
1 *769:B 0.000810991
2 *767:Y 0.000810991
3 *769:B *615:A 0.000242739
4 *769:B *768:A 0.000167179
5 *769:B *313:18 0.000895354
6 *769:B *331:298 0
7 *768:C *769:B 0.000438518
8 *827:D *769:B 0.000450571
9 *80:18 *769:B 0.000103664
*RES
1 *767:Y *769:B 34.1072 
*END

*D_NET *206 0.000862935
*CONN
*I *769:C I *D sky130_fd_sc_hd__nor3_1
*I *768:X O *D sky130_fd_sc_hd__and3_1
*CAP
1 *769:C 6.12272e-05
2 *768:X 6.12272e-05
3 *769:C *768:A 0.000128171
4 *768:C *769:C 0.000118254
5 *80:18 *769:C 0.000494056
*RES
1 *768:X *769:C 20.0856 
*END

*D_NET *207 0.00441354
*CONN
*I *772:C I *D sky130_fd_sc_hd__and3_1
*I *771:B1 I *D sky130_fd_sc_hd__a21oi_1
*I *770:X O *D sky130_fd_sc_hd__xor2_1
*CAP
1 *772:C 0.000200103
2 *771:B1 0
3 *770:X 8.49391e-05
4 *207:8 0.000285042
5 *772:C *772:A 0.00115683
6 *772:C *773:B 0.00145819
7 *772:C *773:C 5.89736e-05
8 *772:C *322:229 0.000895354
9 *207:8 *322:229 7.9476e-05
10 *80:18 *772:C 2.74519e-05
11 *80:18 *207:8 0.000167179
*RES
1 *770:X *207:8 10.7856 
2 *207:8 *771:B1 9.3 
3 *207:8 *772:C 14.1961 
*END

*D_NET *208 0.00595921
*CONN
*I *773:B I *D sky130_fd_sc_hd__nor3_1
*I *771:Y O *D sky130_fd_sc_hd__a21oi_1
*CAP
1 *773:B 0.000175574
2 *771:Y 0.000175574
3 *773:B *773:C 0.000506804
4 *772:C *773:B 0.00145819
5 *80:18 *773:B 0.00364307
*RES
1 *771:Y *773:B 23.6635 
*END

*D_NET *209 0.000834009
*CONN
*I *773:C I *D sky130_fd_sc_hd__nor3_1
*I *772:X O *D sky130_fd_sc_hd__and3_1
*CAP
1 *773:C 0.000134116
2 *772:X 0.000134116
3 *772:C *773:C 5.89736e-05
4 *773:B *773:C 0.000506804
*RES
1 *772:X *773:C 20.0856 
*END

*D_NET *210 0.0028504
*CONN
*I *775:B1 I *D sky130_fd_sc_hd__a21oi_1
*I *776:C I *D sky130_fd_sc_hd__and3_1
*I *774:X O *D sky130_fd_sc_hd__xor2_1
*CAP
1 *775:B1 0
2 *776:C 0.000204443
3 *774:X 0.00029485
4 *210:10 0.000499293
5 *776:C *322:139 0.00114876
6 *210:10 *293:86 0
7 *210:10 *305:53 0.000551358
8 *210:10 *345:12 0.000151702
*RES
1 *774:X *210:10 22.7149 
2 *210:10 *776:C 10.7228 
3 *210:10 *775:B1 9.3 
*END

*D_NET *211 0.00205737
*CONN
*I *777:B I *D sky130_fd_sc_hd__nor3_1
*I *775:Y O *D sky130_fd_sc_hd__a21oi_1
*CAP
1 *777:B 0.000198486
2 *775:Y 0.000198486
3 *777:B *777:C 0.000211205
4 *777:B *313:18 0.000895354
5 *777:B *322:135 0.000310596
6 *825:D *777:B 0.000243245
*RES
1 *775:Y *777:B 30.2782 
*END

*D_NET *212 0.00288786
*CONN
*I *777:C I *D sky130_fd_sc_hd__nor3_1
*I *776:X O *D sky130_fd_sc_hd__and3_1
*CAP
1 *777:C 0.000418538
2 *776:X 0.000418538
3 *777:C *776:B 0.000238126
4 *777:C *293:86 0
5 *777:C *313:18 0.000506804
6 *777:C *331:345 0.000506804
7 *777:B *777:C 0.000211205
8 *825:D *777:C 0.000587843
*RES
1 *776:X *777:C 31.1361 
*END

*D_NET *213 0.00697977
*CONN
*I *779:B1 I *D sky130_fd_sc_hd__a21oi_1
*I *780:C I *D sky130_fd_sc_hd__and3_1
*I *778:X O *D sky130_fd_sc_hd__xor2_1
*CAP
1 *779:B1 0.000126786
2 *780:C 3.53158e-05
3 *778:X 0.000916078
4 *213:10 0.00107818
5 *779:B1 *650:A2 0.000804498
6 *779:B1 *650:B1 4.14128e-05
7 *779:B1 *780:B 0.00126695
8 *779:B1 *369:273 0.000587843
9 *779:B1 *369:282 0.000116806
10 *780:C *857:CLK 0.000185828
11 *213:10 *650:B1 0.000240194
12 *213:10 *780:B 0.000760142
13 *213:10 *781:B 0.000211205
14 *213:10 *268:14 0.000493736
15 *213:10 *331:525 0.000114799
*RES
1 *778:X *213:10 18.5078 
2 *213:10 *780:C 14.0302 
3 *213:10 *779:B1 16.9804 
*END

*D_NET *214 0.00381608
*CONN
*I *781:B I *D sky130_fd_sc_hd__nor3_1
*I *779:Y O *D sky130_fd_sc_hd__a21oi_1
*CAP
1 *781:B 0.000486272
2 *779:Y 0.000486272
3 *781:B *780:B 0.00144934
4 *781:B *781:C 0.000927321
5 *781:B *268:14 0
6 *781:B *297:48 0
7 *781:B *343:20 0
8 *781:B *362:10 0
9 *781:B *369:273 4.44643e-05
10 *655:C *781:B 0
11 *824:D *781:B 0.000211205
12 *213:10 *781:B 0.000211205
*RES
1 *779:Y *781:B 34.0654 
*END

*D_NET *215 0.00299625
*CONN
*I *781:C I *D sky130_fd_sc_hd__nor3_1
*I *780:X O *D sky130_fd_sc_hd__and3_1
*CAP
1 *781:C 0.000364909
2 *780:X 0.000364909
3 *781:C *857:CLK 0.000103664
4 *781:C *268:14 0
5 *781:C *297:48 0
6 *781:C *331:79 0.000140804
7 *781:C *331:525 0.000506804
8 *781:B *781:C 0.000927321
9 *824:D *781:C 0.000587843
*RES
1 *780:X *781:C 31.1361 
*END

*D_NET *216 0.00558505
*CONN
*I *783:B1 I *D sky130_fd_sc_hd__a21oi_1
*I *784:C I *D sky130_fd_sc_hd__and3_1
*I *782:X O *D sky130_fd_sc_hd__xor2_1
*CAP
1 *783:B1 8.35473e-05
2 *784:C 0
3 *782:X 9.48208e-05
4 *216:12 0.000178368
5 *783:B1 *785:C 0.000524005
6 *783:B1 *303:25 0.0012175
7 *783:B1 *369:303 0.00148663
8 *783:B1 *369:316 0.000763145
9 *216:12 *653:A2 0.000262616
10 *216:12 *785:C 2.72343e-05
11 *216:12 *303:25 9.98251e-06
12 *216:12 *369:299 0.000506804
13 *216:12 *369:303 0.000430395
*RES
1 *782:X *216:12 12.1247 
2 *216:12 *784:C 9.3 
3 *216:12 *783:B1 13.3801 
*END

*D_NET *217 0.00175812
*CONN
*I *785:B I *D sky130_fd_sc_hd__nor3_1
*I *783:Y O *D sky130_fd_sc_hd__a21oi_1
*CAP
1 *785:B 0.00023711
2 *783:Y 0.00023711
3 *785:B *303:25 0.0012839
*RES
1 *783:Y *785:B 20.1902 
*END

*D_NET *218 0.00110818
*CONN
*I *785:C I *D sky130_fd_sc_hd__nor3_1
*I *784:X O *D sky130_fd_sc_hd__and3_1
*CAP
1 *785:C 6.53464e-05
2 *784:X 6.53464e-05
3 *785:C *303:25 0.000426252
4 *783:B1 *785:C 0.000524005
5 *216:12 *785:C 2.72343e-05
*RES
1 *784:X *785:C 20.0856 
*END

*D_NET *219 0.00544231
*CONN
*I *787:B1 I *D sky130_fd_sc_hd__a21oi_1
*I *788:C I *D sky130_fd_sc_hd__and3_1
*I *786:X O *D sky130_fd_sc_hd__xor2_1
*CAP
1 *787:B1 1.42474e-05
2 *788:C 8.44193e-06
3 *786:X 9.91921e-05
4 *219:10 0.000121881
5 *787:B1 *787:A1 0.0007771
6 *788:C *787:A1 0.000760206
7 *219:10 *855:CLK 0.00127704
8 *219:10 *302:23 0.000587843
9 *219:10 *322:399 0.000140804
10 *219:10 *335:16 0
11 *911:A *787:B1 0.000895354
12 *911:A *788:C 0.000760206
*RES
1 *786:X *219:10 20.9364 
2 *219:10 *788:C 10.2416 
3 *219:10 *787:B1 10.409 
*END

*D_NET *220 0.00773872
*CONN
*I *789:B I *D sky130_fd_sc_hd__nor3_1
*I *787:Y O *D sky130_fd_sc_hd__a21oi_1
*CAP
1 *789:B 0.00112979
2 *787:Y 0.00112979
3 *789:B *787:A2 0.000128171
4 *789:B *789:C 0.000984282
5 *789:B *326:10 0.00231083
6 *822:D *789:B 0.00196623
7 *911:A *789:B 1.47434e-05
8 *914:A *789:B 7.48689e-05
*RES
1 *787:Y *789:B 34.9233 
*END

*D_NET *221 0.00565712
*CONN
*I *789:C I *D sky130_fd_sc_hd__nor3_1
*I *788:X O *D sky130_fd_sc_hd__and3_1
*CAP
1 *789:C 0.000447952
2 *788:X 0.000447952
3 *789:C *658:A 0.000506804
4 *789:C *696:A 0.000128171
5 *789:C *787:A2 0.00167245
6 *789:C *855:CLK 0.000285095
7 *789:C *302:23 0
8 *789:B *789:C 0.000984282
9 *822:D *789:C 0.00087381
10 *855:D *789:C 0.000310596
*RES
1 *788:X *789:C 35.9067 
*END

*D_NET *222 0.0169331
*CONN
*I *792:C I *D sky130_fd_sc_hd__and3_1
*I *791:B1 I *D sky130_fd_sc_hd__a21oi_1
*I *790:X O *D sky130_fd_sc_hd__xor2_1
*CAP
1 *792:C 9.96757e-05
2 *791:B1 0.000400375
3 *790:X 0.000815459
4 *222:18 0.00131551
5 *791:B1 *793:C 0.00410477
6 *791:B1 *301:81 0.000140804
7 *791:B1 *310:26 0.00101859
8 *791:B1 *322:422 0.00248313
9 *791:B1 *322:439 0
10 *792:C *797:C 0
11 *792:C *331:269 0
12 *222:18 *662:A2 0
13 *222:18 *822:CLK 0.000506804
14 *222:18 *301:81 0
15 *222:18 *326:10 0.00110474
16 *222:18 *335:16 0.002061
17 *821:D *791:B1 0.000428415
18 *822:D *222:18 0.000933364
19 *919:A *222:18 0.000506804
20 *7:17 *792:C 7.14134e-06
21 *7:17 *222:18 0.00100655
*RES
1 *790:X *222:18 27.7784 
2 *222:18 *791:B1 29.6615 
3 *222:18 *792:C 10.2834 
*END

*D_NET *223 0.00236139
*CONN
*I *793:B I *D sky130_fd_sc_hd__nor3_1
*I *791:Y O *D sky130_fd_sc_hd__a21oi_1
*CAP
1 *793:B 9.61269e-05
2 *791:Y 9.61269e-05
3 *793:B *793:A 0.000853888
4 *793:B *793:C 0.00102374
5 *793:B *305:32 0.000163329
6 *793:B *310:26 0.000128171
7 *909:A *793:B 0
*RES
1 *791:Y *793:B 21.5293 
*END

*D_NET *224 0.0101263
*CONN
*I *793:C I *D sky130_fd_sc_hd__nor3_1
*I *792:X O *D sky130_fd_sc_hd__and3_1
*CAP
1 *793:C 0.000567284
2 *792:X 0.000567284
3 *793:C *659:B1 0.000157096
4 *793:C *791:A1 0.000633616
5 *793:C *793:A 0.000128171
6 *793:C *301:81 0.00127704
7 *793:C *310:26 0.000895354
8 *793:C *322:439 0.000105603
9 *793:C *335:16 0.000506804
10 *793:C *336:29 0.000159548
11 *791:B1 *793:C 0.00410477
12 *793:B *793:C 0.00102374
*RES
1 *792:X *793:C 38.6477 
*END

*D_NET *225 0.00577451
*CONN
*I *795:B1 I *D sky130_fd_sc_hd__a21oi_1
*I *796:C I *D sky130_fd_sc_hd__and3_1
*I *794:X O *D sky130_fd_sc_hd__xor2_1
*CAP
1 *795:B1 0
2 *796:C 6.25499e-05
3 *794:X 0.000532416
4 *225:12 0.000594966
5 *796:C *796:A 0
6 *796:C *796:B 0.00039614
7 *796:C *322:330 0.00114876
8 *225:12 *794:A 0
9 *225:12 *797:B 4.44643e-05
10 *225:12 *797:C 0.00234781
11 *225:12 *331:269 0.000506804
12 *225:12 *331:282 0
13 *225:12 *339:16 0.000140596
*RES
1 *794:X *225:12 25.1211 
2 *225:12 *796:C 11.225 
3 *225:12 *795:B1 9.3 
*END

*D_NET *226 0.0051601
*CONN
*I *797:B I *D sky130_fd_sc_hd__nor3_1
*I *795:Y O *D sky130_fd_sc_hd__a21oi_1
*CAP
1 *797:B 0.000760893
2 *795:Y 0.000760893
3 *797:B *796:B 0.000256341
4 *797:B *797:C 0.000829203
5 *797:B *335:16 0.000400179
6 *797:B *339:16 0.000587843
7 *797:B *348:18 0.000760142
8 *820:D *797:B 0.000760142
9 *225:12 *797:B 4.44643e-05
*RES
1 *795:Y *797:B 33.9608 
*END

*D_NET *227 0.00632674
*CONN
*I *797:C I *D sky130_fd_sc_hd__nor3_1
*I *796:X O *D sky130_fd_sc_hd__and3_1
*CAP
1 *797:C 0.000328066
2 *796:X 0.000328066
3 *797:C *796:B 0.000895354
4 *797:C *331:269 7.9476e-05
5 *797:C *339:16 0.000760142
6 *792:C *797:C 0
7 *797:B *797:C 0.000829203
8 *820:D *797:C 0.000758622
9 *225:12 *797:C 0.00234781
*RES
1 *796:X *797:C 34.6094 
*END

*D_NET *228 0.00920237
*CONN
*I *799:B1 I *D sky130_fd_sc_hd__a21oi_1
*I *800:C I *D sky130_fd_sc_hd__and3_1
*I *798:X O *D sky130_fd_sc_hd__xor2_1
*CAP
1 *799:B1 0
2 *800:C 7.77855e-05
3 *798:X 0.000717818
4 *228:14 0.000795603
5 *800:C *800:A 0.00114876
6 *800:C *801:C 0.000760206
7 *228:14 *665:B1 0.000128171
8 *228:14 *798:B 0.0012839
9 *228:14 *799:A1 0.000895354
10 *228:14 *800:A 0.0007771
11 *228:14 *800:B 3.99301e-05
12 *228:14 *293:177 0
13 *228:14 *307:12 0.00144934
14 *228:14 *324:24 0.000114799
15 *228:14 *334:22 0.000506804
16 *667:B *228:14 0.000506804
*RES
1 *798:X *228:14 26.3974 
2 *228:14 *800:C 10.7228 
3 *228:14 *799:B1 9.3 
*END

*D_NET *229 0.00302607
*CONN
*I *801:B I *D sky130_fd_sc_hd__nor3_1
*I *799:Y O *D sky130_fd_sc_hd__a21oi_1
*CAP
1 *801:B 0.000363513
2 *799:Y 0.000363513
3 *801:B *800:A 0.000679861
4 *801:B *800:B 0.0012839
5 *801:B *801:C 0.00033528
*RES
1 *799:Y *801:B 22.5964 
*END

*D_NET *230 0.00422824
*CONN
*I *801:C I *D sky130_fd_sc_hd__nor3_1
*I *800:X O *D sky130_fd_sc_hd__and3_1
*CAP
1 *801:C 0.00128215
2 *800:X 0.00128215
3 *801:C *800:A 0.000529444
4 *800:C *801:C 0.000760206
5 *801:B *801:C 0.00033528
6 *819:D *801:C 3.90084e-05
*RES
1 *800:X *801:C 23.6007 
*END

*D_NET *231 0.00338096
*CONN
*I *803:B1 I *D sky130_fd_sc_hd__a21oi_1
*I *804:C I *D sky130_fd_sc_hd__and3_1
*I *802:X O *D sky130_fd_sc_hd__xor2_1
*CAP
1 *803:B1 4.59593e-06
2 *804:C 8.28992e-06
3 *802:X 0.000181346
4 *231:10 0.000194232
5 *803:B1 *369:171 0.00038855
6 *804:C *369:171 0.000760206
7 *231:10 *668:A2 0
8 *1:18 *231:10 0.000576727
9 *164:12 *803:B1 0.000506804
10 *164:12 *804:C 0.000760206
*RES
1 *802:X *231:10 20.9364 
2 *231:10 *804:C 10.2416 
3 *231:10 *803:B1 9.92771 
*END

*D_NET *232 0.00852144
*CONN
*I *805:B I *D sky130_fd_sc_hd__nor3_1
*I *803:Y O *D sky130_fd_sc_hd__a21oi_1
*CAP
1 *805:B 0.000187048
2 *803:Y 0.000187048
3 *805:B *671:B2 0.000158952
4 *805:B *805:A 0.000506804
5 *805:B *805:C 0.00497664
6 *805:B *807:A1 0.000563214
7 *805:B *296:24 0.00042352
8 *805:B *331:561 0.000506804
9 *805:B *367:8 0.000931934
10 *805:B *367:27 7.9476e-05
*RES
1 *803:Y *805:B 36.367 
*END

*D_NET *233 0.00718698
*CONN
*I *805:C I *D sky130_fd_sc_hd__nor3_1
*I *804:X O *D sky130_fd_sc_hd__and3_1
*CAP
1 *805:C 0.000840836
2 *804:X 0.000840836
3 *805:C *331:559 0
4 *805:C *331:561 0.000128171
5 *805:B *805:C 0.00497664
6 *1:18 *805:C 0.000400505
*RES
1 *804:X *805:C 36.5135 
*END

*D_NET *234 0.00784112
*CONN
*I *807:B1 I *D sky130_fd_sc_hd__a21oi_1
*I *586:C I *D sky130_fd_sc_hd__and3_1
*I *806:X O *D sky130_fd_sc_hd__xor2_1
*CAP
1 *807:B1 5.93863e-05
2 *586:C 0.000781673
3 *806:X 0
4 *234:6 0.000841059
5 *586:C *586:A 0.000962928
6 *586:C *672:A 7.09466e-05
7 *586:C *806:B 2.8989e-05
8 *586:C *292:25 0.000932441
9 *586:C *296:24 0
10 *586:C *333:34 0.000354853
11 *807:B1 *806:B 0.000851997
12 *807:B1 *807:A1 0.000167179
13 *807:B1 *296:24 0.000167179
14 *807:B1 *333:34 0.00144731
15 *807:B1 *367:8 0.000587336
16 *817:D *586:C 0.000587843
*RES
1 *806:X *234:6 13.8 
2 *234:6 *586:C 17.7546 
3 *234:6 *807:B1 17.4198 
*END

*D_NET *235 0.00260569
*CONN
*I *587:B I *D sky130_fd_sc_hd__nor3_1
*I *807:Y O *D sky130_fd_sc_hd__a21oi_1
*CAP
1 *587:B 0.00028981
2 *807:Y 0.00028981
3 *587:B *296:24 0.000506804
4 *587:B *329:22 0.000759635
5 *587:B *333:34 0.000759635
*RES
1 *807:Y *587:B 29.797 
*END

*D_NET *236 0.00424287
*CONN
*I *587:C I *D sky130_fd_sc_hd__nor3_1
*I *586:X O *D sky130_fd_sc_hd__and3_1
*CAP
1 *587:C 0.000477348
2 *586:X 0.000477348
3 *587:C *586:A 0.00029535
4 *587:C *587:A 0.00029535
5 *587:C *671:A2 0.000895354
6 *587:C *674:B1 0.000760142
7 *587:C *674:B2 0.000760142
8 *587:C *675:B 0.000167179
9 *587:C *329:22 4.44643e-05
10 *676:B *587:C 7.01947e-05
*RES
1 *586:X *587:C 32.7054 
*END

*D_NET *237 0.00914645
*CONN
*I *589:B1 I *D sky130_fd_sc_hd__a21oi_1
*I *590:C I *D sky130_fd_sc_hd__and3_1
*I *588:X O *D sky130_fd_sc_hd__xor2_1
*CAP
1 *589:B1 0.000144678
2 *590:C 0.000227303
3 *588:X 0.000354219
4 *237:8 0.0007262
5 *589:B1 *589:A2 0.000506804
6 *589:B1 *590:A 0.000506804
7 *589:B1 *591:B 0.000932441
8 *589:B1 *333:26 0.000895354
9 *590:C *590:A 0.000185828
10 *590:C *816:CLK 0
11 *237:8 *816:CLK 0.000506804
12 *237:8 *333:26 0.00400375
13 *816:D *237:8 0.000156265
*RES
1 *588:X *237:8 15.1168 
2 *237:8 *590:C 20.0994 
3 *237:8 *589:B1 21.9616 
*END

*D_NET *238 0.00680577
*CONN
*I *591:B I *D sky130_fd_sc_hd__nor3_1
*I *589:Y O *D sky130_fd_sc_hd__a21oi_1
*CAP
1 *591:B 0.000497109
2 *589:Y 0.000497109
3 *591:B *589:A2 0.000169792
4 *591:B *591:A 0.00029535
5 *591:B *591:C 0.0035037
6 *591:B *681:B 0.000167179
7 *591:B *710:B 0.000236282
8 *589:B1 *591:B 0.000932441
9 *816:D *591:B 0
10 *141:14 *591:B 0.000506804
*RES
1 *589:Y *591:B 38.0827 
*END

*D_NET *239 0.0121488
*CONN
*I *591:C I *D sky130_fd_sc_hd__nor3_1
*I *590:X O *D sky130_fd_sc_hd__and3_1
*CAP
1 *591:C 0.00262375
2 *590:X 0.00262375
3 *591:C *589:A2 2.61555e-05
4 *591:C *591:A 7.9476e-05
5 *591:C *695:B_N 0.000844821
6 *591:C *848:CLK 0.000374595
7 *591:C *328:16 2.8989e-05
8 *591:C *369:14 0.000759635
9 *591:B *591:C 0.0035037
10 *141:14 *591:C 0.0012839
*RES
1 *590:X *591:C 41.012 
*END

*D_NET *240 0.0149315
*CONN
*I *593:B1 I *D sky130_fd_sc_hd__a21oi_1
*I *594:C I *D sky130_fd_sc_hd__and3_1
*I *592:X O *D sky130_fd_sc_hd__xor2_1
*CAP
1 *593:B1 0.000427856
2 *594:C 0.00149934
3 *592:X 0.00105798
4 *240:10 0.00298518
5 *593:B1 *695:B_N 0
6 *593:B1 *327:40 0.000640679
7 *593:B1 *369:10 0
8 *593:B1 *369:59 0
9 *594:C *728:A 0.000962928
10 *594:C *369:36 0.000895354
11 *594:C *369:43 0.0012839
12 *240:10 *592:A 0.00018314
13 *240:10 *677:B1 0.000774212
14 *240:10 *677:B2 0.00300003
15 *240:10 *678:A 0.000240194
16 *240:10 *678:B 7.09466e-05
17 *240:10 *695:B_N 0
18 *240:10 *290:10 0.000352009
19 *240:10 *327:40 8.87979e-05
20 *240:10 *333:26 5.34065e-05
21 *240:10 *365:21 0.000415544
*RES
1 *592:X *240:10 23.4876 
2 *240:10 *594:C 17.3989 
3 *240:10 *593:B1 18.9263 
*END

*D_NET *241 0.00736734
*CONN
*I *595:B I *D sky130_fd_sc_hd__nor3_1
*I *593:Y O *D sky130_fd_sc_hd__a21oi_1
*CAP
1 *595:B 0.000776216
2 *593:Y 0.000776216
3 *595:B *596:A 0.00029535
4 *595:B *243:20 0.000556332
5 *595:B *331:116 0.000895354
6 *595:B *369:74 6.41184e-05
7 *898:A *595:B 0.00400375
*RES
1 *593:Y *595:B 28.5178 
*END

*D_NET *242 0.00137574
*CONN
*I *595:C I *D sky130_fd_sc_hd__nor3_1
*I *594:X O *D sky130_fd_sc_hd__and3_1
*CAP
1 *595:C 3.15075e-05
2 *594:X 3.15075e-05
3 *595:C *681:A 0.000931934
4 *174:14 *595:C 0.000380791
*RES
1 *594:X *595:C 29.525 
*END

*D_NET *243 0.0100628
*CONN
*I *598:C I *D sky130_fd_sc_hd__and3_1
*I *597:B1 I *D sky130_fd_sc_hd__a21oi_1
*I *596:X O *D sky130_fd_sc_hd__xor2_1
*CAP
1 *598:C 0.000136493
2 *597:B1 0
3 *596:X 0.000893155
4 *243:20 0.00102965
5 *598:C *599:B 0.000689196
6 *598:C *599:C 0.000185828
7 *598:C *328:16 0.000759635
8 *243:20 *596:A 0.000895354
9 *243:20 *599:B 0.000157096
10 *243:20 *327:34 6.39828e-05
11 *243:20 *328:16 0.000157096
12 *243:20 *329:18 0.000652326
13 *243:20 *369:74 0.000506804
14 *595:B *243:20 0.000556332
15 *901:A *243:20 0.00262
16 *908:A *243:20 0.000759896
*RES
1 *596:X *243:20 27.5281 
2 *243:20 *597:B1 13.8 
3 *243:20 *598:C 15.5994 
*END

*D_NET *244 0.00569256
*CONN
*I *599:B I *D sky130_fd_sc_hd__nor3_1
*I *597:Y O *D sky130_fd_sc_hd__a21oi_1
*CAP
1 *599:B 0.000270978
2 *597:Y 0.000270978
3 *599:B *598:A 0.000328888
4 *599:B *599:C 0.000970562
5 *599:B *317:22 7.09466e-05
6 *599:B *327:34 7.09466e-05
7 *599:B *328:16 0.000552011
8 *599:B *331:107 0.000137316
9 *598:C *599:B 0.000689196
10 *901:A *599:B 0.000501187
11 *174:18 *599:B 0.00167245
12 *243:20 *599:B 0.000157096
*RES
1 *597:Y *599:B 34.1491 
*END

*D_NET *245 0.00476223
*CONN
*I *599:C I *D sky130_fd_sc_hd__nor3_1
*I *598:X O *D sky130_fd_sc_hd__and3_1
*CAP
1 *599:C 0.0012496
2 *598:X 0.0012496
3 *599:C *706:A1 0.000108425
4 *599:C *327:34 0.000780873
5 *598:C *599:C 0.000185828
6 *599:B *599:C 0.000970562
7 *174:18 *599:C 0.000217333
*RES
1 *598:X *599:C 25.0445 
*END

*D_NET *246 0.00702578
*CONN
*I *601:B1 I *D sky130_fd_sc_hd__a21oi_1
*I *602:C I *D sky130_fd_sc_hd__and3_1
*I *600:X O *D sky130_fd_sc_hd__xor2_1
*CAP
1 *601:B1 0
2 *602:C 0.000140304
3 *600:X 0.000710841
4 *246:20 0.000851144
5 *602:C *602:B 0.00153731
6 *602:C *603:C 0.000760206
7 *246:20 *601:A1 0.000156589
8 *246:20 *293:154 0
9 *246:20 *314:16 0.000506804
10 *246:20 *325:16 0.00101859
11 *246:20 *329:18 0.000588001
12 *246:20 *369:106 0
13 *246:20 *369:112 0
14 *33:27 *246:20 0.000652326
15 *164:12 *246:20 0.000103664
*RES
1 *600:X *246:20 29.3677 
2 *246:20 *602:C 11.204 
3 *246:20 *601:B1 9.3 
*END

*D_NET *247 0.00583179
*CONN
*I *603:B I *D sky130_fd_sc_hd__nor3_1
*I *601:Y O *D sky130_fd_sc_hd__a21oi_1
*CAP
1 *603:B 0.000407213
2 *601:Y 0.000407213
3 *603:B *602:B 0.000506804
4 *603:B *309:18 0.000895354
5 *174:18 *603:B 0.0036152
*RES
1 *601:Y *603:B 23.0777 
*END

*D_NET *248 0.00553272
*CONN
*I *603:C I *D sky130_fd_sc_hd__nor3_1
*I *602:X O *D sky130_fd_sc_hd__and3_1
*CAP
1 *603:C 0.00174508
2 *602:X 0.00174508
3 *603:C *602:A 0.000895354
4 *603:C *602:B 0.000172752
5 *602:C *603:C 0.000760206
6 *174:18 *603:C 0.00021424
*RES
1 *602:X *603:C 23.4543 
*END

*D_NET *249 0.0044217
*CONN
*I *605:B1 I *D sky130_fd_sc_hd__a21oi_1
*I *606:C I *D sky130_fd_sc_hd__and3_1
*I *604:X O *D sky130_fd_sc_hd__xor2_1
*CAP
1 *605:B1 0
2 *606:C 7.57469e-05
3 *604:X 0.000447618
4 *249:10 0.000523364
5 *606:C *606:A 0.00114876
6 *606:C *607:C 0.000760206
7 *249:10 *686:A1 0.000803408
8 *249:10 *852:CLK 0
9 *249:10 *331:298 0
10 *688:B *249:10 0.000662605
11 *94:12 *249:10 0
*RES
1 *604:X *249:10 24.8491 
2 *249:10 *606:C 10.7228 
3 *249:10 *605:B1 9.3 
*END

*D_NET *250 0.00520303
*CONN
*I *607:B I *D sky130_fd_sc_hd__nor3_1
*I *605:Y O *D sky130_fd_sc_hd__a21oi_1
*CAP
1 *607:B 0.000346238
2 *605:Y 0.000346238
3 *607:B *606:B 0.0012839
4 *607:B *331:290 0.0023313
5 *607:B *331:320 0.000895354
*RES
1 *605:Y *607:B 22.5964 
*END

*D_NET *251 0.00518273
*CONN
*I *607:C I *D sky130_fd_sc_hd__nor3_1
*I *606:X O *D sky130_fd_sc_hd__and3_1
*CAP
1 *607:C 0.00169456
2 *606:X 0.00169456
3 *607:C *606:A 0.000300922
4 *607:C *331:290 7.9476e-05
5 *607:C *331:320 0.000653008
6 *606:C *607:C 0.000760206
*RES
1 *606:X *607:C 23.4543 
*END

*D_NET *252 0.00363814
*CONN
*I *609:B1 I *D sky130_fd_sc_hd__a21oi_1
*I *610:C I *D sky130_fd_sc_hd__and3_1
*I *608:X O *D sky130_fd_sc_hd__xor2_1
*CAP
1 *609:B1 1.20362e-05
2 *610:C 6.24617e-06
3 *608:X 0.000193382
4 *252:12 0.000211665
5 *609:B1 *322:68 0.0007771
6 *609:B1 *331:341 0.000895354
7 *610:C *322:68 0.000371656
8 *610:C *331:341 0.000371656
9 *252:12 *286:10 6.27732e-05
10 *252:12 *322:76 0.000196166
11 *252:12 *322:135 1.83088e-05
12 *252:12 *323:31 0.000521801
13 *825:D *252:12 0
*RES
1 *608:X *252:12 21.5641 
2 *252:12 *610:C 9.76032 
3 *252:12 *609:B1 10.409 
*END

*D_NET *253 0.00111453
*CONN
*I *611:B I *D sky130_fd_sc_hd__nor3_1
*I *609:Y O *D sky130_fd_sc_hd__a21oi_1
*CAP
1 *611:B 2.18981e-05
2 *609:Y 2.18981e-05
3 *611:B *611:C 0.000760142
4 *611:B *331:441 0.000310596
*RES
1 *609:Y *611:B 29.1693 
*END

*D_NET *254 0.0012202
*CONN
*I *611:C I *D sky130_fd_sc_hd__nor3_1
*I *610:X O *D sky130_fd_sc_hd__and3_1
*CAP
1 *611:C 0.000143607
2 *610:X 0.000143607
3 *611:C *610:B 2.8989e-05
4 *611:C *305:53 1.83088e-05
5 *611:C *322:135 0
6 *611:C *331:441 2.61555e-05
7 *611:C *331:449 9.93907e-05
8 *611:B *611:C 0.000760142
*RES
1 *610:X *611:C 29.8807 
*END

*D_NET *255 0.00441767
*CONN
*I *613:B1 I *D sky130_fd_sc_hd__a21oi_1
*I *614:C I *D sky130_fd_sc_hd__and3_1
*I *612:X O *D sky130_fd_sc_hd__xor2_1
*CAP
1 *613:B1 0.0001625
2 *614:C 9.13508e-05
3 *612:X 0.000456883
4 *255:8 0.000710733
5 *613:B1 *614:B 0.000157096
6 *613:B1 *283:10 0
7 *613:B1 *319:22 0.00038721
8 *614:C *612:B 0.000107107
9 *614:C *614:B 7.09466e-05
10 *614:C *615:B 8.89287e-05
11 *614:C *703:A2 0.000715181
12 *614:C *322:276 0.000574378
13 *255:8 *305:38 0.000895354
*RES
1 *612:X *255:8 14.909 
2 *255:8 *614:C 16.0807 
3 *255:8 *613:B1 16.0807 
*END

*D_NET *256 0.0061588
*CONN
*I *615:B I *D sky130_fd_sc_hd__nor3_1
*I *613:Y O *D sky130_fd_sc_hd__a21oi_1
*CAP
1 *615:B 0.000958848
2 *613:Y 0.000958848
3 *615:B *615:C 0.000760142
4 *615:B *703:A2 0.000501694
5 *615:B *310:42 0.0012839
6 *615:B *319:22 0.000501694
7 *615:B *322:276 0.00110474
8 *615:B *346:18 0
9 *614:C *615:B 8.89287e-05
10 *646:B *615:B 0
11 *646:C *615:B 0
*RES
1 *613:Y *615:B 33.9608 
*END

*D_NET *257 0.00260227
*CONN
*I *615:C I *D sky130_fd_sc_hd__nor3_1
*I *614:X O *D sky130_fd_sc_hd__and3_1
*CAP
1 *615:C 0.000579717
2 *614:X 0.000579717
3 *615:C *645:A 0
4 *615:C *645:B 0
5 *615:C *322:276 0.000506804
6 *615:B *615:C 0.000760142
7 *646:B *615:C 0
8 *646:C *615:C 0.000151702
9 *810:D *615:C 2.41884e-05
*RES
1 *614:X *615:C 31.4081 
*END

*D_NET *258 0.00505761
*CONN
*I *618:C I *D sky130_fd_sc_hd__and3_1
*I *617:B1 I *D sky130_fd_sc_hd__a21oi_1
*I *616:X O *D sky130_fd_sc_hd__xor2_1
*CAP
1 *618:C 0
2 *617:B1 0.000312962
3 *616:X 0.000302408
4 *258:8 0.00061537
5 *617:B1 *617:A1 2.8989e-05
6 *617:B1 *619:A 0.000156589
7 *617:B1 *619:B 0.000839618
8 *617:B1 *619:C 0.000506804
9 *617:B1 *809:CLK 0.000248477
10 *617:B1 *302:10 0.000246199
11 *617:B1 *328:12 0.000266394
12 *258:8 *616:A 0.000895354
13 *258:8 *619:C 0.000131637
14 *809:D *617:B1 0.000506804
*RES
1 *616:X *258:8 11.9887 
2 *258:8 *617:B1 23.8343 
3 *258:8 *618:C 9.3 
*END

*D_NET *259 0.0021451
*CONN
*I *619:B I *D sky130_fd_sc_hd__nor3_1
*I *617:Y O *D sky130_fd_sc_hd__a21oi_1
*CAP
1 *619:B 0.00039435
2 *617:Y 0.00039435
3 *619:B *617:A2 0.000167179
4 *619:B *619:C 3.90084e-05
5 *619:B *328:12 0.000310596
6 *617:B1 *619:B 0.000839618
*RES
1 *617:Y *619:B 30.4247 
*END

*D_NET *260 0.000896854
*CONN
*I *619:C I *D sky130_fd_sc_hd__nor3_1
*I *618:X O *D sky130_fd_sc_hd__and3_1
*CAP
1 *619:C 0.000109702
2 *618:X 0.000109702
3 *617:B1 *619:C 0.000506804
4 *619:B *619:C 3.90084e-05
5 *258:8 *619:C 0.000131637
*RES
1 *618:X *619:C 20.0856 
*END

*D_NET *261 0.00982187
*CONN
*I *699:A I *D sky130_fd_sc_hd__xnor2_1
*I *698:A I *D sky130_fd_sc_hd__nor2_1
*I *697:A I *D sky130_fd_sc_hd__nand2_1
*I *841:Q O *D sky130_fd_sc_hd__dfxtp_1
*CAP
1 *699:A 0.000135411
2 *698:A 0
3 *697:A 0.000100706
4 *841:Q 0.000126403
5 *261:10 0.000496256
6 *261:8 0.000657365
7 *697:A *682:A 6.41898e-05
8 *697:A *323:16 0.000585337
9 *697:A *332:16 0.00152715
10 *697:A *337:12 2.8989e-05
11 *261:10 *323:16 0.000111815
12 *700:B *699:A 0.000551691
13 *709:B1 *261:8 0.000861494
14 *709:B1 *261:10 0.00248313
15 *887:A *699:A 0.000808032
16 *900:A *697:A 0.0012839
17 *906:A *697:A 0
18 *906:A *261:10 0
*RES
1 *841:Q *261:8 15.725 
2 *261:8 *261:10 5.83768 
3 *261:10 *697:A 26.1059 
4 *261:10 *698:A 13.8 
5 *261:8 *699:A 16.8339 
*END

*D_NET *262 0.00945952
*CONN
*I *802:A I *D sky130_fd_sc_hd__xor2_1
*I *668:B1 I *D sky130_fd_sc_hd__a22oi_1
*I *669:A I *D sky130_fd_sc_hd__nor2_1
*I *851:Q O *D sky130_fd_sc_hd__dfxtp_1
*CAP
1 *802:A 0.000138072
2 *668:B1 9.83599e-05
3 *669:A 5.52012e-05
4 *851:Q 0
5 *262:12 0.00021363
6 *262:4 0.000198141
7 *668:B1 *668:A1 0.000506804
8 *668:B1 *314:16 0.00167245
9 *669:A *669:B 0.000228522
10 *669:A *314:16 0.000134764
11 *802:A *669:B 0.00038855
12 *802:A *802:B 0.000506804
13 *262:12 *669:B 0.000923003
14 *262:12 *331:538 0.00110474
15 *670:B *668:B1 0.000158952
16 *670:B *669:A 0.000506804
17 *670:C *668:B1 9.33746e-05
18 *670:C *669:A 0.000233831
19 *851:D *669:A 0.000506804
20 *174:18 *802:A 0
21 *174:24 *802:A 0.0012839
22 *174:24 *262:12 0.000506804
*RES
1 *851:Q *262:4 9.3 
2 *262:4 *262:12 11.9084 
3 *262:12 *669:A 11.3924 
4 *262:12 *668:B1 12.2293 
5 *262:4 *802:A 11.7481 
*END

*D_NET *263 0.00885489
*CONN
*I *666:A I *D sky130_fd_sc_hd__nor2_1
*I *665:B1 I *D sky130_fd_sc_hd__a22oi_1
*I *798:A I *D sky130_fd_sc_hd__xor2_1
*I *852:Q O *D sky130_fd_sc_hd__dfxtp_1
*CAP
1 *666:A 0.00128439
2 *665:B1 6.92485e-05
3 *798:A 0
4 *852:Q 0
5 *263:12 0.000427587
6 *263:4 0.00164272
7 *665:B1 *798:B 0.00167245
8 *665:B1 *324:24 0.000936203
9 *665:B1 *334:22 0.000506804
10 *666:A *657:A 0
11 *666:A *657:B 1.72006e-05
12 *666:A *667:A 0.000551691
13 *263:12 *665:B2 0
14 *263:12 *667:A 0.000167179
15 *263:12 *307:12 0.00110474
16 *263:12 *339:20 0
17 *667:B *263:12 0.000151702
18 *667:C *666:A 0.000194801
19 *228:14 *665:B1 0.000128171
*RES
1 *852:Q *263:4 9.3 
2 *263:4 *263:12 11.9084 
3 *263:12 *798:A 9.3 
4 *263:12 *665:B1 12.8152 
5 *263:4 *666:A 14.3217 
*END

*D_NET *264 0.0100148
*CONN
*I *662:B1 I *D sky130_fd_sc_hd__a22oi_1
*I *663:A I *D sky130_fd_sc_hd__nor2_1
*I *794:A I *D sky130_fd_sc_hd__xor2_1
*I *853:Q O *D sky130_fd_sc_hd__dfxtp_1
*CAP
1 *662:B1 0.000686912
2 *663:A 0.000170066
3 *794:A 0.0004183
4 *853:Q 0
5 *264:8 0.00166826
6 *264:4 0.0017668
7 *662:B1 *662:B2 0.000506804
8 *662:B1 *305:32 1.74694e-05
9 *662:B1 *322:439 0
10 *663:A *662:B2 0
11 *663:A *663:B 0.000774212
12 *663:A *331:241 0
13 *663:A *331:261 0
14 *794:A *662:B2 0
15 *794:A *663:B 0.000592203
16 *794:A *794:B 0.000887802
17 *794:A *313:12 4.44643e-05
18 *794:A *331:261 0
19 *794:A *331:269 0.000895354
20 *264:8 *305:32 0.000229598
21 *664:B *662:B1 1.47434e-05
22 *664:B *663:A 7.04018e-05
23 *853:D *663:A 0.00110423
24 *853:D *264:8 0.000167179
25 *26:19 *663:A 0
26 *225:12 *794:A 0
*RES
1 *853:Q *264:4 9.3 
2 *264:4 *264:8 7.05268 
3 *264:8 *794:A 20.0352 
4 *264:8 *663:A 17.8592 
5 *264:4 *662:B1 11.3924 
*END

*D_NET *265 0.00928855
*CONN
*I *660:A I *D sky130_fd_sc_hd__nor2_1
*I *659:B1 I *D sky130_fd_sc_hd__a22oi_1
*I *790:A I *D sky130_fd_sc_hd__xor2_1
*I *854:Q O *D sky130_fd_sc_hd__dfxtp_1
*CAP
1 *660:A 2.63895e-05
2 *659:B1 0.000517658
3 *790:A 0
4 *854:Q 0.000612955
5 *265:16 0.000973402
6 *265:10 0.00109509
7 *659:B1 *659:B2 0.0004866
8 *659:B1 *322:439 0.000157096
9 *659:B1 *326:10 0
10 *659:B1 *331:220 0.000726857
11 *660:A *660:B 2.72343e-05
12 *265:10 *341:12 8.91622e-05
13 *265:16 *660:B 0
14 *265:16 *341:12 0.00029535
15 *265:16 *341:14 0.00104905
16 *661:C *265:10 0.000506804
17 *661:C *265:16 0.000506804
18 *793:C *659:B1 0.000157096
19 *907:A *265:10 0.002061
20 *919:A *265:16 0
*RES
1 *854:Q *265:10 14.5309 
2 *265:10 *265:16 4.20041 
3 *265:16 *790:A 9.3 
4 *265:16 *659:B1 28.5665 
5 *265:10 *660:A 9.80217 
*END

*D_NET *266 0.0123486
*CONN
*I *786:A I *D sky130_fd_sc_hd__xor2_1
*I *656:B1 I *D sky130_fd_sc_hd__a22oi_1
*I *657:A I *D sky130_fd_sc_hd__nor2_1
*I *855:Q O *D sky130_fd_sc_hd__dfxtp_1
*CAP
1 *786:A 0
2 *656:B1 0
3 *657:A 0.000347232
4 *855:Q 0.00395158
5 *266:20 0.000452532
6 *266:12 0.00405688
7 *657:A *657:B 2.72343e-05
8 *657:A *322:343 0.000344598
9 *657:A *322:351 7.09466e-05
10 *657:A *342:10 0.000169585
11 *657:A *342:19 2.8989e-05
12 *266:12 *796:B 0
13 *266:12 *322:339 5.73995e-05
14 *266:20 *786:B 0.000310596
15 *266:20 *796:B 0
16 *266:20 *322:339 0.000506804
17 *266:20 *322:341 0.000861494
18 *266:20 *322:343 7.09466e-05
19 *266:20 *322:399 0.000172299
20 *266:20 *342:19 0.000140804
21 *658:B *657:A 0.000506804
22 *658:C *657:A 0.000158952
23 *666:A *657:A 0
24 *855:D *266:12 0.000112927
*RES
1 *855:Q *266:12 20.5778 
2 *266:12 *266:20 7.91055 
3 *266:20 *657:A 17.1059 
4 *266:20 *656:B1 13.8 
5 *266:12 *786:A 9.3 
*END

*D_NET *267 0.0084661
*CONN
*I *782:A I *D sky130_fd_sc_hd__xor2_1
*I *653:B1 I *D sky130_fd_sc_hd__a22oi_1
*I *654:A I *D sky130_fd_sc_hd__nor2_1
*I *856:Q O *D sky130_fd_sc_hd__dfxtp_1
*CAP
1 *782:A 0.000432294
2 *653:B1 0
3 *654:A 1.86359e-05
4 *856:Q 0
5 *267:16 0.00118047
6 *267:4 0.00159413
7 *654:A *654:B 0.000895354
8 *654:A *304:14 0.000256341
9 *654:A *369:295 0.000256341
10 *782:A *653:A2 0.000423335
11 *782:A *782:B 0.000243245
12 *782:A *293:148 0
13 *782:A *300:18 0.000103664
14 *782:A *369:299 0.000895354
15 *267:16 *654:B 0
16 *267:16 *293:148 0.000380998
17 *267:16 *300:18 0.000421569
18 *267:16 *369:295 0.00105722
19 *267:16 *369:299 6.66522e-05
20 *655:C *267:16 0.0002405
*RES
1 *856:Q *267:4 9.3 
2 *267:4 *267:16 15.0888 
3 *267:16 *654:A 11.3714 
4 *267:16 *653:B1 9.3 
5 *267:4 *782:A 22.3173 
*END

*D_NET *268 0.0128007
*CONN
*I *650:B1 I *D sky130_fd_sc_hd__a22oi_1
*I *778:A I *D sky130_fd_sc_hd__xor2_1
*I *651:A I *D sky130_fd_sc_hd__nor2_1
*I *857:Q O *D sky130_fd_sc_hd__dfxtp_1
*CAP
1 *650:B1 8.11249e-05
2 *778:A 0
3 *651:A 0.000106333
4 *857:Q 0.000237802
5 *268:14 0.000329906
6 *268:8 0.000542499
7 *650:B1 *362:10 0.000563214
8 *650:B1 *369:273 0.000760142
9 *651:A *652:A 0.000506804
10 *651:A *778:B 7.9476e-05
11 *651:A *309:18 0.00111269
12 *651:A *331:525 0.00167245
13 *268:8 *857:CLK 0.000326131
14 *268:14 *778:B 0.000103664
15 *268:14 *331:525 0.0023313
16 *268:14 *362:10 0.000521801
17 *652:B *651:A 0.00244955
18 *652:C *651:A 0.000300483
19 *779:B1 *650:B1 4.14128e-05
20 *781:B *268:14 0
21 *781:C *268:14 0
22 *213:10 *650:B1 0.000240194
23 *213:10 *268:14 0.000493736
*RES
1 *857:Q *268:8 15.3902 
2 *268:8 *268:14 10.1703 
3 *268:14 *651:A 14.9284 
4 *268:14 *778:A 9.3 
5 *268:8 *650:B1 16.7921 
*END

*D_NET *269 0.0089024
*CONN
*I *647:B1 I *D sky130_fd_sc_hd__a22oi_1
*I *774:A I *D sky130_fd_sc_hd__xor2_1
*I *648:A I *D sky130_fd_sc_hd__nor2_1
*I *858:Q O *D sky130_fd_sc_hd__dfxtp_1
*CAP
1 *647:B1 0
2 *774:A 0.000124155
3 *648:A 0
4 *858:Q 0.000801556
5 *269:21 0.000390743
6 *269:10 0.00106814
7 *774:A *647:A1 0.000415544
8 *774:A *305:53 0
9 *774:A *310:42 0.00127704
10 *269:10 *648:B 0.000506804
11 *269:10 *843:CLK 0.000434666
12 *269:21 *647:A1 7.09466e-05
13 *269:21 *648:B 0.000211205
14 *269:21 *843:CLK 0.000506804
15 *269:21 *305:53 0
16 *269:21 *310:42 0.00103379
17 *843:D *269:21 0
18 *858:D *269:10 0.002061
*RES
1 *858:Q *269:10 15.2632 
2 *269:10 *648:A 9.3 
3 *269:10 *269:21 8.47548 
4 *269:21 *774:A 16.4364 
5 *269:21 *647:B1 13.8 
*END

*D_NET *270 0.0146241
*CONN
*I *644:B1 I *D sky130_fd_sc_hd__a22oi_1
*I *645:A I *D sky130_fd_sc_hd__nor2_1
*I *770:A I *D sky130_fd_sc_hd__xor2_1
*I *859:Q O *D sky130_fd_sc_hd__dfxtp_1
*CAP
1 *644:B1 0
2 *645:A 0.000275316
3 *770:A 0.000107836
4 *859:Q 0.00185842
5 *270:23 0.000275316
6 *270:10 0.00196625
7 *645:A *644:A2 0
8 *645:A *645:B 0.000261066
9 *770:A *615:A 0
10 *770:A *768:A 0.000167179
11 *770:A *770:B 0.00038855
12 *770:A *322:229 0.00042352
13 *770:A *322:242 0.00162164
14 *770:A *322:255 0.000172299
15 *770:A *346:18 0.00138817
16 *270:10 *859:CLK 0.0036152
17 *270:10 *322:255 0.000760142
18 *615:C *645:A 0
19 *646:B *770:A 0.000415544
20 *646:B *270:10 0.000689196
21 *810:D *645:A 0.000158952
22 *80:18 *770:A 7.9476e-05
*RES
1 *859:Q *270:10 19.8469 
2 *270:10 *770:A 19.5749 
3 *270:10 *270:23 4.5 
4 *270:23 *645:A 11.3924 
5 *270:23 *644:B1 9.3 
*END

*D_NET *271 0.00541774
*CONN
*I *641:B1 I *D sky130_fd_sc_hd__a22oi_1
*I *642:A I *D sky130_fd_sc_hd__nor2_1
*I *766:A I *D sky130_fd_sc_hd__xor2_1
*I *860:Q O *D sky130_fd_sc_hd__dfxtp_1
*CAP
1 *641:B1 0
2 *642:A 2.8157e-05
3 *766:A 0
4 *860:Q 0.000225477
5 *271:27 0.000174273
6 *271:12 0.000371593
7 *642:A *641:B2 0.000506804
8 *642:A *313:18 0.00042352
9 *642:A *322:64 0.000256341
10 *271:12 *322:49 0.0004514
11 *271:12 *331:320 0.000256341
12 *271:27 *641:B2 0.000931934
13 *271:27 *766:B 3.90084e-05
14 *271:27 *322:49 0.000932441
15 *271:27 *331:320 0.000506804
16 *643:B *271:27 7.04018e-05
17 *94:12 *271:12 0
18 *204:10 *271:12 0.000243245
19 *204:10 *271:27 0
*RES
1 *860:Q *271:12 21.6896 
2 *271:12 *766:A 9.3 
3 *271:12 *271:27 12.4105 
4 *271:27 *642:A 10.8902 
5 *271:27 *641:B1 9.3 
*END

*D_NET *272 0.0149153
*CONN
*I *616:A I *D sky130_fd_sc_hd__xor2_1
*I *707:A I *D sky130_fd_sc_hd__nor2_1
*I *706:B1 I *D sky130_fd_sc_hd__a22oi_1
*I *842:Q O *D sky130_fd_sc_hd__dfxtp_1
*CAP
1 *616:A 0.000335023
2 *707:A 0.000216989
3 *706:B1 0.00174828
4 *842:Q 0
5 *272:21 0.000562871
6 *272:4 0.00175914
7 *616:A *616:B 0.00167245
8 *616:A *618:B 0.00120609
9 *616:A *297:14 0.00144934
10 *616:A *308:25 0.00127704
11 *616:A *328:12 7.66137e-05
12 *616:A *331:69 0.000328888
13 *616:A *331:101 0.000999012
14 *616:A *348:26 0.000105603
15 *706:B1 *706:B2 0.0004514
16 *706:B1 *707:B 3.99301e-05
17 *706:B1 *297:14 0.000580521
18 *707:A *707:B 0.000194413
19 *272:21 *308:25 0.000415544
20 *272:21 *331:101 0.000169792
21 *708:C *707:A 7.9476e-05
22 *893:A *706:B1 0.000284833
23 *912:A *707:A 6.66522e-05
24 *258:8 *616:A 0.000895354
*RES
1 *842:Q *272:4 9.3 
2 *272:4 *706:B1 24.5771 
3 *272:4 *272:21 5.35787 
4 *272:21 *707:A 15.8924 
5 *272:21 *616:A 23.0273 
*END

*D_NET *273 0.0098071
*CONN
*I *762:A I *D sky130_fd_sc_hd__xor2_1
*I *639:A I *D sky130_fd_sc_hd__nor2_1
*I *638:B1 I *D sky130_fd_sc_hd__a22oi_1
*I *861:Q O *D sky130_fd_sc_hd__dfxtp_1
*CAP
1 *762:A 0.000241299
2 *639:A 0.000444328
3 *638:B1 0
4 *861:Q 0.000361588
5 *273:10 0.000444328
6 *273:8 0.000602887
7 *639:A *638:A1 6.66522e-05
8 *639:A *638:A2 6.61403e-05
9 *639:A *638:B2 0.000506804
10 *639:A *639:B 0.000228522
11 *639:A *640:A 0.000506804
12 *762:A *762:B 0.00155069
13 *762:A *331:695 0
14 *762:A *369:219 0
15 *762:A *369:232 0.00031125
16 *273:8 *762:B 7.09466e-05
17 *273:8 *276:18 0.00127704
18 *273:8 *331:678 0
19 *273:8 *349:27 0.000760142
20 *273:8 *369:202 0
21 *273:8 *369:204 0
22 *273:8 *369:219 0
23 *640:B *639:A 0.00167245
24 *640:C *639:A 0.000300483
25 *763:B1 *762:A 9.93907e-05
26 *765:C *762:A 0.00029535
*RES
1 *861:Q *273:8 18.5706 
2 *273:8 *273:10 4.5 
3 *273:10 *638:B1 9.3 
4 *273:10 *639:A 14.9494 
5 *273:8 *762:A 18.6124 
*END

*D_NET *274 0.00610473
*CONN
*I *636:A I *D sky130_fd_sc_hd__nor2_1
*I *635:B1 I *D sky130_fd_sc_hd__a22oi_1
*I *758:A I *D sky130_fd_sc_hd__xor2_1
*I *862:Q O *D sky130_fd_sc_hd__dfxtp_1
*CAP
1 *636:A 0.000624526
2 *635:B1 0.000929692
3 *758:A 0
4 *862:Q 0.00140548
5 *274:8 0.00171065
6 *635:B1 *627:A 1.72006e-05
7 *635:B1 *635:A1 0.000167179
8 *635:B1 *635:A2 0
9 *635:B1 *331:407 7.9476e-05
10 *635:B1 *350:28 0
11 *636:A *636:B 0.0004514
12 *636:A *758:B 0.00029535
13 *274:8 *758:B 0.00018314
14 *830:D *635:B1 0.00024063
15 *198:10 *635:B1 0
*RES
1 *862:Q *274:8 11.7481 
2 *274:8 *758:A 9.3 
3 *274:8 *635:B1 26.6485 
4 *862:Q *636:A 30.9896 
*END

*D_NET *275 0.00887259
*CONN
*I *754:A I *D sky130_fd_sc_hd__xor2_1
*I *632:B1 I *D sky130_fd_sc_hd__a22oi_1
*I *633:A I *D sky130_fd_sc_hd__nor2_1
*I *863:Q O *D sky130_fd_sc_hd__dfxtp_1
*CAP
1 *754:A 0.000273033
2 *632:B1 5.62264e-05
3 *633:A 8.76724e-05
4 *863:Q 0
5 *275:10 0.000786256
6 *275:4 0.00091539
7 *632:B1 *632:A2 7.67885e-05
8 *632:B1 *632:B2 0.0012839
9 *633:A *351:18 2.8989e-05
10 *633:A *351:27 0.000592203
11 *754:A *754:B 0.000895354
12 *275:10 *632:A1 0
13 *275:10 *754:B 0.00053995
14 *275:10 *351:27 7.04018e-05
15 *625:A2 *633:A 0
16 *634:B *632:B1 0.0012839
17 *744:A *632:B1 0.000256341
18 *866:D *632:B1 0.000621438
19 *866:D *633:A 0.00110474
*RES
1 *863:Q *275:4 9.3 
2 *275:4 *275:10 7.88962 
3 *275:10 *633:A 16.7921 
4 *275:10 *632:B1 16.8548 
5 *275:4 *754:A 11.7481 
*END

*D_NET *276 0.00737424
*CONN
*I *750:A I *D sky130_fd_sc_hd__xor2_1
*I *630:A I *D sky130_fd_sc_hd__nor2_1
*I *629:B1 I *D sky130_fd_sc_hd__a22oi_1
*I *864:Q O *D sky130_fd_sc_hd__dfxtp_1
*CAP
1 *750:A 0
2 *630:A 0.000138104
3 *629:B1 0
4 *864:Q 0.000197067
5 *276:18 0.000444211
6 *276:12 0.000503174
7 *630:A *629:A2 2.41884e-05
8 *630:A *629:B2 0.000211614
9 *630:A *630:B 0.000322584
10 *630:A *740:B 0
11 *630:A *349:27 0.002061
12 *276:12 *750:B 0.000506804
13 *276:12 *331:585 2.8989e-05
14 *276:12 *331:678 0.000281607
15 *276:12 *352:10 0.000415544
16 *276:12 *369:193 0
17 *276:18 *331:678 0
18 *276:18 *352:10 0.000666965
19 *276:18 *369:193 0
20 *276:18 *369:202 0
21 *164:14 *276:12 0.00029535
22 *273:8 *276:18 0.00127704
*RES
1 *864:Q *276:12 21.6896 
2 *276:12 *276:18 14.8377 
3 *276:18 *629:B1 9.3 
4 *276:18 *630:A 12.857 
5 *276:12 *750:A 9.3 
*END

*D_NET *277 0.00827397
*CONN
*I *746:A I *D sky130_fd_sc_hd__xor2_1
*I *627:A I *D sky130_fd_sc_hd__nor2_1
*I *626:B1 I *D sky130_fd_sc_hd__a22oi_1
*I *865:Q O *D sky130_fd_sc_hd__dfxtp_1
*CAP
1 *746:A 0.000308151
2 *627:A 0.000183226
3 *626:B1 0.000580783
4 *865:Q 0
5 *277:8 0.00102772
6 *277:4 0.000571862
7 *626:B1 *626:B2 0.000895354
8 *626:B1 *627:B 0.000587336
9 *626:B1 *353:24 0.00127141
10 *627:A *627:B 0.000688182
11 *627:A *331:407 0.000524005
12 *746:A *746:B 0.0012839
13 *277:8 *746:B 7.9476e-05
14 *628:B *626:B1 0.000158952
15 *628:C *627:A 3.90084e-05
16 *635:B1 *627:A 1.72006e-05
17 *637:B *627:A 5.73995e-05
*RES
1 *865:Q *277:4 9.3 
2 *277:4 *277:8 5.12771 
3 *277:8 *626:B1 20.4119 
4 *277:8 *627:A 16.4991 
5 *277:4 *746:A 12.2293 
*END

*D_NET *278 0.0114661
*CONN
*I *741:A I *D sky130_fd_sc_hd__nand2_1
*I *743:A I *D sky130_fd_sc_hd__xnor2_1
*I *742:A I *D sky130_fd_sc_hd__nor2_1
*I *866:Q O *D sky130_fd_sc_hd__dfxtp_1
*CAP
1 *741:A 9.61762e-05
2 *743:A 0
3 *742:A 1.43408e-05
4 *866:Q 0.00134529
5 *278:16 2.36856e-05
6 *278:14 0.00145081
7 *741:A *741:B 0.00215438
8 *741:A *354:12 0
9 *741:A *354:29 0.000932441
10 *742:A *742:B 0.000895354
11 *742:A *354:29 0.000506804
12 *278:14 *831:CLK 2.8989e-05
13 *278:14 *354:29 0.000631795
14 *278:16 *354:29 0.00038855
15 *625:A2 *741:A 0.000421569
16 *625:B1 *742:A 0.00042352
17 *625:B1 *278:14 0.00029535
18 *625:B1 *278:16 0.000167179
19 *744:B *741:A 0.00110474
20 *744:B *278:14 0.000172635
21 *745:B *741:A 7.04018e-05
22 *866:D *278:14 0.000342093
*RES
1 *866:Q *278:14 24.2423 
2 *278:14 *278:16 0.627708 
3 *278:16 *742:A 10.8902 
4 *278:16 *743:A 9.3 
5 *278:14 *741:A 23.6355 
*END

*D_NET *279 0.0111782
*CONN
*I *735:A I *D sky130_fd_sc_hd__nand2_1
*I *737:A I *D sky130_fd_sc_hd__xnor2_1
*I *736:A I *D sky130_fd_sc_hd__nor2_1
*I *867:Q O *D sky130_fd_sc_hd__dfxtp_1
*CAP
1 *735:A 3.68971e-05
2 *737:A 9.34191e-05
3 *736:A 0
4 *867:Q 0.00195714
5 *279:25 0.000508144
6 *279:16 0.00233497
7 *735:A *735:B 0.000133262
8 *737:A *736:B 0.000395701
9 *279:16 *825:CLK 0
10 *279:16 *882:A 0.0012839
11 *279:16 *331:695 0
12 *279:25 *736:B 0.000539917
13 *624:A1 *735:A 0.00144934
14 *624:A2 *735:A 0.000932441
15 *765:C *279:16 0
16 *825:D *279:16 0.000329428
17 *828:D *279:16 0.00118366
18 *74:10 *279:16 0
*RES
1 *867:Q *279:16 34.7669 
2 *279:16 *736:A 9.3 
3 *279:16 *279:25 3.53609 
4 *279:25 *737:A 10.4299 
5 *279:25 *735:A 21.2921 
*END

*D_NET *280 0.00743209
*CONN
*I *731:A I *D sky130_fd_sc_hd__xnor2_1
*I *729:A I *D sky130_fd_sc_hd__nand2_1
*I *730:A I *D sky130_fd_sc_hd__nor2_1
*I *868:Q O *D sky130_fd_sc_hd__dfxtp_1
*CAP
1 *731:A 0
2 *729:A 6.55405e-05
3 *730:A 0
4 *868:Q 0.00179015
5 *280:14 7.93384e-05
6 *280:12 0.00180394
7 *729:A *729:B 0.000194413
8 *729:A *730:B 9.38865e-05
9 *729:A *731:B 0
10 *729:A *295:90 0.0012839
11 *729:A *356:16 0.000256341
12 *280:12 *356:14 0.000196166
13 *280:14 *295:90 0.000384512
14 *280:14 *356:16 0.0012839
15 *868:D *280:12 0
*RES
1 *868:Q *280:12 23.7401 
2 *280:12 *280:14 1.59019 
3 *280:14 *730:A 9.3 
4 *280:14 *729:A 11.8945 
5 *280:12 *731:A 9.3 
*END

*D_NET *281 0.00809915
*CONN
*I *724:A I *D sky130_fd_sc_hd__nor2_1
*I *725:A I *D sky130_fd_sc_hd__xnor2_1
*I *723:A I *D sky130_fd_sc_hd__nand2_1
*I *869:Q O *D sky130_fd_sc_hd__dfxtp_1
*CAP
1 *724:A 0.000255115
2 *725:A 0
3 *723:A 0.000275014
4 *869:Q 0
5 *281:12 0.00192216
6 *281:4 0.00190226
7 *723:A *723:B 0.00244955
8 *724:A *294:57 2.72343e-05
9 *724:A *294:70 0.000489661
10 *281:12 *724:B 0
11 *281:12 *294:70 0.000474745
12 *622:A2 *281:12 0.000151702
13 *726:B *281:12 0.000151702
*RES
1 *869:Q *281:4 9.3 
2 *281:4 *281:12 14.7958 
3 *281:12 *723:A 12.3339 
4 *281:12 *725:A 9.3 
5 *281:4 *724:A 12.2502 
*END

*D_NET *282 0.0073948
*CONN
*I *718:A I *D sky130_fd_sc_hd__nor2_1
*I *719:A I *D sky130_fd_sc_hd__xnor2_1
*I *717:A I *D sky130_fd_sc_hd__nand2_1
*I *870:Q O *D sky130_fd_sc_hd__dfxtp_1
*CAP
1 *718:A 3.90378e-05
2 *719:A 0.000183117
3 *717:A 5.14678e-05
4 *870:Q 5.04409e-05
5 *282:18 0.000319275
6 *282:10 0.000174168
7 *717:A *717:B 0.00042352
8 *719:A *719:B 0.000506804
9 *719:A *331:634 0.000352009
10 *719:A *331:644 0.000243245
11 *719:A *358:19 0
12 *282:10 *718:B 7.09466e-05
13 *282:10 *293:52 0.000380998
14 *282:10 *331:644 0
15 *282:18 *717:B 0.00124086
16 *282:18 *832:CLK 2.72343e-05
17 *621:A2 *717:A 0.000506804
18 *720:A *719:A 0.00162164
19 *870:D *282:10 0.000310596
20 *164:14 *717:A 0.000167179
21 *164:14 *718:A 0.000167179
22 *164:14 *282:18 0.000558284
*RES
1 *870:Q *282:10 20.225 
2 *282:10 *282:18 3.70348 
3 *282:18 *717:A 10.8902 
4 *282:18 *719:A 22.2755 
5 *282:10 *718:A 9.92771 
*END

*D_NET *283 0.00727142
*CONN
*I *612:A I *D sky130_fd_sc_hd__xor2_1
*I *703:B1 I *D sky130_fd_sc_hd__a22oi_1
*I *704:A I *D sky130_fd_sc_hd__nor2_1
*I *843:Q O *D sky130_fd_sc_hd__dfxtp_1
*CAP
1 *612:A 1.27551e-05
2 *703:B1 8.35514e-05
3 *704:A 0.000446715
4 *843:Q 0.000573052
5 *283:23 9.63065e-05
6 *283:10 0.00101977
7 *612:A *703:A2 0.000895354
8 *612:A *305:38 0.000256341
9 *703:B1 *647:A1 0.000103664
10 *703:B1 *703:A2 0.000612552
11 *703:B1 *305:38 0.00167245
12 *703:B1 *322:278 9.67534e-05
13 *704:A *331:449 0
14 *704:A *359:14 0.000895354
15 *283:10 *310:42 0.000506804
16 *613:B1 *283:10 0
17 *705:C *704:A 0
18 *843:D *283:10 0
*RES
1 *843:Q *283:10 16.7084 
2 *283:10 *704:A 17.5453 
3 *283:10 *283:23 4.5 
4 *283:23 *703:B1 12.3758 
5 *283:23 *612:A 10.409 
*END

*D_NET *284 0.0064341
*CONN
*I *713:A I *D sky130_fd_sc_hd__xnor2_1
*I *712:A I *D sky130_fd_sc_hd__nor2_1
*I *711:A I *D sky130_fd_sc_hd__nand2_1
*I *871:Q O *D sky130_fd_sc_hd__dfxtp_1
*CAP
1 *713:A 0
2 *712:A 0.000417183
3 *711:A 0.000157959
4 *871:Q 0
5 *284:21 0.000527842
6 *284:6 0.000268619
7 *711:A *872:CLK 0.000515862
8 *712:A *713:B 0.000573456
9 *712:A *360:18 0.00167245
10 *284:21 *713:B 0.000128171
11 *284:21 *838:CLK 0
12 *284:21 *872:CLK 0.000243245
13 *284:21 *294:30 0.000344598
14 *284:21 *294:53 0.000167179
15 *620:A1 *711:A 4.44643e-05
16 *871:D *712:A 8.91622e-05
17 *871:D *284:21 0.0012839
*RES
1 *871:Q *284:6 13.8 
2 *284:6 *711:A 16.0807 
3 *284:6 *284:21 7.30376 
4 *284:21 *712:A 13.8195 
5 *284:21 *713:A 9.3 
*END

*D_NET *285 0.00424432
*CONN
*I *693:B1 I *D sky130_fd_sc_hd__a21oi_1
*I *692:C I *D sky130_fd_sc_hd__and3_1
*I *872:Q O *D sky130_fd_sc_hd__dfxtp_1
*CAP
1 *693:B1 0
2 *692:C 0.000210231
3 *872:Q 0.000799434
4 *285:16 0.00100967
5 *692:C *692:A 0.00114876
6 *285:16 *702:A 0
7 *285:16 *331:782 7.48689e-05
8 *673:B *285:16 0
9 *694:B *285:16 0.000242739
10 *702:B_N *285:16 0.000758622
*RES
1 *872:Q *285:16 24.1168 
2 *285:16 *692:C 10.7228 
3 *285:16 *693:B1 9.3 
*END

*D_NET *286 0.00648431
*CONN
*I *689:B1 I *D sky130_fd_sc_hd__a22oi_1
*I *608:A I *D sky130_fd_sc_hd__xor2_1
*I *690:A I *D sky130_fd_sc_hd__nor2_1
*I *844:Q O *D sky130_fd_sc_hd__dfxtp_1
*CAP
1 *689:B1 0.000339359
2 *608:A 0
3 *690:A 2.42384e-05
4 *844:Q 0
5 *286:10 0.000104778
6 *286:4 0.000419899
7 *689:B1 *689:A2 3.52009e-05
8 *689:B1 *755:A1 7.09466e-05
9 *689:B1 *323:31 0.000598415
10 *690:A *690:B 0.000895354
11 *690:A *322:76 0.00042352
12 *286:10 *323:31 0
13 *286:10 *361:23 0.00110423
14 *691:B *689:B1 0.00127704
15 *691:C *689:B1 0.000140804
16 *691:C *690:A 7.9476e-05
17 *691:C *286:10 0.000760142
18 *825:D *286:10 4.44643e-05
19 *844:D *689:B1 0.000103664
20 *252:12 *286:10 6.27732e-05
*RES
1 *844:Q *286:4 9.3 
2 *286:4 *286:10 11.6364 
3 *286:10 *690:A 10.8902 
4 *286:10 *608:A 9.3 
5 *286:4 *689:B1 23.238 
*END

*D_NET *287 0.00934351
*CONN
*I *686:B1 I *D sky130_fd_sc_hd__a22oi_1
*I *687:A I *D sky130_fd_sc_hd__nor2_1
*I *604:A I *D sky130_fd_sc_hd__xor2_1
*I *845:Q O *D sky130_fd_sc_hd__dfxtp_1
*CAP
1 *686:B1 0.000269969
2 *687:A 0.000606627
3 *604:A 0
4 *845:Q 0.00073989
5 *287:12 0.000606627
6 *287:10 0.00100986
7 *686:B1 *686:B2 0.00127141
8 *687:A *687:B 0.00173911
9 *287:10 *686:B2 0.000172299
10 *287:10 *362:10 0.00179394
11 *819:D *687:A 0.000238428
12 *819:D *287:10 0
13 *845:D *287:10 0.000895354
14 *94:12 *686:B1 0
*RES
1 *845:Q *287:10 18.9681 
2 *287:10 *287:12 4.5 
3 *287:12 *604:A 9.3 
4 *287:12 *687:A 13.8195 
5 *287:10 *686:B1 16.7084 
*END

*D_NET *288 0.0112445
*CONN
*I *600:A I *D sky130_fd_sc_hd__xor2_1
*I *684:A I *D sky130_fd_sc_hd__nor2_1
*I *683:B1 I *D sky130_fd_sc_hd__a22oi_1
*I *846:Q O *D sky130_fd_sc_hd__dfxtp_1
*CAP
1 *600:A 0.000176915
2 *684:A 0.000133002
3 *683:B1 0
4 *846:Q 0.000352901
5 *288:12 0.000133002
6 *288:10 0.000529816
7 *600:A *683:A2 0.000422411
8 *600:A *840:CLK 0
9 *600:A *293:154 0.000774005
10 *600:A *314:16 0.000262616
11 *600:A *325:16 0.000759635
12 *600:A *369:122 7.09466e-05
13 *684:A *683:B2 4.44349e-05
14 *684:A *684:B 0.00176583
15 *684:A *685:A 0.000506804
16 *684:A *317:22 0.000198882
17 *684:A *363:12 0.00029535
18 *684:A *363:14 0.000335587
19 *288:10 *840:CLK 0
20 *288:10 *293:154 0.000310596
21 *288:10 *296:16 0.000167179
22 *288:10 *369:122 0.000329395
23 *685:B *684:A 0.0012839
24 *685:C *684:A 0.00110738
25 *908:A *600:A 0
26 *164:12 *600:A 0.0012839
*RES
1 *846:Q *288:10 15.997 
2 *288:10 *288:12 4.5 
3 *288:12 *683:B1 9.3 
4 *288:12 *684:A 15.4306 
5 *288:10 *600:A 19.9515 
*END

*D_NET *289 0.0325724
*CONN
*I *680:B1 I *D sky130_fd_sc_hd__a22oi_1
*I *596:A I *D sky130_fd_sc_hd__xor2_1
*I *681:A I *D sky130_fd_sc_hd__nor2_1
*I *847:Q O *D sky130_fd_sc_hd__dfxtp_1
*CAP
1 *680:B1 0.000468472
2 *596:A 2.24829e-05
3 *681:A 0.000397103
4 *847:Q 0.000935927
5 *289:12 0.000701442
6 *289:10 0.00168626
7 *680:B1 *680:A1 0.000157096
8 *680:B1 *682:A 0
9 *680:B1 *318:24 4.0541e-05
10 *681:A *678:B 0.000506804
11 *681:A *681:B 0.00118077
12 *681:A *312:18 0.000832188
13 *681:A *321:18 0.00239698
14 *289:10 *682:A 0.000587843
15 *289:10 *728:B 7.66137e-05
16 *289:10 *323:16 0.000240194
17 *289:10 *332:16 0
18 *289:12 *728:B 3.49938e-05
19 *289:12 *332:16 0
20 *595:B *596:A 0.00029535
21 *595:C *681:A 0.000931934
22 *815:D *681:A 0.00110474
23 *815:D *289:12 0.00110423
24 *905:A *681:A 0.000506804
25 *16:19 *289:10 0.00167245
26 *19:13 *681:A 0.000238428
27 *33:27 *680:B1 0.000232207
28 *33:27 *289:12 3.52009e-05
29 *141:14 *681:A 0.012348
30 *141:14 *289:12 0.00275628
31 *174:14 *681:A 0.000163472
32 *174:14 *289:12 2.22322e-05
33 *243:20 *596:A 0.000895354
*RES
1 *847:Q *289:10 17.6186 
2 *289:10 *289:12 6.01553 
3 *289:12 *681:A 36.0418 
4 *289:12 *596:A 14.909 
5 *289:10 *680:B1 21.608 
*END

*D_NET *290 0.0120899
*CONN
*I *677:B1 I *D sky130_fd_sc_hd__a22oi_1
*I *592:A I *D sky130_fd_sc_hd__xor2_1
*I *678:A I *D sky130_fd_sc_hd__nor2_1
*I *848:Q O *D sky130_fd_sc_hd__dfxtp_1
*CAP
1 *677:B1 0.000158629
2 *592:A 2.03222e-05
3 *678:A 6.60826e-05
4 *848:Q 0.00226324
5 *290:10 0.000118448
6 *290:8 0.00245391
7 *592:A *333:26 0.00029535
8 *677:B1 *681:B 0.00098866
9 *677:B1 *327:40 7.09466e-05
10 *678:A *678:B 0.000266786
11 *678:A *681:B 0.00162164
12 *290:10 *681:B 0.000932441
13 *848:D *290:8 0.0012839
14 *240:10 *592:A 0.00018314
15 *240:10 *677:B1 0.000774212
16 *240:10 *678:A 0.000240194
17 *240:10 *290:10 0.000352009
*RES
1 *848:Q *290:8 18.7589 
2 *290:8 *290:10 1.92497 
3 *290:10 *678:A 17.1478 
4 *290:10 *592:A 14.909 
5 *290:8 *677:B1 18.4869 
*END

*D_NET *291 0.0128473
*CONN
*I *588:A I *D sky130_fd_sc_hd__xor2_1
*I *674:B1 I *D sky130_fd_sc_hd__a22oi_1
*I *675:A I *D sky130_fd_sc_hd__nor2_1
*I *849:Q O *D sky130_fd_sc_hd__dfxtp_1
*CAP
1 *588:A 9.43153e-05
2 *674:B1 0.000102717
3 *675:A 0
4 *849:Q 0.00167833
5 *291:18 0.000748442
6 *291:10 0.00241838
7 *588:A *816:CLK 0
8 *588:A *331:774 0
9 *674:B1 *674:B2 0.000109526
10 *674:B1 *333:26 0.00023371
11 *291:10 *591:A 0.000419266
12 *291:10 *331:774 0
13 *291:18 *588:B 0.0028381
14 *291:18 *674:B2 1.83088e-05
15 *291:18 *333:26 0.00107708
16 *291:18 *366:14 0.000107237
17 *587:C *674:B1 0.000760142
18 *676:B *674:B1 0.000760142
19 *676:B *291:18 7.9476e-05
20 *676:C *291:18 0.000506804
21 *816:D *588:A 0
22 *816:D *291:10 0
23 *849:D *291:18 0.000895354
*RES
1 *849:Q *291:10 18.8844 
2 *291:10 *291:18 15.7792 
3 *291:18 *675:A 13.8 
4 *291:18 *674:B1 16.8548 
5 *291:10 *588:A 14.6579 
*END

*D_NET *292 0.00914637
*CONN
*I *671:B1 I *D sky130_fd_sc_hd__a22oi_1
*I *806:A I *D sky130_fd_sc_hd__xor2_1
*I *672:A I *D sky130_fd_sc_hd__nor2_1
*I *850:Q O *D sky130_fd_sc_hd__dfxtp_1
*CAP
1 *671:B1 0.000412756
2 *806:A 0
3 *672:A 0.000438334
4 *850:Q 0
5 *292:25 0.000615653
6 *292:6 0.00064123
7 *671:B1 *671:A1 0.000167179
8 *671:B1 *671:A2 0.000513308
9 *672:A *672:B 0
10 *672:A *817:CLK 0
11 *672:A *849:CLK 0.000166583
12 *672:A *296:24 0
13 *672:A *296:26 0
14 *672:A *331:780 0.0020782
15 *292:25 *671:A2 0.0012839
16 *292:25 *806:B 0.000506804
17 *292:25 *296:24 0
18 *586:C *672:A 7.09466e-05
19 *586:C *292:25 0.000932441
20 *673:C *672:A 0
21 *817:D *672:A 0.00131903
*RES
1 *850:Q *292:6 13.8 
2 *292:6 *672:A 21.2697 
3 *292:6 *292:25 8.01516 
4 *292:25 *806:A 9.3 
5 *292:25 *671:B1 13.3383 
*END

*D_NET *1 0.0274987
*CONN
*P clk I
*I *873:A I *D sky130_fd_sc_hd__clkbuf_16
*CAP
1 clk 0.00483324
2 *873:A 0.000112253
3 *1:18 0.0049455
4 *873:A *293:23 4.17948e-05
5 *873:A *300:31 0.000426307
6 *1:18 *652:B 0.00127704
7 *1:18 *668:A1 0.000728104
8 *1:18 *668:A2 0
9 *1:18 *805:C 0.000400505
10 *1:18 *807:A1 0
11 *1:18 *819:D 0
12 *1:18 *908:A 0.00339735
13 *1:18 *36:11 0.000458416
14 *1:18 *231:10 0.000576727
15 *1:18 *293:6 0.000386684
16 *1:18 *293:23 0.00119625
17 *1:18 *300:31 0.00153686
18 *1:18 *312:18 0.00323368
19 *1:18 *329:18 0.00140114
20 *1:18 *331:559 7.28265e-05
21 *1:18 *338:10 6.32634e-05
22 *1:18 *362:10 0.00168395
23 *1:18 *369:122 0.000726857
*RES
1 clk *1:18 41.9777 
2 *1:18 *873:A 11.1308 
*END

*D_NET *293 0.0568675
*CONN
*I *881:A I *D sky130_fd_sc_hd__clkbuf_16
*I *877:A I *D sky130_fd_sc_hd__clkbuf_16
*I *876:A I *D sky130_fd_sc_hd__clkbuf_16
*I *880:A I *D sky130_fd_sc_hd__clkbuf_16
*I *878:A I *D sky130_fd_sc_hd__clkbuf_16
*I *879:A I *D sky130_fd_sc_hd__clkbuf_16
*I *875:A I *D sky130_fd_sc_hd__clkbuf_16
*I *874:A I *D sky130_fd_sc_hd__clkbuf_16
*I *873:X O *D sky130_fd_sc_hd__clkbuf_16
*CAP
1 *881:A 5.29396e-05
2 *877:A 0
3 *876:A 0.000134795
4 *880:A 0
5 *878:A 0
6 *879:A 0.000180653
7 *875:A 0.000284152
8 *874:A 9.49948e-05
9 *873:X 0.000972215
10 *293:177 0.0024881
11 *293:154 0.00142293
12 *293:148 0.00257218
13 *293:139 0.00379222
14 *293:130 0.00023372
15 *293:124 0.000599502
16 *293:111 0.00119414
17 *293:86 0.00288523
18 *293:70 0.00051642
19 *293:52 0.00117021
20 *293:42 0.00190012
21 *293:29 0.00329721
22 *293:27 1.59774e-05
23 *293:23 0.00185752
24 *293:6 0.00205841
25 *875:A *867:CLK 6.91096e-05
26 *876:A *674:A2 0.000302354
27 *876:A *369:128 0.000167179
28 *881:A *301:14 0.00029535
29 *293:6 *300:31 4.74169e-05
30 *293:23 *755:A1 0.0013848
31 *293:23 *845:CLK 0.000551691
32 *293:23 *298:6 0.000808032
33 *293:23 *298:16 0.000576768
34 *293:23 *347:12 0.000626783
35 *293:27 *755:A1 0.000487606
36 *293:27 *298:16 0.000487606
37 *293:52 *718:B 4.83876e-05
38 *293:52 *832:CLK 0.000521801
39 *293:52 *864:CLK 0.000380998
40 *293:52 *295:25 0.000521801
41 *293:52 *295:27 0.000662605
42 *293:52 *295:33 0.000380998
43 *293:52 *331:644 0
44 *293:52 *358:8 0.000521801
45 *293:52 *358:19 0.0004866
46 *293:70 *867:CLK 0.000193507
47 *293:70 *295:6 0.00018314
48 *293:86 *776:B 0
49 *293:86 *844:CLK 0.000733007
50 *293:86 *299:10 0
51 *293:86 *310:42 0.000222322
52 *293:86 *331:407 0
53 *293:86 *345:18 9.93907e-05
54 *293:111 *300:18 0.000257409
55 *293:111 *300:31 0.00020615
56 *293:124 *300:63 6.41898e-05
57 *293:124 *323:16 0
58 *293:130 *331:32 0.00029535
59 *293:139 *331:32 0.000167179
60 *293:148 *653:A2 0.000240194
61 *293:148 *782:B 0
62 *293:148 *297:48 0
63 *293:148 *300:12 0
64 *293:148 *304:14 0
65 *293:148 *343:10 0
66 *293:148 *343:20 0.000380998
67 *293:154 *600:B 8.89287e-05
68 *293:154 *601:A1 0
69 *293:154 *674:A2 0.000143402
70 *293:154 *706:B2 0
71 *293:154 *816:CLK 0
72 *293:154 *840:CLK 0
73 *293:154 *296:12 0
74 *293:154 *325:16 0.000177857
75 *293:154 *331:764 0.000521594
76 *293:154 *331:766 0.00108439
77 *293:154 *369:154 0
78 *293:177 *605:A2 0
79 *293:177 *801:A 0
80 *293:177 *852:CLK 0
81 *293:177 *301:14 0.000169792
82 *293:177 *301:33 0
83 *293:177 *306:10 0.000159548
84 *293:177 *306:27 0.000373631
85 *293:177 *307:12 0
86 *293:177 *313:12 0
87 *293:177 *322:227 0
88 *293:177 *331:282 0
89 *600:A *293:154 0.000774005
90 *631:B *293:52 0
91 *655:B *293:177 0
92 *655:C *293:124 0.000275188
93 *655:C *293:148 0
94 *655:C *293:177 0
95 *708:B *293:148 4.44643e-05
96 *708:B *293:154 0.000355715
97 *708:C *293:154 0.000310596
98 *720:A *874:A 0.000277437
99 *720:B *874:A 0.00131873
100 *720:B *293:52 0.000516862
101 *777:C *293:86 0
102 *782:A *293:148 0
103 *819:D *293:23 0
104 *821:D *881:A 0.000451383
105 *821:D *293:177 0.000139316
106 *825:D *293:86 0
107 *829:D *293:42 0.00100045
108 *829:D *293:52 0.000133393
109 *829:D *293:86 0
110 *830:D *879:A 0.000487606
111 *830:D *293:86 0.000320427
112 *856:D *293:124 4.0541e-05
113 *870:D *293:52 0
114 *873:A *293:23 4.17948e-05
115 *893:A *293:154 0
116 *1:18 *293:6 0.000386684
117 *1:18 *293:23 0.00119625
118 *33:27 *293:154 6.41898e-05
119 *74:10 *293:42 0.00108274
120 *74:10 *293:52 0.00111161
121 *74:10 *293:86 0.00246406
122 *179:16 *293:42 0
123 *179:16 *293:124 0.000186188
124 *210:10 *293:86 0
125 *228:14 *293:177 0
126 *246:20 *293:154 0
127 *267:16 *293:148 0.000380998
128 *282:10 *293:52 0.000380998
129 *288:10 *293:154 0.000310596
*RES
1 *873:X *293:6 10.9268 
2 *293:6 *293:23 28.5374 
3 *293:23 *293:27 1.83081 
4 *293:27 *293:29 4.5 
5 *293:29 *293:42 15.7843 
6 *293:42 *293:52 25.8787 
7 *293:52 *874:A 11.6696 
8 *293:42 *293:70 6.78067 
9 *293:70 *875:A 11.1622 
10 *293:29 *293:86 32.5272 
11 *293:86 *879:A 11.1308 
12 *293:27 *878:A 9.3 
13 *873:X *293:111 15.8924 
14 *293:111 *293:124 9.19944 
15 *293:124 *293:130 5.60895 
16 *293:130 *880:A 9.3 
17 *293:130 *293:139 5.12771 
18 *293:139 *293:148 13.2656 
19 *293:148 *293:154 22.2328 
20 *293:154 *876:A 11.1308 
21 *293:148 *877:A 13.8 
22 *293:139 *293:177 25.8002 
23 *293:177 *881:A 10.9948 
*END

*D_NET *294 0.0385639
*CONN
*I *839:CLK I *D sky130_fd_sc_hd__dfxtp_1
*I *838:CLK I *D sky130_fd_sc_hd__dfxtp_1
*I *837:CLK I *D sky130_fd_sc_hd__dfxtp_1
*I *869:CLK I *D sky130_fd_sc_hd__dfxtp_1
*I *868:CLK I *D sky130_fd_sc_hd__dfxtp_1
*I *836:CLK I *D sky130_fd_sc_hd__dfxtp_1
*I *871:CLK I *D sky130_fd_sc_hd__dfxtp_1
*I *872:CLK I *D sky130_fd_sc_hd__dfxtp_1
*I *864:CLK I *D sky130_fd_sc_hd__dfxtp_1
*I *874:X O *D sky130_fd_sc_hd__clkbuf_16
*CAP
1 *839:CLK 0.000113904
2 *838:CLK 0.00100336
3 *837:CLK 0.0027724
4 *869:CLK 0
5 *868:CLK 0.000339521
6 *836:CLK 0
7 *871:CLK 0
8 *872:CLK 0.000302007
9 *864:CLK 0.000490516
10 *874:X 0.000618248
11 *294:101 0.00389174
12 *294:74 0.00123958
13 *294:70 0.00172274
14 *294:57 0.00242904
15 *294:53 0.00279291
16 *294:30 0.00145499
17 *294:28 0.000324065
18 *837:CLK *357:6 0.000139832
19 *837:CLK *357:23 0.00018314
20 *864:CLK *331:589 0.000103664
21 *872:CLK *620:C1 0.000551691
22 *872:CLK *711:B 0.00018314
23 *294:53 *713:B 0
24 *620:A1 *872:CLK 0.000909937
25 *620:A1 *294:28 6.39828e-05
26 *620:A1 *294:30 0.000732799
27 *620:B1 *872:CLK 0.00167245
28 *622:A1 *294:74 0
29 *622:A2 *294:74 0
30 *622:B1 *294:70 0.00253871
31 *622:B1 *294:74 0
32 *631:B *864:CLK 0
33 *711:A *872:CLK 0.000515862
34 *714:A *294:28 2.22322e-05
35 *714:B *838:CLK 0
36 *714:B *294:30 0.000451192
37 *715:B *294:28 0.000759129
38 *724:A *294:57 2.72343e-05
39 *724:A *294:70 0.000489661
40 *726:A *294:74 0
41 *836:D *294:74 0.000196166
42 *837:D *837:CLK 0.000270391
43 *837:D *838:CLK 0
44 *838:D *838:CLK 0.00365321
45 *838:D *839:CLK 0.00029535
46 *864:D *864:CLK 0
47 *869:D *294:70 0.00287611
48 *871:D *294:53 0.000569579
49 *871:D *294:57 0.000252682
50 *281:12 *294:70 0.000474745
51 *284:21 *838:CLK 0
52 *284:21 *872:CLK 0.000243245
53 *284:21 *294:30 0.000344598
54 *284:21 *294:53 0.000167179
55 *293:52 *864:CLK 0.000380998
*RES
1 *874:X *864:CLK 30.7804 
2 *874:X *294:28 15.725 
3 *294:28 *294:30 3.70348 
4 *294:30 *872:CLK 20.37 
5 *294:30 *294:53 9.62628 
6 *294:53 *294:57 4.37303 
7 *294:57 *871:CLK 9.3 
8 *294:57 *294:70 11.2778 
9 *294:70 *294:74 12.8276 
10 *294:74 *836:CLK 13.8 
11 *294:74 *868:CLK 16.7921 
12 *294:70 *869:CLK 9.3 
13 *294:53 *294:101 5.45202 
14 *294:101 *837:CLK 21.615 
15 *294:101 *838:CLK 23.6027 
16 *294:28 *839:CLK 14.909 
*END

*D_NET *295 0.0445334
*CONN
*I *882:A I *D sky130_fd_sc_hd__clkbuf_4
*I *829:CLK I *D sky130_fd_sc_hd__dfxtp_1
*I *870:CLK I *D sky130_fd_sc_hd__dfxtp_1
*I *866:CLK I *D sky130_fd_sc_hd__dfxtp_1
*I *835:CLK I *D sky130_fd_sc_hd__dfxtp_1
*I *861:CLK I *D sky130_fd_sc_hd__dfxtp_1
*I *851:CLK I *D sky130_fd_sc_hd__dfxtp_1
*I *832:CLK I *D sky130_fd_sc_hd__dfxtp_1
*I *867:CLK I *D sky130_fd_sc_hd__dfxtp_1
*I *875:X O *D sky130_fd_sc_hd__clkbuf_16
*CAP
1 *882:A 0.000232612
2 *829:CLK 5.84167e-05
3 *870:CLK 0
4 *866:CLK 0.000309648
5 *835:CLK 0.000250906
6 *861:CLK 0
7 *851:CLK 0.00150633
8 *832:CLK 0.000156306
9 *867:CLK 0.000838439
10 *875:X 0.00170794
11 *295:90 0.00206668
12 *295:80 0.0024618
13 *295:72 0.00198484
14 *295:50 0.00157762
15 *295:33 0.000537315
16 *295:27 0.00137634
17 *295:25 0.000367161
18 *295:6 0.00258506
19 *867:CLK *351:18 0.000506804
20 *295:27 *331:644 0
21 *295:33 *331:644 0
22 *295:80 *331:644 0.00038855
23 *295:80 *331:646 0.0036152
24 *295:90 *729:B 0.000158952
25 *295:90 *731:B 0.000573456
26 *295:90 *733:A 0
27 *295:90 *356:14 9.42961e-05
28 *295:90 *356:16 5.52877e-05
29 *623:A2 *295:90 0.000506804
30 *623:B1 *295:90 0.000506804
31 *624:B1 *295:27 4.44643e-05
32 *624:B1 *295:72 7.9476e-05
33 *624:B1 *295:80 0.000128171
34 *729:A *295:90 0.0012839
35 *732:B *295:80 0.000380998
36 *765:C *295:6 0.000506804
37 *829:D *867:CLK 0.00129622
38 *829:D *295:25 0.00120609
39 *829:D *295:27 0.000932441
40 *829:D *295:72 2.30846e-05
41 *835:D *295:90 0
42 *861:D *851:CLK 0.00209901
43 *867:D *867:CLK 0.00219157
44 *868:D *295:90 0.00024063
45 *875:A *867:CLK 6.91096e-05
46 *74:10 *832:CLK 0.00127704
47 *164:14 *832:CLK 0.000895354
48 *174:24 *851:CLK 0.000780508
49 *174:24 *295:33 0.000551691
50 *174:24 *295:50 0.00029535
51 *174:24 *295:90 0.00166842
52 *279:16 *882:A 0.0012839
53 *280:14 *295:90 0.000384512
54 *282:18 *832:CLK 2.72343e-05
55 *293:52 *832:CLK 0.000521801
56 *293:52 *295:25 0.000521801
57 *293:52 *295:27 0.000662605
58 *293:52 *295:33 0.000380998
59 *293:70 *867:CLK 0.000193507
60 *293:70 *295:6 0.00018314
*RES
1 *875:X *295:6 13.2964 
2 *295:6 *867:CLK 27.5482 
3 *295:6 *295:25 7.13637 
4 *295:25 *295:27 3.34778 
5 *295:27 *295:33 8.49641 
6 *295:33 *832:CLK 22.5475 
7 *295:33 *295:50 1.10895 
8 *295:50 *851:CLK 19.9501 
9 *295:50 *861:CLK 9.3 
10 *295:27 *295:72 7.0736 
11 *295:72 *295:80 16.7208 
12 *295:80 *295:90 20.3601 
13 *295:90 *835:CLK 15.3902 
14 *295:90 *866:CLK 16.4364 
15 *295:80 *870:CLK 9.3 
16 *295:72 *829:CLK 9.80217 
17 *295:25 *882:A 15.3902 
*END

*D_NET *296 0.0392815
*CONN
*I *848:CLK I *D sky130_fd_sc_hd__dfxtp_1
*I *840:CLK I *D sky130_fd_sc_hd__dfxtp_4
*I *816:CLK I *D sky130_fd_sc_hd__dfxtp_1
*I *814:CLK I *D sky130_fd_sc_hd__dfxtp_1
*I *846:CLK I *D sky130_fd_sc_hd__dfxtp_1
*I *850:CLK I *D sky130_fd_sc_hd__dfxtp_1
*I *818:CLK I *D sky130_fd_sc_hd__dfxtp_1
*I *849:CLK I *D sky130_fd_sc_hd__dfxtp_1
*I *817:CLK I *D sky130_fd_sc_hd__dfxtp_1
*I *876:X O *D sky130_fd_sc_hd__clkbuf_16
*CAP
1 *848:CLK 0.000400548
2 *840:CLK 0.000466444
3 *816:CLK 0.000599922
4 *814:CLK 0
5 *846:CLK 0
6 *850:CLK 0
7 *818:CLK 0.000548061
8 *849:CLK 0.00360704
9 *817:CLK 5.41193e-05
10 *876:X 0.000400548
11 *296:82 0.00110158
12 *296:52 0.00159315
13 *296:26 0.00384354
14 *296:24 0.00211857
15 *296:16 0.00228775
16 *296:12 0.00176404
17 *296:4 0.000402611
18 *816:CLK *589:A2 0
19 *817:CLK *672:B 0.000351627
20 *818:CLK *710:B 0.00127501
21 *818:CLK *321:18 0.000156589
22 *818:CLK *369:181 0.000242739
23 *818:CLK *369:386 0.000961398
24 *840:CLK *328:16 0
25 *840:CLK *369:112 0.000242739
26 *840:CLK *369:122 0
27 *848:CLK *589:A2 0.00154024
28 *848:CLK *590:A 0.000384512
29 *848:CLK *674:A2 0.00042352
30 *848:CLK *328:31 0.000128171
31 *849:CLK *588:B 0.000506804
32 *849:CLK *331:780 0.000120712
33 *849:CLK *366:14 0.00167245
34 *296:12 *674:A2 0.0012839
35 *296:24 *672:B 0.00206607
36 *296:24 *806:B 4.04102e-05
37 *296:24 *807:A1 0.000114799
38 *296:24 *367:27 0.00167245
39 *296:26 *672:B 0.00120559
40 *296:82 *674:A2 0.000506804
41 *586:C *296:24 0
42 *587:B *296:24 0.000506804
43 *588:A *816:CLK 0
44 *590:C *816:CLK 0
45 *591:C *848:CLK 0.000374595
46 *600:A *840:CLK 0
47 *672:A *817:CLK 0
48 *672:A *849:CLK 0.000166583
49 *672:A *296:24 0
50 *672:A *296:26 0
51 *694:B *818:CLK 0
52 *805:B *296:24 0.00042352
53 *807:B1 *296:24 0.000167179
54 *814:D *840:CLK 0.000421996
55 *816:D *816:CLK 7.09466e-05
56 *817:D *849:CLK 0.000270391
57 *846:D *296:16 0.000156265
58 *850:D *296:52 0.00132191
59 *159:12 *818:CLK 0.000157096
60 *169:14 *818:CLK 0.000485772
61 *237:8 *816:CLK 0.000506804
62 *288:10 *840:CLK 0
63 *288:10 *296:16 0.000167179
64 *292:25 *296:24 0
65 *293:154 *816:CLK 0
66 *293:154 *840:CLK 0
67 *293:154 *296:12 0
*RES
1 *876:X *296:4 9.3 
2 *296:4 *296:12 13.2266 
3 *296:12 *296:16 9.311 
4 *296:16 *296:24 14.7316 
5 *296:24 *296:26 2.63637 
6 *296:26 *817:CLK 14.6579 
7 *296:26 *849:CLK 22.9855 
8 *296:24 *296:52 10.4423 
9 *296:52 *818:CLK 26.6276 
10 *296:52 *850:CLK 9.3 
11 *296:16 *846:CLK 9.3 
12 *296:12 *814:CLK 9.3 
13 *296:4 *296:82 5.12771 
14 *296:82 *816:CLK 18.4032 
15 *296:82 *840:CLK 18.9263 
16 *876:X *848:CLK 24.7097 
*END

*D_NET *297 0.0428141
*CONN
*I *847:CLK I *D sky130_fd_sc_hd__dfxtp_1
*I *815:CLK I *D sky130_fd_sc_hd__dfxtp_1
*I *809:CLK I *D sky130_fd_sc_hd__dfxtp_1
*I *842:CLK I *D sky130_fd_sc_hd__dfxtp_1
*I *824:CLK I *D sky130_fd_sc_hd__dfxtp_1
*I *857:CLK I *D sky130_fd_sc_hd__dfxtp_1
*I *883:A I *D sky130_fd_sc_hd__clkinv_1
*I *813:CLK I *D sky130_fd_sc_hd__dfxtp_1
*I *877:X O *D sky130_fd_sc_hd__clkbuf_16
*CAP
1 *847:CLK 0
2 *815:CLK 9.32932e-05
3 *809:CLK 0.000238949
4 *842:CLK 0
5 *824:CLK 0
6 *857:CLK 0.000813912
7 *883:A 8.24266e-06
8 *813:CLK 0.00050125
9 *877:X 0.000607576
10 *297:82 0.000332242
11 *297:80 0.000100396
12 *297:48 0.00147826
13 *297:31 0.000784506
14 *297:18 0.000897227
15 *297:14 0.000791244
16 *809:CLK *617:A1 7.09466e-05
17 *809:CLK *302:10 0.00179292
18 *809:CLK *318:24 0.00270692
19 *813:CLK *314:16 0.000895354
20 *813:CLK *362:10 0.000436111
21 *815:CLK *617:A1 0.000675029
22 *815:CLK *318:24 0.00282773
23 *857:CLK *780:A 6.66522e-05
24 *857:CLK *780:B 0.000103664
25 *857:CLK *369:258 0.00685177
26 *857:CLK *369:273 0.000128171
27 *883:A *708:A 0.000506804
28 *883:A *309:18 0.000167179
29 *297:14 *617:A2 0.000167179
30 *297:14 *706:B2 0.0028381
31 *297:14 *707:B 0.0007771
32 *297:14 *331:101 0.00144934
33 *297:18 *362:10 0.000580521
34 *297:31 *309:18 0.000760142
35 *297:31 *331:732 0.00024063
36 *297:48 *780:A 0
37 *297:48 *331:79 0.0004866
38 *297:48 *343:20 1.83088e-05
39 *297:80 *617:A2 0.000618343
40 *616:A *297:14 0.00144934
41 *617:B1 *809:CLK 0.000248477
42 *706:B1 *297:14 0.000580521
43 *708:B *297:31 0
44 *708:C *297:14 0.000260521
45 *764:C *857:CLK 0
46 *780:C *857:CLK 0.000185828
47 *781:B *297:48 0
48 *781:C *857:CLK 0.000103664
49 *781:C *297:48 0
50 *809:D *809:CLK 0.000506804
51 *813:D *813:CLK 0.000156265
52 *824:D *297:48 0.000877583
53 *842:D *297:14 0.00115298
54 *842:D *297:18 0.00167245
55 *857:D *857:CLK 0.000156265
56 *15:21 *815:CLK 0.00110474
57 *16:19 *297:14 0.000158952
58 *16:19 *297:80 0.002061
59 *268:8 *857:CLK 0.000326131
60 *293:148 *297:48 0
*RES
1 *877:X *297:14 29.7661 
2 *297:14 *297:18 4.49857 
3 *297:18 *813:CLK 13.7986 
4 *297:18 *297:31 6.78067 
5 *297:31 *883:A 14.4277 
6 *297:31 *297:48 10.7771 
7 *297:48 *857:CLK 21.6658 
8 *297:48 *824:CLK 9.3 
9 *297:14 *842:CLK 9.3 
10 *877:X *297:80 12.3548 
11 *297:80 *297:82 4.5 
12 *297:82 *809:CLK 20.8931 
13 *297:82 *815:CLK 19.6377 
14 *297:80 *847:CLK 9.3 
*END

*D_NET *298 0.0447318
*CONN
*I *860:CLK I *D sky130_fd_sc_hd__dfxtp_1
*I *844:CLK I *D sky130_fd_sc_hd__dfxtp_1
*I *812:CLK I *D sky130_fd_sc_hd__dfxtp_1
*I *884:A I *D sky130_fd_sc_hd__clkinv_1
*I *828:CLK I *D sky130_fd_sc_hd__dfxtp_1
*I *825:CLK I *D sky130_fd_sc_hd__dfxtp_1
*I *834:CLK I *D sky130_fd_sc_hd__dfxtp_1
*I *831:CLK I *D sky130_fd_sc_hd__dfxtp_1
*I *878:X O *D sky130_fd_sc_hd__clkbuf_16
*CAP
1 *860:CLK 0.000191436
2 *844:CLK 0.000649655
3 *812:CLK 0
4 *884:A 0.000168322
5 *828:CLK 0
6 *825:CLK 0.000320505
7 *834:CLK 0
8 *831:CLK 0.000100984
9 *878:X 0.00137842
10 *298:70 0.00171146
11 *298:66 0.00359745
12 *298:40 0.000483311
13 *298:38 0.00156746
14 *298:16 0.00266916
15 *298:6 0.00375517
16 *825:CLK *920:A 0
17 *825:CLK *331:695 0.00173911
18 *831:CLK *351:18 0.000932441
19 *831:CLK *354:12 0.000912555
20 *831:CLK *354:29 2.61555e-05
21 *860:CLK *689:A2 0.000157096
22 *860:CLK *691:A 0.000243245
23 *860:CLK *755:A1 0.000422411
24 *860:CLK *920:A 0.00110474
25 *860:CLK *323:31 0.00119089
26 *860:CLK *347:12 0
27 *884:A *632:A2 0
28 *298:16 *755:A1 9.73295e-05
29 *298:16 *755:A2 0.000384512
30 *298:16 *354:12 0.00364878
31 *298:40 *920:A 0
32 *298:66 *755:A1 0
33 *298:66 *920:A 0
34 *625:A2 *831:CLK 0.000121518
35 *625:A2 *298:16 0.00063792
36 *755:B1 *298:16 0.00322665
37 *765:B *825:CLK 0.000230702
38 *825:D *825:CLK 0.0016056
39 *825:D *844:CLK 0
40 *825:D *298:40 0.00103379
41 *825:D *298:66 0.00137839
42 *834:D *298:16 0.00132191
43 *844:D *844:CLK 0.00171046
44 *866:D *831:CLK 0.0004514
45 *866:D *298:70 0
46 *184:22 *884:A 0.00115683
47 *184:22 *298:66 0.00121326
48 *184:22 *298:70 0.000556332
49 *278:14 *831:CLK 2.8989e-05
50 *279:16 *825:CLK 0
51 *293:23 *298:6 0.000808032
52 *293:23 *298:16 0.000576768
53 *293:27 *298:16 0.000487606
54 *293:86 *844:CLK 0.000733007
*RES
1 *878:X *298:6 12.3339 
2 *298:6 *298:16 15.881 
3 *298:16 *831:CLK 22.1918 
4 *298:16 *834:CLK 9.3 
5 *298:6 *298:38 4.5 
6 *298:38 *298:40 2.28067 
7 *298:40 *825:CLK 19.7214 
8 *298:40 *828:CLK 13.8 
9 *298:38 *298:66 10.526 
10 *298:66 *298:70 4.37303 
11 *298:70 *884:A 11.3924 
12 *298:70 *812:CLK 9.3 
13 *298:66 *844:CLK 25.5186 
14 *878:X *860:CLK 32.3706 
*END

*D_NET *299 0.0298749
*CONN
*I *843:CLK I *D sky130_fd_sc_hd__dfxtp_1
*I *858:CLK I *D sky130_fd_sc_hd__dfxtp_1
*I *862:CLK I *D sky130_fd_sc_hd__dfxtp_1
*I *830:CLK I *D sky130_fd_sc_hd__dfxtp_1
*I *865:CLK I *D sky130_fd_sc_hd__dfxtp_1
*I *833:CLK I *D sky130_fd_sc_hd__dfxtp_1
*I *863:CLK I *D sky130_fd_sc_hd__dfxtp_1
*I *811:CLK I *D sky130_fd_sc_hd__dfxtp_1
*I *826:CLK I *D sky130_fd_sc_hd__dfxtp_1
*I *879:X O *D sky130_fd_sc_hd__clkbuf_16
*CAP
1 *843:CLK 0.000302091
2 *858:CLK 0
3 *862:CLK 0
4 *830:CLK 0
5 *865:CLK 0
6 *833:CLK 0
7 *863:CLK 0.000663513
8 *811:CLK 0.000305762
9 *826:CLK 0
10 *879:X 0.000581065
11 *299:63 0.00100303
12 *299:61 0.00107164
13 *299:59 0.00103393
14 *299:57 0.00186763
15 *299:45 0.00292898
16 *299:33 0.00207659
17 *299:10 0.00047548
18 *811:CLK *310:42 0.000659997
19 *811:CLK *345:12 0.000421569
20 *843:CLK *648:B 0.000506804
21 *843:CLK *310:42 0.00042352
22 *863:CLK *634:A 0
23 *299:33 *648:B 0
24 *299:33 *345:18 0
25 *299:57 *637:A 0.000506804
26 *299:61 *637:A 0
27 *628:B *299:61 0
28 *628:B *299:63 0
29 *637:B *299:57 0
30 *637:B *299:59 0
31 *637:B *299:61 0
32 *637:C *299:45 0
33 *637:C *299:57 0.000381419
34 *649:C *843:CLK 0.000167179
35 *649:C *299:33 0.000133393
36 *761:B *299:33 0
37 *761:C *299:33 0
38 *829:D *299:10 0.000285095
39 *829:D *299:33 0
40 *833:D *863:CLK 0
41 *858:D *843:CLK 0.000506804
42 *858:D *299:33 0.000932441
43 *858:D *299:45 0.00649132
44 *862:D *299:57 0
45 *862:D *299:59 0
46 *80:18 *811:CLK 0.00520741
47 *269:10 *843:CLK 0.000434666
48 *269:21 *843:CLK 0.000506804
49 *293:86 *299:10 0
*RES
1 *879:X *299:10 20.5807 
2 *299:10 *826:CLK 9.3 
3 *299:10 *811:CLK 17.1464 
4 *879:X *299:33 23.0706 
5 *299:33 *299:45 19.7966 
6 *299:45 *299:57 15.171 
7 *299:57 *299:59 2.63637 
8 *299:59 *299:61 5.83768 
9 *299:61 *299:63 2.99207 
10 *299:63 *863:CLK 19.6377 
11 *299:63 *833:CLK 13.8 
12 *299:61 *865:CLK 13.8 
13 *299:59 *830:CLK 13.8 
14 *299:57 *862:CLK 13.8 
15 *299:45 *858:CLK 9.3 
16 *299:33 *843:CLK 13.7777 
*END

*D_NET *300 0.0455116
*CONN
*I *808:CLK I *D sky130_fd_sc_hd__dfxtp_1
*I *841:CLK I *D sky130_fd_sc_hd__dfxtp_1
*I *823:CLK I *D sky130_fd_sc_hd__dfxtp_1
*I *852:CLK I *D sky130_fd_sc_hd__dfxtp_1
*I *885:A I *D sky130_fd_sc_hd__clkinv_1
*I *845:CLK I *D sky130_fd_sc_hd__dfxtp_1
*I *819:CLK I *D sky130_fd_sc_hd__dfxtp_1
*I *856:CLK I *D sky130_fd_sc_hd__dfxtp_1
*I *880:X O *D sky130_fd_sc_hd__clkbuf_16
*CAP
1 *808:CLK 0.000250491
2 *841:CLK 2.65661e-05
3 *823:CLK 0.000313636
4 *852:CLK 0.00128675
5 *885:A 0
6 *845:CLK 0.00143561
7 *819:CLK 0.000257597
8 *856:CLK 0
9 *880:X 0.00259368
10 *300:101 0.000780342
11 *300:63 0.00204699
12 *300:31 0.00636329
13 *300:18 0.00632841
14 *300:12 0.00330213
15 *808:CLK *696:A 0
16 *808:CLK *302:10 0.000985625
17 *819:CLK *650:B2 0.000256341
18 *819:CLK *763:A2 0.0009663
19 *819:CLK *347:12 7.04018e-05
20 *841:CLK *302:10 3.52009e-05
21 *845:CLK *347:12 0.000240194
22 *852:CLK *605:A2 0.000169585
23 *852:CLK *686:A1 4.44643e-05
24 *852:CLK *688:A 0.000132268
25 *852:CLK *801:A 0.000285095
26 *852:CLK *324:35 0.0004514
27 *852:CLK *331:290 0.000506804
28 *852:CLK *362:10 0
29 *300:12 *331:32 0.0036152
30 *300:63 *688:A 7.48689e-05
31 *300:63 *362:10 0
32 *300:101 *331:26 0.000158952
33 *300:101 *331:32 0.000103664
34 *655:B *852:CLK 0.000211205
35 *655:B *300:63 0
36 *688:B *852:CLK 0
37 *688:C *852:CLK 0
38 *688:C *300:63 3.90084e-05
39 *700:A *808:CLK 0.000329559
40 *700:A *841:CLK 0.000107237
41 *709:A2 *300:101 0.00246675
42 *709:B1 *300:101 0.0012839
43 *782:A *300:18 0.000103664
44 *831:D *300:31 0.000506804
45 *856:D *852:CLK 7.09466e-05
46 *856:D *300:18 0.000933364
47 *856:D *300:63 0
48 *873:A *300:31 0.000426307
49 *902:A *841:CLK 0.000329395
50 *1:18 *300:31 0.00153686
51 *75:12 *819:CLK 0.00162113
52 *184:22 *819:CLK 0.000704018
53 *184:22 *845:CLK 0.000211205
54 *249:10 *852:CLK 0
55 *267:16 *300:18 0.000421569
56 *293:6 *300:31 4.74169e-05
57 *293:23 *845:CLK 0.000551691
58 *293:111 *300:18 0.000257409
59 *293:111 *300:31 0.00020615
60 *293:124 *300:63 6.41898e-05
61 *293:148 *300:12 0
62 *293:177 *852:CLK 0
*RES
1 *880:X *300:12 24.7026 
2 *300:12 *300:18 8.49498 
3 *300:18 *856:CLK 9.3 
4 *300:18 *300:31 17.5563 
5 *300:31 *819:CLK 19.5749 
6 *300:31 *845:CLK 18.9054 
7 *300:18 *300:63 12.3896 
8 *300:63 *885:A 9.3 
9 *300:63 *852:CLK 29.4314 
10 *300:12 *823:CLK 11.3714 
11 *880:X *300:101 18.7798 
12 *300:101 *841:CLK 14.6579 
13 *300:101 *808:CLK 18.9263 
*END

*D_NET *301 0.0380169
*CONN
*I *854:CLK I *D sky130_fd_sc_hd__dfxtp_1
*I *855:CLK I *D sky130_fd_sc_hd__dfxtp_1
*I *822:CLK I *D sky130_fd_sc_hd__dfxtp_1
*I *853:CLK I *D sky130_fd_sc_hd__dfxtp_1
*I *821:CLK I *D sky130_fd_sc_hd__dfxtp_1
*I *820:CLK I *D sky130_fd_sc_hd__dfxtp_1
*I *810:CLK I *D sky130_fd_sc_hd__dfxtp_1
*I *827:CLK I *D sky130_fd_sc_hd__dfxtp_1
*I *859:CLK I *D sky130_fd_sc_hd__dfxtp_1
*I *881:X O *D sky130_fd_sc_hd__clkbuf_16
*CAP
1 *854:CLK 0.000143037
2 *855:CLK 0.000281942
3 *822:CLK 0.000142383
4 *853:CLK 5.14037e-05
5 *821:CLK 0.000187687
6 *820:CLK 0.000290987
7 *810:CLK 0
8 *827:CLK 0.00120069
9 *859:CLK 0.000576016
10 *881:X 0.000741928
11 *301:81 0.00080366
12 *301:75 0.000522372
13 *301:35 0.00159074
14 *301:33 0.00107431
15 *301:29 0.000817008
16 *301:16 0.00109374
17 *301:14 0.001075
18 *820:CLK *644:A2 0.00029535
19 *820:CLK *306:27 0.000897194
20 *820:CLK *348:18 0.000103664
21 *821:CLK *644:A2 0.00029535
22 *822:CLK *326:10 0
23 *854:CLK *659:B2 0.00110474
24 *854:CLK *662:A2 0.00152715
25 *854:CLK *791:A2 2.8989e-05
26 *854:CLK *792:B 5.73995e-05
27 *854:CLK *336:29 0.000352009
28 *855:CLK *302:23 0.000140804
29 *859:CLK *305:38 0.000740578
30 *859:CLK *322:276 0.000228522
31 *301:14 *662:A2 2.41884e-05
32 *301:14 *662:B2 0.0036152
33 *301:14 *305:38 0.000166583
34 *301:14 *306:10 0.00144934
35 *301:14 *340:6 0.0012839
36 *301:16 *305:38 0.000247067
37 *301:29 *644:A2 0
38 *301:29 *322:255 0
39 *301:33 *644:A2 0.000573982
40 *301:33 *771:A2 0.000140596
41 *301:33 *322:227 0.000931427
42 *301:35 *644:A2 0.00042352
43 *301:81 *662:A2 0.000133393
44 *301:81 *322:409 0.000173934
45 *301:81 *322:422 8.89287e-05
46 *301:81 *336:29 0.000310596
47 *789:C *855:CLK 0.000285095
48 *791:B1 *301:81 0.000140804
49 *793:C *301:81 0.00127704
50 *810:D *821:CLK 0.000197961
51 *810:D *301:35 0.000156265
52 *821:D *821:CLK 0.000540776
53 *821:D *301:14 0.000786123
54 *822:D *822:CLK 0
55 *827:D *827:CLK 0.000544814
56 *853:D *301:14 0.000544814
57 *859:D *859:CLK 0.00132191
58 *881:A *301:14 0.00029535
59 *919:A *854:CLK 0.000262616
60 *7:17 *822:CLK 0.000167179
61 *219:10 *855:CLK 0.00127704
62 *222:18 *822:CLK 0.000506804
63 *222:18 *301:81 0
64 *270:10 *859:CLK 0.0036152
65 *293:177 *301:14 0.000169792
66 *293:177 *301:33 0
*RES
1 *881:X *301:14 31.2099 
2 *301:14 *301:16 2.07144 
3 *301:16 *859:CLK 17.6485 
4 *301:16 *301:29 6.78067 
5 *301:29 *301:33 10.3377 
6 *301:33 *301:35 3.51516 
7 *301:35 *827:CLK 17.1464 
8 *301:35 *810:CLK 9.3 
9 *301:33 *820:CLK 13.7777 
10 *301:29 *821:CLK 16.8339 
11 *301:14 *853:CLK 9.80217 
12 *881:X *301:75 9.3 
13 *301:75 *301:81 11.3943 
14 *301:81 *822:CLK 16.1748 
15 *301:81 *855:CLK 18.309 
16 *301:75 *854:CLK 22.6521 
*END

*D_NET *302 0.023339
*CONN
*I *787:A2 I *D sky130_fd_sc_hd__a21oi_1
*I *788:B I *D sky130_fd_sc_hd__and3_1
*I *656:A2 I *D sky130_fd_sc_hd__a22oi_1
*I *886:X O *D sky130_fd_sc_hd__buf_1
*CAP
1 *787:A2 0.000187621
2 *788:B 0.000266675
3 *656:A2 3.06785e-06
4 *886:X 0.00190274
5 *302:23 0.000595767
6 *302:10 0.00204728
7 *787:A2 *787:A1 0.002061
8 *787:A2 *322:399 6.66522e-05
9 *788:B *787:A1 5.52877e-05
10 *788:B *322:403 2.41884e-05
11 *302:10 *619:A 0.000195598
12 *302:10 *696:A 0
13 *302:10 *734:A 0.000115084
14 *302:10 *303:12 0.000451192
15 *302:10 *318:24 0.000604627
16 *302:10 *322:341 7.09466e-05
17 *302:10 *322:343 0.000415544
18 *302:10 *322:351 0.00144934
19 *302:10 *326:10 0
20 *302:10 *328:12 0
21 *302:10 *331:22 0.00196623
22 *302:10 *342:10 0
23 *302:23 *322:341 0.000861494
24 *302:23 *322:399 0.00144934
25 *617:B1 *302:10 0.000246199
26 *658:B *656:A2 0.000139371
27 *658:C *656:A2 0.000139371
28 *789:B *787:A2 0.000128171
29 *789:C *787:A2 0.00167245
30 *789:C *302:23 0
31 *808:CLK *302:10 0.000985625
32 *809:CLK *302:10 0.00179292
33 *809:D *302:10 0.000760142
34 *841:CLK *302:10 3.52009e-05
35 *855:CLK *302:23 0.000140804
36 *855:D *302:23 0.000196166
37 *886:A *302:10 0.000103664
38 *902:A *302:10 0.00153549
39 *911:A *787:A2 7.9476e-05
40 *150:10 *302:10 6.45024e-06
41 *219:10 *302:23 0.000587843
*RES
1 *886:X *302:10 34.6399 
2 *302:10 *656:A2 13.9726 
3 *302:10 *302:23 9.27058 
4 *302:23 *788:B 9.92771 
5 *302:23 *787:A2 13.694 
*END

*D_NET *303 0.0181466
*CONN
*I *784:B I *D sky130_fd_sc_hd__and3_1
*I *653:A2 I *D sky130_fd_sc_hd__a22oi_1
*I *783:A2 I *D sky130_fd_sc_hd__a21oi_1
*I *887:X O *D sky130_fd_sc_hd__buf_1
*CAP
1 *784:B 0
2 *653:A2 0.00229569
3 *783:A2 0
4 *887:X 0.00212368
5 *303:25 0.0033025
6 *303:12 0.00313049
7 *653:A2 *369:299 0.00044571
8 *303:12 *734:A 0.00204044
9 *303:12 *734:B 3.99301e-05
10 *303:25 *369:316 0.000158952
11 *782:A *653:A2 0.000423335
12 *783:B1 *303:25 0.0012175
13 *785:B *303:25 0.0012839
14 *785:C *303:25 0.000426252
15 *887:A *303:12 0.00018314
16 *179:16 *653:A2 0.000111079
17 *216:12 *653:A2 0.000262616
18 *216:12 *303:25 9.98251e-06
19 *293:148 *653:A2 0.000240194
20 *302:10 *303:12 0.000451192
*RES
1 *887:X *303:12 25.5396 
2 *303:12 *783:A2 9.3 
3 *303:12 *303:25 6.46539 
4 *303:25 *653:A2 25.1263 
5 *303:25 *784:B 9.3 
*END

*D_NET *304 0.0193035
*CONN
*I *779:A2 I *D sky130_fd_sc_hd__a21oi_1
*I *650:A2 I *D sky130_fd_sc_hd__a22oi_1
*I *780:B I *D sky130_fd_sc_hd__and3_1
*I *888:X O *D sky130_fd_sc_hd__buf_1
*CAP
1 *779:A2 2.00102e-05
2 *650:A2 3.51392e-05
3 *780:B 0.000745496
4 *888:X 0.00269878
5 *304:16 0.00119687
6 *304:14 0.00313502
7 *650:A2 *779:A1 5.79086e-05
8 *650:A2 *369:282 0.00109751
9 *779:A2 *654:B 0.000228522
10 *779:A2 *779:A1 6.66522e-05
11 *304:14 *654:B 0.00167245
12 *304:14 *782:B 0.000689196
13 *304:14 *343:10 0.00109414
14 *304:14 *343:20 0.000103664
15 *304:14 *369:295 9.73295e-05
16 *304:14 *369:299 0.0012839
17 *304:16 *369:282 8.72509e-05
18 *304:16 *369:295 5.73995e-05
19 *654:A *304:14 0.000256341
20 *779:B1 *650:A2 0.000804498
21 *779:B1 *780:B 0.00126695
22 *781:B *780:B 0.00144934
23 *857:CLK *780:B 0.000103664
24 *888:A *304:14 0.00029535
25 *213:10 *780:B 0.000760142
26 *293:148 *304:14 0
*RES
1 *888:X *304:14 28.9292 
2 *304:14 *304:16 1.15603 
3 *304:16 *780:B 22.9817 
4 *304:16 *650:A2 11.5127 
5 *304:14 *779:A2 10.1579 
*END

*D_NET *305 0.0495925
*CONN
*I *775:A2 I *D sky130_fd_sc_hd__a21oi_1
*I *776:B I *D sky130_fd_sc_hd__and3_1
*I *647:A2 I *D sky130_fd_sc_hd__a22oi_1
*I *889:X O *D sky130_fd_sc_hd__buf_1
*CAP
1 *775:A2 0
2 *776:B 0.000421803
3 *647:A2 0.000431161
4 *889:X 0.00260355
5 *305:53 0.00111463
6 *305:38 0.00918735
7 *305:32 0.0106669
8 *647:A2 *331:455 0.000414485
9 *776:B *322:135 0
10 *776:B *322:139 0.002061
11 *305:32 *664:A 0.000506804
12 *305:32 *791:A1 0.000167179
13 *305:32 *793:A 0.00258764
14 *305:32 *310:26 0.000169472
15 *305:32 *319:16 0.000895354
16 *305:32 *326:8 0.00167245
17 *305:32 *331:241 0.000673993
18 *305:32 *331:261 0
19 *305:38 *612:B 0.000895354
20 *305:38 *646:A 0.000132216
21 *305:38 *647:A1 3.99301e-05
22 *305:38 *703:A2 0.000696141
23 *305:38 *703:B2 7.9476e-05
24 *305:38 *322:276 0.000114799
25 *305:38 *331:455 0.000134764
26 *305:53 *647:A1 0
27 *305:53 *310:42 0
28 *305:53 *322:135 7.09466e-05
29 *305:53 *331:449 0
30 *305:53 *345:12 0
31 *611:C *305:53 1.83088e-05
32 *612:A *305:38 0.000256341
33 *661:C *305:32 0.0011517
34 *662:B1 *305:32 1.74694e-05
35 *664:B *305:32 0.00147994
36 *703:B1 *305:38 0.00167245
37 *705:B *305:38 0.0012839
38 *705:C *305:53 0.000932441
39 *774:A *305:53 0
40 *777:C *776:B 0.000238126
41 *793:B *305:32 0.000163329
42 *811:D *305:53 0.000195774
43 *853:D *305:32 0.000167179
44 *853:D *305:38 0.000564107
45 *859:CLK *305:38 0.000740578
46 *859:D *305:38 0.000270391
47 *909:A *305:32 0.00218294
48 *12:13 *305:32 0.00029535
49 *17:25 *305:32 0.000134764
50 *210:10 *305:53 0.000551358
51 *255:8 *305:38 0.000895354
52 *264:8 *305:32 0.000229598
53 *269:21 *305:53 0
54 *293:86 *776:B 0
55 *301:14 *305:38 0.000166583
56 *301:16 *305:38 0.000247067
*RES
1 *889:X *305:32 39.9768 
2 *305:32 *305:38 26.7822 
3 *305:38 *647:A2 12.5536 
4 *305:38 *305:53 18.039 
5 *305:53 *776:B 22.694 
6 *305:53 *775:A2 9.3 
*END

*D_NET *306 0.0211389
*CONN
*I *771:A2 I *D sky130_fd_sc_hd__a21oi_1
*I *644:A2 I *D sky130_fd_sc_hd__a22oi_1
*I *772:B I *D sky130_fd_sc_hd__and3_1
*I *890:X O *D sky130_fd_sc_hd__buf_1
*CAP
1 *771:A2 0.000164489
2 *644:A2 0.00234903
3 *772:B 0.000537457
4 *890:X 0.000749886
5 *306:27 0.00406052
6 *306:10 0.00283435
7 *644:A2 *645:B 0
8 *644:A2 *322:242 0
9 *644:A2 *322:255 0
10 *771:A2 *322:227 0.000587843
11 *306:10 *313:12 0.00136662
12 *306:10 *319:16 0.00029535
13 *306:27 *313:12 0.000591789
14 *645:A *644:A2 0
15 *810:D *644:A2 0.00209772
16 *820:CLK *644:A2 0.00029535
17 *820:CLK *306:27 0.000897194
18 *821:CLK *644:A2 0.00029535
19 *821:D *644:A2 0
20 *80:18 *772:B 0.000895354
21 *293:177 *306:10 0.000159548
22 *293:177 *306:27 0.000373631
23 *301:14 *306:10 0.00144934
24 *301:29 *644:A2 0
25 *301:33 *644:A2 0.000573982
26 *301:33 *771:A2 0.000140596
27 *301:35 *644:A2 0.00042352
*RES
1 *890:X *306:10 21.8137 
2 *306:10 *772:B 15.5367 
3 *306:10 *306:27 11.0072 
4 *306:27 *644:A2 30.4514 
5 *306:27 *771:A2 20.225 
*END

*D_NET *307 0.0337245
*CONN
*I *641:A2 I *D sky130_fd_sc_hd__a22oi_1
*I *768:B I *D sky130_fd_sc_hd__and3_1
*I *767:A2 I *D sky130_fd_sc_hd__a21oi_1
*I *891:X O *D sky130_fd_sc_hd__buf_1
*CAP
1 *641:A2 0
2 *768:B 0.000562832
3 *767:A2 0
4 *891:X 0.00782007
5 *307:27 0.000640067
6 *307:14 0.00024308
7 *307:12 0.00798592
8 *768:B *615:A 0
9 *768:B *313:18 0.000174145
10 *768:B *322:62 0.000468794
11 *768:B *322:190 1.95042e-05
12 *768:B *359:10 2.8989e-05
13 *307:12 *665:B2 0
14 *307:12 *799:A1 2.11936e-05
15 *307:12 *331:22 0.000211936
16 *307:12 *331:282 0.00144934
17 *307:12 *334:22 0.000448061
18 *307:14 *313:18 0.00346061
19 *307:14 *322:197 0.00144888
20 *307:14 *322:221 0.000808032
21 *307:14 *322:321 0.00144889
22 *307:27 *313:18 0.00181913
23 *307:27 *322:190 0.000354869
24 *307:27 *322:197 7.9476e-05
25 *643:B *768:B 1.83088e-05
26 *667:B *307:12 0
27 *701:B *307:12 0.000679861
28 *768:C *768:B 0.000845192
29 *827:D *768:B 0.000133262
30 *228:14 *307:12 0.00144934
31 *263:12 *307:12 0.00110474
32 *293:177 *307:12 0
*RES
1 *891:X *307:12 43.7222 
2 *307:12 *307:14 13.6213 
3 *307:14 *767:A2 9.3 
4 *307:14 *307:27 3.67732 
5 *307:27 *768:B 26.0051 
6 *307:27 *641:A2 9.3 
*END

*D_NET *308 0.0210396
*CONN
*I *618:B I *D sky130_fd_sc_hd__and3_1
*I *617:A2 I *D sky130_fd_sc_hd__a21oi_1
*I *706:A2 I *D sky130_fd_sc_hd__a22oi_1
*I *892:X O *D sky130_fd_sc_hd__buf_1
*CAP
1 *618:B 2.70087e-05
2 *617:A2 0.00033603
3 *706:A2 6.05172e-05
4 *892:X 9.89389e-05
5 *308:25 0.000469388
6 *308:6 0.000265805
7 *618:B *328:12 0.00127704
8 *706:A2 *706:A1 0.000743313
9 *706:A2 *327:34 0.002061
10 *706:A2 *331:101 0.000169792
11 *308:6 *598:B 0.0012839
12 *308:6 *326:27 0.0007771
13 *308:6 *327:34 0.000506804
14 *308:25 *327:34 0.000243245
15 *308:25 *328:12 0.00170779
16 *308:25 *328:16 9.2852e-05
17 *308:25 *331:101 0.000177857
18 *616:A *618:B 0.00120609
19 *616:A *308:25 0.00127704
20 *619:B *617:A2 0.000167179
21 *893:A *706:A2 0.000415038
22 *16:19 *617:A2 0.000950642
23 *174:18 *706:A2 0.00280432
24 *174:18 *308:6 0.00271985
25 *272:21 *308:25 0.000415544
26 *297:14 *617:A2 0.000167179
27 *297:80 *617:A2 0.000618343
*RES
1 *892:X *308:6 12.8152 
2 *308:6 *706:A2 22.6312 
3 *308:6 *308:25 9.27058 
4 *308:25 *617:A2 18.8217 
5 *308:25 *618:B 16.4364 
*END

*D_NET *309 0.0423961
*CONN
*I *763:A2 I *D sky130_fd_sc_hd__a21oi_1
*I *764:B I *D sky130_fd_sc_hd__and3_1
*I *638:A2 I *D sky130_fd_sc_hd__a22oi_1
*I *893:X O *D sky130_fd_sc_hd__buf_1
*CAP
1 *763:A2 0.000174406
2 *764:B 0.000264558
3 *638:A2 0.00100035
4 *893:X 0.00770882
5 *309:33 0.000470055
6 *309:18 0.00874027
7 *638:A2 *638:A1 0.000171035
8 *763:A2 *650:B2 0.000895354
9 *763:A2 *344:6 8.91622e-05
10 *763:A2 *344:14 0.00144934
11 *309:18 *602:B 1.83088e-05
12 *309:18 *652:A 0.000506804
13 *309:18 *708:A 0.000134764
14 *309:18 *331:523 0.00038855
15 *309:18 *331:525 0.0062168
16 *309:18 *331:732 0
17 *309:18 *344:14 0.000679861
18 *309:33 *344:14 0.00110474
19 *603:B *309:18 0.000895354
20 *639:A *638:A2 6.61403e-05
21 *651:A *309:18 0.00111269
22 *652:C *309:18 7.9476e-05
23 *708:B *309:18 0.00167245
24 *763:B1 *763:A2 0.000118254
25 *765:B *763:A2 2.41884e-05
26 *765:C *764:B 0.000506804
27 *819:CLK *763:A2 0.0009663
28 *842:D *309:18 0.000196166
29 *883:A *309:18 0.000167179
30 *75:12 *763:A2 0.000182216
31 *75:12 *309:33 0.000140804
32 *174:18 *309:18 0.00215017
33 *184:22 *763:A2 0.00189529
34 *184:22 *309:33 0.00144934
35 *297:31 *309:18 0.000760142
*RES
1 *893:X *309:18 43.0317 
2 *309:18 *638:A2 12.2868 
3 *309:18 *309:33 7.49207 
4 *309:33 *764:B 14.4277 
5 *309:33 *763:A2 19.9515 
*END

*D_NET *310 0.0523583
*CONN
*I *759:A2 I *D sky130_fd_sc_hd__a21oi_1
*I *760:B I *D sky130_fd_sc_hd__and3_1
*I *635:A2 I *D sky130_fd_sc_hd__a22oi_1
*I *894:X O *D sky130_fd_sc_hd__buf_1
*CAP
1 *759:A2 7.60747e-05
2 *760:B 2.15126e-05
3 *635:A2 0.000225177
4 *894:X 0.00472325
5 *310:44 0.000474257
6 *310:42 0.00752209
7 *310:26 0.0119417
8 *635:A2 *635:A1 0.000743313
9 *635:A2 *331:407 0.000217333
10 *310:26 *646:A 0.00712912
11 *310:26 *791:A1 0.000167179
12 *310:26 *319:16 0.000283575
13 *310:26 *322:255 0.000329395
14 *310:26 *331:220 0.000898285
15 *310:26 *331:222 0.000898285
16 *310:26 *331:241 0
17 *310:42 *648:B 0.00127704
18 *310:42 *319:16 0.000293716
19 *310:42 *319:22 0.000167179
20 *310:42 *331:407 6.35809e-05
21 *310:42 *345:12 0.000380998
22 *310:42 *345:18 0.00127704
23 *310:44 *331:407 0.000162216
24 *615:B *310:42 0.0012839
25 *635:B1 *635:A2 0
26 *646:B *310:26 0.000895354
27 *646:C *310:26 0.000895354
28 *646:C *310:42 0.000256341
29 *760:C *635:A2 0.000118254
30 *760:C *310:44 1.38219e-05
31 *761:B *759:A2 0.000662191
32 *774:A *310:42 0.00127704
33 *791:B1 *310:26 0.00101859
34 *793:B *310:26 0.000128171
35 *793:C *310:26 0.000895354
36 *811:CLK *310:42 0.000659997
37 *821:D *310:26 0.000156589
38 *829:D *759:A2 0.00161961
39 *843:CLK *310:42 0.00042352
40 *843:D *310:42 0.000270391
41 *897:A *310:26 0
42 *909:A *310:26 0.00041197
43 *17:25 *310:26 0.000167179
44 *269:21 *310:42 0.00103379
45 *283:10 *310:42 0.000506804
46 *293:86 *310:42 0.000222322
47 *305:32 *310:26 0.000169472
48 *305:53 *310:42 0
*RES
1 *894:X *310:26 40.3867 
2 *310:26 *310:42 40.4482 
3 *310:42 *310:44 1.59019 
4 *310:44 *635:A2 12.041 
5 *310:44 *760:B 9.80217 
6 *310:42 *759:A2 21.6478 
*END

*D_NET *311 0.0292758
*CONN
*I *756:B I *D sky130_fd_sc_hd__and3_1
*I *755:A2 I *D sky130_fd_sc_hd__a21oi_1
*I *632:A2 I *D sky130_fd_sc_hd__a22oi_1
*I *895:X O *D sky130_fd_sc_hd__buf_2
*CAP
1 *756:B 0
2 *755:A2 0.000300538
3 *632:A2 9.07705e-05
4 *895:X 0.00771995
5 *311:18 0.000457088
6 *311:16 0.00778573
7 *755:A2 *625:C1 7.09466e-05
8 *755:A2 *755:A1 0.000506804
9 *311:16 *322:99 2.22322e-05
10 *311:16 *323:16 0
11 *311:16 *324:16 0.000157096
12 *311:18 *625:C1 0.00074543
13 p *311:16 0.000157096
14 *625:A1 *632:A2 0.000506804
15 *625:B1 *755:A2 0.000932441
16 *632:B1 *632:A2 7.67885e-05
17 *744:A *632:A2 0.000373367
18 *755:B1 *755:A2 0.002061
19 *757:B *755:A2 0.000791676
20 *757:B *311:16 0.000689196
21 *757:B *311:18 0.00196623
22 *757:C *311:16 0.000845785
23 *757:C *311:18 7.09466e-05
24 *829:D *755:A2 0.000492812
25 *866:D *632:A2 0.00190896
26 *884:A *632:A2 0
27 *891:A *311:16 0.000161568
28 *298:16 *755:A2 0.000384512
*RES
1 *895:X *311:16 32.202 
2 *311:16 *311:18 4.05918 
3 *311:18 *632:A2 16.6665 
4 *311:18 *755:A2 21.5627 
5 *311:16 *756:B 13.8 
*END

*D_NET *312 0.0293296
*CONN
*I *751:A2 I *D sky130_fd_sc_hd__a21oi_1
*I *629:A2 I *D sky130_fd_sc_hd__a22oi_1
*I *752:B I *D sky130_fd_sc_hd__and3_1
*I *896:X O *D sky130_fd_sc_hd__buf_1
*CAP
1 *751:A2 0
2 *629:A2 0.000570478
3 *752:B 0.000276098
4 *896:X 0.00443284
5 *312:22 0.00114552
6 *312:18 0.00473178
7 *629:A2 *629:A1 0.000267486
8 *629:A2 *629:B2 0
9 *629:A2 *740:A 0.000506804
10 *629:A2 *740:B 0.000274886
11 *629:A2 *753:A 0
12 *629:A2 *369:193 8.89286e-05
13 *629:A2 *369:202 0.000640809
14 *312:18 *679:A 0.000985625
15 *312:18 *321:18 0.00428678
16 *312:18 *332:16 0.00031125
17 *312:18 *369:122 0.000726857
18 *312:18 *369:193 0
19 *312:22 *369:181 0
20 *630:A *629:A2 2.41884e-05
21 *681:A *312:18 0.000832188
22 *751:B1 *629:A2 0.000344598
23 *751:B1 *752:B 3.90084e-05
24 *751:B1 *312:22 0.00110474
25 *752:C *752:B 9.98251e-06
26 *753:B *629:A2 0
27 *905:A *312:18 0.000222467
28 *1:18 *312:18 0.00323368
29 *75:12 *629:A2 0.00231083
30 *141:14 *312:18 0.000506804
31 *159:12 *312:18 9.98321e-05
32 *164:12 *752:B 1.74694e-05
33 *164:14 *752:B 1.10576e-05
34 *169:14 *312:18 0.000997174
35 *174:14 *312:18 0.000329395
*RES
1 *896:X *312:18 39.7746 
2 *312:18 *312:22 3.38962 
3 *312:22 *752:B 14.4277 
4 *312:22 *629:A2 23.7806 
5 *312:18 *751:A2 13.8 
*END

*D_NET *313 0.0469586
*CONN
*I *747:A2 I *D sky130_fd_sc_hd__a21oi_1
*I *748:B I *D sky130_fd_sc_hd__and3_1
*I *626:A2 I *D sky130_fd_sc_hd__a22oi_1
*I *897:X O *D sky130_fd_sc_hd__buf_1
*CAP
1 *747:A2 8.29906e-05
2 *748:B 0
3 *626:A2 0.000340945
4 *897:X 0.00320242
5 *313:24 0.00122431
6 *313:18 0.00496357
7 *313:12 0.00719964
8 *626:A2 *626:A1 0.000354763
9 *626:A2 *322:86 0.0012839
10 *747:A2 *322:76 0.000167179
11 *747:A2 *331:407 4.44643e-05
12 *313:12 *663:B 0.00327368
13 *313:12 *664:A 0.00018314
14 *313:12 *793:A 0.000342093
15 *313:12 *794:B 0.000932441
16 *313:12 *319:16 0.000332648
17 *313:12 *331:282 0.000943798
18 *313:18 *609:A2 0.0012839
19 *313:18 *610:B 0.0012839
20 *313:18 *322:62 2.59161e-06
21 *313:18 *322:64 0.000175318
22 *313:18 *331:341 0.000852307
23 *313:18 *331:345 0.00111453
24 *313:18 *331:349 0.000128171
25 *313:24 *331:349 0.000256341
26 *642:A *313:18 0.00042352
27 *643:C *313:18 0.00167245
28 *664:C *313:12 0.000895354
29 *748:C *626:A2 0.000118254
30 *748:C *313:24 9.98251e-06
31 *749:B *747:A2 0.00131605
32 *749:C *626:A2 0.000159515
33 *749:C *313:24 0.000814802
34 *768:B *313:18 0.000174145
35 *769:B *313:18 0.000895354
36 *777:B *313:18 0.000895354
37 *777:C *313:18 0.000506804
38 *794:A *313:12 4.44643e-05
39 *13:19 *313:12 0.000169792
40 *26:19 *313:12 0
41 *74:10 *747:A2 0.00144934
42 *74:10 *313:18 0.000167179
43 *74:10 *313:24 3.90084e-05
44 *293:177 *313:12 0
45 *306:10 *313:12 0.00136662
46 *306:27 *313:12 0.000591789
47 *307:14 *313:18 0.00346061
48 *307:27 *313:18 0.00181913
*RES
1 *897:X *313:12 39.4328 
2 *313:12 *313:18 32.0759 
3 *313:18 *313:24 4.03825 
4 *313:24 *626:A2 13.3592 
5 *313:24 *748:B 9.3 
6 *313:18 *747:A2 21.9198 
*END

*D_NET *314 0.0319906
*CONN
*I *740:B I *D sky130_fd_sc_hd__nand2_1
*I *898:X O *D sky130_fd_sc_hd__buf_1
*CAP
1 *740:B 0.000848673
2 *898:X 0.0051872
3 *314:16 0.00603588
4 *740:B *669:B 0.000118254
5 *740:B *740:A 0.000506804
6 *314:16 *600:B 0.000506804
7 *314:16 *602:A 0.000932441
8 *314:16 *668:A1 0.000128171
9 *314:16 *668:A2 0.00174622
10 *314:16 *669:B 8.91622e-05
11 *314:16 *318:24 0.000134764
12 *314:16 *325:8 0.002061
13 *314:16 *329:18 0.000157096
14 *314:16 *331:732 0.000204013
15 *314:16 *331:743 0.000137316
16 *314:16 *331:764 0.0036152
17 *314:16 *333:34 2.8989e-05
18 *314:16 *333:47 0.000169792
19 *314:16 *362:10 1.47434e-05
20 *314:16 *369:158 0.000715284
21 *314:16 *369:162 0.000103664
22 *600:A *314:16 0.000262616
23 *629:A2 *740:B 0.000274886
24 *630:A *740:B 0
25 *668:B1 *314:16 0.00167245
26 *669:A *314:16 0.000134764
27 *670:C *314:16 0.000912555
28 *813:CLK *314:16 0.000895354
29 *813:D *314:16 0.00110474
30 *898:A *314:16 0.000895354
31 *908:A *314:16 0.00167245
32 *164:12 *314:16 0.00021712
33 *246:20 *314:16 0.000506804
*RES
1 *898:X *314:16 48.974 
2 *314:16 *740:B 14.2798 
*END

*D_NET *315 0.0130507
*CONN
*I *734:B I *D sky130_fd_sc_hd__nand2_1
*I *899:X O *D sky130_fd_sc_hd__buf_1
*CAP
1 *734:B 0.00131384
2 *899:X 0.00131384
3 *734:B *658:A 3.90084e-05
4 *734:B *734:A 0.000701627
5 *734:B *323:16 0
6 *734:B *326:10 0.00489532
7 *734:B *331:14 0.000803408
8 *734:B *331:202 0.000256341
9 *700:B *734:B 0.00167245
10 *709:A2 *734:B 0.000285095
11 *887:A *734:B 0.00167245
12 *891:A *734:B 0
13 *899:A *734:B 5.73995e-05
14 *303:12 *734:B 3.99301e-05
*RES
1 *899:X *734:B 43.4601 
*END

*D_NET *316 0.0172293
*CONN
*I *728:B I *D sky130_fd_sc_hd__nand2_1
*I *900:X O *D sky130_fd_sc_hd__buf_1
*CAP
1 *728:B 0.000406463
2 *900:X 0.000406463
3 *728:B *594:B 0.000167179
4 *728:B *680:B2 0.00162164
5 *728:B *681:B 0.00265492
6 *728:B *682:A 0.00196623
7 *728:B *728:A 0.00167245
8 *728:B *326:10 0.000633616
9 *728:B *326:27 0.000140804
10 *728:B *364:10 0.00110423
11 *847:D *728:B 0.000760142
12 *141:14 *728:B 0.0055835
13 *289:10 *728:B 7.66137e-05
14 *289:12 *728:B 3.49938e-05
*RES
1 *900:X *728:B 45.8245 
*END

*D_NET *317 0.0247675
*CONN
*I *722:B I *D sky130_fd_sc_hd__nand2_1
*I *901:X O *D sky130_fd_sc_hd__buf_1
*CAP
1 *722:B 0
2 *901:X 0.00922758
3 *317:22 0.00922758
4 *317:22 *683:A2 2.85077e-05
5 *317:22 *722:A 5.61886e-05
6 *317:22 *328:16 0.000210998
7 *317:22 *331:107 0.000151571
8 *317:22 *363:12 5.06805e-05
9 *317:22 *369:112 0.000456076
10 *317:22 *369:185 0.000400067
11 *317:22 *369:187 0.00029535
12 *599:B *317:22 7.09466e-05
13 *684:A *317:22 0.000198882
14 *685:B *317:22 0.00042352
15 *753:B *317:22 0.00042352
16 *818:D *317:22 0.000933364
17 *840:D *317:22 0.000551691
18 *846:D *317:22 0.002061
*RES
1 *901:X *317:22 47.6767 
2 *317:22 *722:B 9.3 
*END

*D_NET *318 0.0194061
*CONN
*I *716:B I *D sky130_fd_sc_hd__nand2_1
*I *902:X O *D sky130_fd_sc_hd__buf_1
*CAP
1 *716:B 0
2 *902:X 0.0036018
3 *318:24 0.0036018
4 *318:24 *597:A1 0.000895354
5 *318:24 *617:A1 0.000110899
6 *318:24 *680:A1 0
7 *318:24 *734:A 7.9476e-05
8 *318:24 *326:10 0
9 *318:24 *369:74 0.0012839
10 *318:24 *369:92 0.000129339
11 *680:B1 *318:24 4.0541e-05
12 *809:CLK *318:24 0.00270692
13 *815:CLK *318:24 0.00282773
14 *886:A *318:24 0.000380998
15 *898:A *318:24 0.00062404
16 *901:A *318:24 0.000506804
17 *902:A *318:24 0.000454553
18 *908:A *318:24 0.00018438
19 *35:19 *318:24 0
20 *150:10 *318:24 0.000315174
21 *164:12 *318:24 0.000506804
22 *179:16 *318:24 0.000416199
23 *302:10 *318:24 0.000604627
24 *314:16 *318:24 0.000134764
*RES
1 *902:X *318:24 45.9192 
2 *318:24 *716:B 9.3 
*END

*D_NET *319 0.0227832
*CONN
*I *613:A2 I *D sky130_fd_sc_hd__a21oi_1
*I *703:A2 I *D sky130_fd_sc_hd__a22oi_1
*I *614:B I *D sky130_fd_sc_hd__and3_1
*I *903:X O *D sky130_fd_sc_hd__buf_1
*CAP
1 *613:A2 0
2 *703:A2 0.000190374
3 *614:B 9.08286e-05
4 *903:X 0.00285927
5 *319:22 0.000329927
6 *319:16 0.002908
7 *703:A2 *612:B 0.000895354
8 *703:A2 *703:A1 2.72343e-05
9 *703:A2 *322:276 0.000340531
10 *703:A2 *322:278 0.00228544
11 *319:16 *613:A1 0.000506804
12 *319:16 *664:A 0.000128171
13 *319:16 *322:255 0.0031084
14 *319:22 *613:A1 0.000128171
15 *319:22 *322:276 0.000211205
16 *612:A *703:A2 0.000895354
17 *613:B1 *614:B 0.000157096
18 *613:B1 *319:22 0.00038721
19 *614:C *614:B 7.09466e-05
20 *614:C *703:A2 0.000715181
21 *615:B *703:A2 0.000501694
22 *615:B *319:22 0.000501694
23 *646:C *319:16 0.00167245
24 *664:C *319:16 0.00029535
25 *703:B1 *703:A2 0.000612552
26 *305:32 *319:16 0.000895354
27 *305:38 *703:A2 0.000696141
28 *306:10 *319:16 0.00029535
29 *310:26 *319:16 0.000283575
30 *310:42 *319:16 0.000293716
31 *310:42 *319:22 0.000167179
32 *313:12 *319:16 0.000332648
*RES
1 *903:X *319:16 30.7258 
2 *319:16 *319:22 7.23053 
3 *319:22 *614:B 14.752 
4 *319:22 *703:A2 22.4519 
5 *319:16 *613:A2 9.3 
*END

*D_NET *320 0.011381
*CONN
*I *710:B I *D sky130_fd_sc_hd__nand2_1
*I *904:X O *D sky130_fd_sc_hd__buf_1
*CAP
1 *710:B 0.00392961
2 *904:X 0.00392961
3 *710:B *321:18 0.00143276
4 *710:B *369:386 7.09466e-05
5 *710:B *369:390 0.000506804
6 *591:B *710:B 0.000236282
7 *673:B *710:B 0
8 *816:D *710:B 0
9 *818:CLK *710:B 0.00127501
*RES
1 *904:X *710:B 45.4879 
*END

*D_NET *321 0.019498
*CONN
*I *692:B I *D sky130_fd_sc_hd__and3_1
*I *693:A2 I *D sky130_fd_sc_hd__a21oi_1
*I *905:X O *D sky130_fd_sc_hd__buf_1
*CAP
1 *692:B 0.000425925
2 *693:A2 0
3 *905:X 0.00399136
4 *321:18 0.00441728
5 *692:B *692:A 0.000746514
6 *692:B *369:388 1.72006e-05
7 *692:B *369:390 7.9476e-05
8 *681:A *321:18 0.00239698
9 *694:C *692:B 0.000895354
10 *710:B *321:18 0.00143276
11 *818:CLK *321:18 0.000156589
12 *159:12 *321:18 0.000651791
13 *312:18 *321:18 0.00428678
*RES
1 *905:X *321:18 36.5207 
2 *321:18 *693:A2 9.3 
3 *321:18 *692:B 13.694 
*END

*D_NET *322 0.210024
*CONN
*I *800:A I *D sky130_fd_sc_hd__and3_1
*I *606:A I *D sky130_fd_sc_hd__and3_1
*I *787:A1 I *D sky130_fd_sc_hd__a21oi_1
*I *788:A I *D sky130_fd_sc_hd__and3_1
*I *791:A1 I *D sky130_fd_sc_hd__a21oi_1
*I *659:A1 I *D sky130_fd_sc_hd__a22oi_1
*I *662:A1 I *D sky130_fd_sc_hd__a22oi_1
*I *792:A I *D sky130_fd_sc_hd__and3_1
*I *656:A1 I *D sky130_fd_sc_hd__a22oi_1
*I *696:A I *D sky130_fd_sc_hd__nand2_1
*I *665:A1 I *D sky130_fd_sc_hd__a22oi_1
*I *799:A1 I *D sky130_fd_sc_hd__a21oi_1
*I *795:A1 I *D sky130_fd_sc_hd__a21oi_1
*I *796:A I *D sky130_fd_sc_hd__and3_1
*I *772:A I *D sky130_fd_sc_hd__and3_1
*I *771:A1 I *D sky130_fd_sc_hd__a21oi_1
*I *614:A I *D sky130_fd_sc_hd__and3_1
*I *703:A1 I *D sky130_fd_sc_hd__a22oi_1
*I *647:A1 I *D sky130_fd_sc_hd__a22oi_1
*I *613:A1 I *D sky130_fd_sc_hd__a21oi_1
*I *644:A1 I *D sky130_fd_sc_hd__a22oi_1
*I *768:A I *D sky130_fd_sc_hd__and3_1
*I *605:A1 I *D sky130_fd_sc_hd__a21oi_1
*I *686:A1 I *D sky130_fd_sc_hd__a22oi_1
*I *767:A1 I *D sky130_fd_sc_hd__a21oi_1
*I *609:A1 I *D sky130_fd_sc_hd__a21oi_1
*I *610:A I *D sky130_fd_sc_hd__and3_1
*I *775:A1 I *D sky130_fd_sc_hd__a21oi_1
*I *776:A I *D sky130_fd_sc_hd__and3_1
*I *760:A I *D sky130_fd_sc_hd__and3_1
*I *635:A1 I *D sky130_fd_sc_hd__a22oi_1
*I *759:A1 I *D sky130_fd_sc_hd__a21oi_1
*I *747:A1 I *D sky130_fd_sc_hd__a21oi_1
*I *748:A I *D sky130_fd_sc_hd__and3_1
*I *756:A I *D sky130_fd_sc_hd__and3_1
*I *632:A1 I *D sky130_fd_sc_hd__a22oi_1
*I *626:A1 I *D sky130_fd_sc_hd__a22oi_1
*I *641:A1 I *D sky130_fd_sc_hd__a22oi_1
*I *755:A1 I *D sky130_fd_sc_hd__a21oi_1
*I *689:A1 I *D sky130_fd_sc_hd__a22oi_1
*I *920:X O *D sky130_fd_sc_hd__buf_4
*CAP
1 *800:A 6.23785e-05
2 *606:A 0.000162961
3 *787:A1 3.18292e-05
4 *788:A 0
5 *791:A1 0.000111361
6 *659:A1 1.50285e-05
7 *662:A1 0.000306596
8 *792:A 9.96869e-05
9 *656:A1 0
10 *696:A 0.00127497
11 *665:A1 0
12 *799:A1 0.00243756
13 *795:A1 0
14 *796:A 5.14037e-05
15 *772:A 0.000642787
16 *771:A1 0
17 *614:A 2.95503e-05
18 *703:A1 4.4595e-05
19 *647:A1 0.00290268
20 *613:A1 0.000459971
21 *644:A1 0
22 *768:A 0.00315374
23 *605:A1 0.000162961
24 *686:A1 0.000478426
25 *767:A1 0
26 *609:A1 0
27 *610:A 0
28 *775:A1 0
29 *776:A 0
30 *760:A 0
31 *635:A1 1.86439e-05
32 *759:A1 0
33 *747:A1 0
34 *748:A 0
35 *756:A 9.51091e-05
36 *632:A1 0.00035919
37 *626:A1 0.000191602
38 *641:A1 0
39 *755:A1 0.00145939
40 *689:A1 0
41 *920:X 0.00118861
42 *322:439 0.000962773
43 *322:422 0.00124811
44 *322:409 0.000306803
45 *322:403 0.000195678
46 *322:399 0.000355328
47 *322:351 0.00312126
48 *322:343 0.00203735
49 *322:341 4.17491e-05
50 *322:339 0.00213217
51 *322:330 0.00332369
52 *322:321 0.00413452
53 *322:278 0.00493648
54 *322:276 0.00284237
55 *322:255 0.00334981
56 *322:242 0.00232276
57 *322:229 0.00548076
58 *322:227 0.00326397
59 *322:221 0.00437645
60 *322:201 0.000626127
61 *322:197 0.00371554
62 *322:190 0.00319635
63 *322:156 0.00111728
64 *322:141 0.00231218
65 *322:139 0.00152794
66 *322:135 0.000589113
67 *322:99 0.000941156
68 *322:86 0.000892323
69 *322:84 0.00151702
70 *322:76 0.00460401
71 *322:70 0.00357557
72 *322:68 0.00150449
73 *322:64 0.00410399
74 *322:62 0.00347388
75 *322:49 0.000779472
76 *322:10 0.00192501
77 *606:A *331:290 0.0028381
78 *632:A1 *754:B 0
79 *635:A1 *331:407 0.0012839
80 *647:A1 *703:B2 0.000506804
81 *647:A1 *331:455 0.00400375
82 *659:A1 *659:B2 4.04016e-05
83 *662:A1 *662:A2 0.000139371
84 *686:A1 *605:A2 0.00051639
85 *686:A1 *686:A2 0.00113186
86 *686:A1 *324:35 0.00110474
87 *686:A1 *331:298 0
88 *696:A *658:A 0.000895354
89 *696:A *326:10 0.00799619
90 *755:A1 *689:A2 7.09466e-05
91 *755:A1 *920:A 4.44643e-05
92 *768:A *331:298 0.0012839
93 *768:A *346:18 0.000158952
94 *791:A1 *791:A2 0.00155069
95 *791:A1 *336:29 7.09466e-05
96 *792:A *335:16 0.000103664
97 *799:A1 *324:16 0.000242739
98 *799:A1 *334:22 0.00287809
99 *799:A1 *348:18 0.000310596
100 *800:A *800:B 0.000158952
101 *322:10 *689:A2 0.000139371
102 *322:10 *920:A 0.00322665
103 *322:49 *641:B2 0.000140804
104 *322:49 *347:12 0
105 *322:64 *609:A2 7.9476e-05
106 *322:64 *641:B2 0.000506804
107 *322:64 *642:B 0.000167179
108 *322:64 *331:341 3.90084e-05
109 *322:68 *331:341 0.000557263
110 *322:68 *331:345 2.72343e-05
111 *322:76 *690:B 0.000158952
112 *322:84 *331:355 7.9476e-05
113 *322:84 *331:357 5.52877e-05
114 *322:99 *626:B2 0
115 *322:135 *610:B 0.000169792
116 *322:135 *323:31 0
117 *322:242 *346:10 0.00058683
118 *322:255 *646:A 0.000211205
119 *322:330 *796:B 0.000186596
120 *322:339 *796:B 7.9476e-05
121 *322:339 *335:16 0.00042352
122 *322:351 *665:A2 0.000139371
123 *322:351 *334:8 0.000552013
124 *322:351 *334:22 0.000128171
125 *322:351 *342:10 0.000355715
126 *322:399 *786:B 8.89287e-05
127 *322:399 *328:12 0
128 *322:399 *335:16 0
129 *322:409 *328:12 7.48689e-05
130 *322:409 *335:16 0.000932441
131 *322:422 *662:A2 7.04018e-05
132 *322:422 *792:B 0.000572858
133 *322:422 *331:261 0.000185704
134 *322:422 *335:16 0.000516897
135 *322:439 *659:B2 0.000132268
136 *322:439 *336:29 0.000415038
137 *606:C *606:A 0.00114876
138 *607:C *606:A 0.000300922
139 *609:B1 *322:68 0.0007771
140 *610:C *322:68 0.000371656
141 *611:C *322:135 0
142 *614:C *322:276 0.000574378
143 *615:B *322:276 0.00110474
144 *615:C *322:276 0.000506804
145 *625:A2 *632:A1 2.8989e-05
146 *626:A2 *626:A1 0.000354763
147 *626:A2 *322:86 0.0012839
148 *635:A2 *635:A1 0.000743313
149 *635:B1 *635:A1 0.000167179
150 *642:A *322:64 0.000256341
151 *643:C *322:64 0.000238428
152 *644:A2 *322:242 0
153 *644:A2 *322:255 0
154 *646:B *322:255 0.000182216
155 *646:C *322:255 0
156 *646:C *322:276 0.000418488
157 *657:A *322:343 0.000344598
158 *657:A *322:351 7.09466e-05
159 *658:B *696:A 0.002061
160 *659:B1 *322:439 0.000157096
161 *662:B1 *322:439 0
162 *689:B1 *755:A1 7.09466e-05
163 *690:A *322:76 0.00042352
164 *691:B *755:A1 7.04018e-05
165 *700:A *696:A 4.44643e-05
166 *700:B *696:A 0.000944212
167 *703:A2 *703:A1 2.72343e-05
168 *703:A2 *322:276 0.000340531
169 *703:A2 *322:278 0.00228544
170 *703:B1 *647:A1 0.000103664
171 *703:B1 *322:278 9.67534e-05
172 *705:B *647:A1 5.52877e-05
173 *747:A2 *322:76 0.000167179
174 *747:B1 *322:84 0.00120595
175 *747:B1 *322:99 0
176 *749:B *322:76 3.99301e-05
177 *749:B *322:84 5.73995e-05
178 *755:A2 *755:A1 0.000506804
179 *755:B1 *632:A1 0.000248477
180 *755:B1 *322:99 0.000415544
181 *756:C *756:A 0.000118254
182 *757:B *322:99 0.000422411
183 *757:C *322:84 0.000167179
184 *768:B *322:62 0.000468794
185 *768:B *322:190 1.95042e-05
186 *768:C *768:A 0.000760206
187 *769:B *768:A 0.000167179
188 *769:C *768:A 0.000128171
189 *770:A *768:A 0.000167179
190 *770:A *322:229 0.00042352
191 *770:A *322:242 0.00162164
192 *770:A *322:255 0.000172299
193 *771:A2 *322:227 0.000587843
194 *772:C *772:A 0.00115683
195 *772:C *322:229 0.000895354
196 *774:A *647:A1 0.000415544
197 *776:B *322:135 0
198 *776:B *322:139 0.002061
199 *776:C *322:139 0.00114876
200 *777:B *322:135 0.000310596
201 *787:A2 *787:A1 0.002061
202 *787:A2 *322:399 6.66522e-05
203 *787:B1 *787:A1 0.0007771
204 *788:B *787:A1 5.52877e-05
205 *788:B *322:403 2.41884e-05
206 *788:C *787:A1 0.000760206
207 *789:C *696:A 0.000128171
208 *791:B1 *322:422 0.00248313
209 *791:B1 *322:439 0
210 *793:C *791:A1 0.000633616
211 *793:C *322:439 0.000105603
212 *796:C *796:A 0
213 *796:C *322:330 0.00114876
214 *800:C *800:A 0.00114876
215 *801:B *800:A 0.000679861
216 *801:C *800:A 0.000529444
217 *808:CLK *696:A 0
218 *810:D *322:242 0
219 *821:D *322:422 0.000760142
220 *825:D *755:A1 0
221 *825:D *322:76 0.000196166
222 *825:D *322:135 0.000115084
223 *829:D *755:A1 0
224 *829:D *322:99 0
225 *830:D *322:84 0.000310596
226 *830:D *322:99 0.000587843
227 *830:D *322:156 0.000760142
228 *852:CLK *686:A1 4.44643e-05
229 *859:CLK *322:276 0.000228522
230 *859:D *322:255 0.00110474
231 *860:CLK *755:A1 0.000422411
232 *886:A *696:A 0
233 *911:A *787:A1 0.000300922
234 *911:A *322:403 0.000315315
235 *911:A *322:409 0.000895354
236 *74:10 *755:A1 0.000415544
237 *80:18 *768:A 0.000345153
238 *80:18 *322:229 7.83243e-05
239 *94:12 *755:A1 0.000130924
240 *94:12 *322:10 0.000699465
241 *94:12 *322:49 0.000506804
242 *150:10 *696:A 0.000711429
243 *184:22 *322:10 0.00209901
244 *189:10 *322:141 0.000103664
245 *189:10 *322:156 0.000172198
246 *195:6 *756:A 0.000128171
247 *204:10 *322:49 0.000266786
248 *207:8 *322:229 7.9476e-05
249 *219:10 *322:399 0.000140804
250 *228:14 *799:A1 0.000895354
251 *228:14 *800:A 0.0007771
252 *249:10 *686:A1 0.000803408
253 *252:12 *322:76 0.000196166
254 *252:12 *322:135 1.83088e-05
255 *266:12 *322:339 5.73995e-05
256 *266:20 *322:339 0.000506804
257 *266:20 *322:341 0.000861494
258 *266:20 *322:343 7.09466e-05
259 *266:20 *322:399 0.000172299
260 *269:21 *647:A1 7.09466e-05
261 *270:10 *322:255 0.000760142
262 *271:12 *322:49 0.0004514
263 *271:27 *322:49 0.000932441
264 *275:10 *632:A1 0
265 *293:23 *755:A1 0.0013848
266 *293:27 *755:A1 0.000487606
267 *293:177 *322:227 0
268 *298:16 *755:A1 9.73295e-05
269 *298:66 *755:A1 0
270 *301:29 *322:255 0
271 *301:33 *322:227 0.000931427
272 *301:81 *322:409 0.000173934
273 *301:81 *322:422 8.89287e-05
274 *302:10 *696:A 0
275 *302:10 *322:341 7.09466e-05
276 *302:10 *322:343 0.000415544
277 *302:10 *322:351 0.00144934
278 *302:23 *322:341 0.000861494
279 *302:23 *322:399 0.00144934
280 *305:32 *791:A1 0.000167179
281 *305:38 *647:A1 3.99301e-05
282 *305:38 *322:276 0.000114799
283 *305:53 *647:A1 0
284 *305:53 *322:135 7.09466e-05
285 *307:12 *799:A1 2.11936e-05
286 *307:14 *322:197 0.00144888
287 *307:14 *322:221 0.000808032
288 *307:14 *322:321 0.00144889
289 *307:27 *322:190 0.000354869
290 *307:27 *322:197 7.9476e-05
291 *310:26 *791:A1 0.000167179
292 *310:26 *322:255 0.000329395
293 *311:16 *322:99 2.22322e-05
294 *313:18 *322:62 2.59161e-06
295 *313:18 *322:64 0.000175318
296 *319:16 *613:A1 0.000506804
297 *319:16 *322:255 0.0031084
298 *319:22 *613:A1 0.000128171
299 *319:22 *322:276 0.000211205
*RES
1 *920:X *322:10 16.4297 
2 *322:10 *689:A1 9.3 
3 *322:10 *755:A1 39.284 
4 *920:X *322:49 26.8996 
5 *322:49 *641:A1 9.3 
6 *322:49 *322:62 1.09849 
7 *322:62 *322:64 6.35554 
8 *322:64 *322:68 4.01733 
9 *322:68 *322:70 4.5 
10 *322:70 *322:76 13.4344 
11 *322:76 *322:84 13.6032 
12 *322:84 *322:86 1.59019 
13 *322:86 *626:A1 10.409 
14 *322:86 *322:99 10.4841 
15 *322:99 *632:A1 17.8173 
16 *322:99 *756:A 14.4277 
17 *322:84 *748:A 9.3 
18 *322:76 *747:A1 9.3 
19 *322:70 *322:135 8.20348 
20 *322:135 *322:139 4.01733 
21 *322:139 *322:141 6.40262 
22 *322:141 *759:A1 9.3 
23 *322:141 *322:156 13.1429 
24 *322:156 *635:A1 10.8902 
25 *322:156 *760:A 9.3 
26 *322:139 *776:A 9.3 
27 *322:135 *775:A1 9.3 
28 *322:68 *610:A 9.3 
29 *322:64 *609:A1 9.3 
30 *322:62 *322:190 2.11851 
31 *322:190 *767:A1 9.3 
32 *322:190 *322:197 5.92138 
33 *322:197 *322:201 5.71357 
34 *322:201 *686:A1 20.2863 
35 *322:201 *605:A1 13.8 
36 *322:197 *322:221 3.03392 
37 *322:221 *322:227 14.8377 
38 *322:227 *322:229 4.95889 
39 *322:229 *768:A 17.1673 
40 *322:229 *322:242 8.55918 
41 *322:242 *644:A1 13.8 
42 *322:242 *322:255 15.0455 
43 *322:255 *613:A1 10.409 
44 *322:255 *322:276 16.7627 
45 *322:276 *322:278 4.95889 
46 *322:278 *647:A1 26.0417 
47 *322:278 *703:A1 9.80217 
48 *322:276 *614:A 9.80217 
49 *322:227 *771:A1 9.3 
50 *322:227 *772:A 11.3924 
51 *322:221 *322:321 6.40262 
52 *322:321 *796:A 9.80217 
53 *322:321 *322:330 3.51516 
54 *322:330 *795:A1 9.3 
55 *322:330 *322:339 8.97765 
56 *322:339 *322:341 1.92497 
57 *322:341 *322:343 0.857868 
58 *322:343 *322:351 12.1162 
59 *322:351 *799:A1 25.9371 
60 *322:351 *665:A1 9.3 
61 *322:343 *696:A 43.7864 
62 *322:341 *656:A1 13.8 
63 *322:339 *322:399 8.70564 
64 *322:399 *322:403 1.61112 
65 *322:403 *322:409 7.53392 
66 *322:409 *792:A 14.4277 
67 *322:409 *322:422 10.3377 
68 *322:422 *662:A1 10.8902 
69 *322:422 *322:439 8.07794 
70 *322:439 *659:A1 13.9517 
71 *322:439 *791:A1 17.7755 
72 *322:403 *788:A 9.3 
73 *322:399 *787:A1 12.3339 
74 *605:A1 *606:A 22.6173 
75 *799:A1 *800:A 22.6173 
*END

*D_NET *323 0.0322097
*CONN
*I *609:A2 I *D sky130_fd_sc_hd__a21oi_1
*I *610:B I *D sky130_fd_sc_hd__and3_1
*I *689:A2 I *D sky130_fd_sc_hd__a22oi_1
*I *906:X O *D sky130_fd_sc_hd__buf_1
*CAP
1 *609:A2 6.96165e-05
2 *610:B 5.91124e-05
3 *689:A2 9.09099e-06
4 *906:X 0.00679382
5 *323:31 0.000414916
6 *323:16 0.00708909
7 *609:A2 *331:341 0.0007771
8 *610:B *331:341 0.0012839
9 *610:B *331:441 0
10 *323:16 *682:A 0.00038187
11 *323:16 *332:16 0.000533572
12 *323:16 *337:12 7.0489e-05
13 *323:31 *691:A 0.000774419
14 *323:31 *331:337 0.000352009
15 *323:31 *331:441 7.04018e-05
16 *611:C *610:B 2.8989e-05
17 *689:B1 *689:A2 3.52009e-05
18 *689:B1 *323:31 0.000598415
19 *691:C *323:31 0
20 *697:A *323:16 0.000585337
21 *709:A2 *323:16 0.00150743
22 *709:B1 *323:16 0.00420612
23 *734:B *323:16 0
24 *755:A1 *689:A2 7.09466e-05
25 *860:CLK *689:A2 0.000157096
26 *860:CLK *323:31 0.00119089
27 *891:A *323:16 0.000230395
28 *902:A *323:16 0.000654541
29 *906:A *323:16 0.00029535
30 *94:12 *689:A2 0.000139371
31 *252:12 *323:31 0.000521801
32 *261:10 *323:16 0.000111815
33 *286:10 *323:31 0
34 *289:10 *323:16 0.000240194
35 *293:124 *323:16 0
36 *311:16 *323:16 0
37 *313:18 *609:A2 0.0012839
38 *313:18 *610:B 0.0012839
39 *322:10 *689:A2 0.000139371
40 *322:64 *609:A2 7.9476e-05
41 *322:135 *610:B 0.000169792
42 *322:135 *323:31 0
*RES
1 *906:X *323:16 45.5843 
2 *323:16 *689:A2 14.2969 
3 *323:16 *323:31 13.0054 
4 *323:31 *610:B 20.7481 
5 *323:31 *609:A2 11.3924 
*END

*D_NET *324 0.0390995
*CONN
*I *605:A2 I *D sky130_fd_sc_hd__a21oi_1
*I *606:B I *D sky130_fd_sc_hd__and3_1
*I *686:A2 I *D sky130_fd_sc_hd__a22oi_1
*I *907:X O *D sky130_fd_sc_hd__buf_1
*CAP
1 *605:A2 5.93443e-05
2 *606:B 0.00125856
3 *686:A2 0.000189202
4 *907:X 0.0057415
5 *324:35 0.00135085
6 *324:24 0.00448358
7 *324:16 0.0100029
8 *606:B *331:290 0.000384512
9 *324:16 *331:10 0.000774202
10 *324:16 *331:14 0.0002405
11 *324:16 *331:216 0.000596345
12 *324:16 *334:8 0.00400375
13 *324:16 *334:22 0.000843678
14 *324:16 *339:20 0.000140389
15 *324:16 *341:12 0.000240194
16 *324:16 *348:18 0.000177465
17 p *324:16 0.00183045
18 *607:B *606:B 0.0012839
19 *665:B1 *324:24 0.000936203
20 *686:A1 *605:A2 0.00051639
21 *686:A1 *686:A2 0.00113186
22 *686:A1 *324:35 0.00110474
23 *799:A1 *324:16 0.000242739
24 *808:D *324:16 0.000597079
25 *852:CLK *605:A2 0.000169585
26 *852:CLK *324:35 0.0004514
27 *917:A *324:16 7.62511e-05
28 *228:14 *324:24 0.000114799
29 *293:177 *605:A2 0
30 *311:16 *324:16 0.000157096
*RES
1 *907:X *324:16 49.9798 
2 *324:16 *324:24 17.2006 
3 *324:24 *686:A2 11.1831 
4 *324:24 *324:35 6.78067 
5 *324:35 *606:B 16.8339 
6 *324:35 *605:A2 15.0136 
*END

*D_NET *325 0.0188327
*CONN
*I *683:A2 I *D sky130_fd_sc_hd__a22oi_1
*I *601:A2 I *D sky130_fd_sc_hd__a21oi_1
*I *602:B I *D sky130_fd_sc_hd__and3_1
*I *908:X O *D sky130_fd_sc_hd__buf_1
*CAP
1 *683:A2 0.000260911
2 *601:A2 0
3 *602:B 0.000419789
4 *908:X 0.00105442
5 *325:16 0.00170359
6 *325:8 0.00259912
7 *602:B *601:A1 0.000167179
8 *602:B *331:732 0.000587843
9 *602:B *331:743 7.09466e-05
10 *683:A2 *369:112 0.000139371
11 *600:A *683:A2 0.000422411
12 *600:A *325:16 0.000759635
13 *602:C *602:B 0.00153731
14 *603:B *602:B 0.000506804
15 *603:C *602:B 0.000172752
16 *893:A *325:16 0.00184446
17 *908:A *325:16 0
18 *174:18 *602:B 0.00322665
19 *174:18 *325:16 5.52877e-05
20 *246:20 *325:16 0.00101859
21 *293:154 *325:16 0.000177857
22 *309:18 *602:B 1.83088e-05
23 *314:16 *325:8 0.002061
24 *317:22 *683:A2 2.85077e-05
*RES
1 *908:X *325:8 16.3527 
2 *325:8 *325:16 11.0072 
3 *325:16 *602:B 24.1377 
4 *325:16 *601:A2 9.3 
5 *325:8 *683:A2 16.881 
*END

*D_NET *326 0.0426144
*CONN
*I *597:A2 I *D sky130_fd_sc_hd__a21oi_1
*I *598:B I *D sky130_fd_sc_hd__and3_1
*I *680:A2 I *D sky130_fd_sc_hd__a22oi_1
*I *909:X O *D sky130_fd_sc_hd__buf_1
*CAP
1 *597:A2 8.75589e-05
2 *598:B 0.000666067
3 *680:A2 8.35047e-05
4 *909:X 0.000849824
5 *326:27 0.00287826
6 *326:10 0.00354358
7 *326:8 0.00218526
8 *597:A2 *617:A1 0.000947137
9 *597:A2 *329:18 0.00179343
10 *597:A2 *369:59 0.000242739
11 *597:A2 *369:92 0.000602539
12 *326:10 *659:B2 0
13 *326:10 *662:A2 0
14 *326:10 *680:A1 7.04018e-05
15 *326:10 *682:A 6.65657e-05
16 *326:10 *699:B 0.000222322
17 *326:10 *791:A2 0
18 *326:10 *331:10 0.000755894
19 *326:10 *331:14 8.87979e-05
20 *326:10 *331:216 0.00100437
21 *326:10 *337:12 0.000462821
22 *326:27 *680:A1 0.0004514
23 *326:27 *680:B2 0.000760142
24 *659:B1 *326:10 0
25 *661:B *326:10 0.000587843
26 *682:B *680:A2 0.000139371
27 *696:A *326:10 0.00799619
28 *709:A2 *326:10 0
29 *728:B *326:10 0.000633616
30 *728:B *326:27 0.000140804
31 *734:B *326:10 0.00489532
32 *789:B *326:10 0.00231083
33 *822:CLK *326:10 0
34 *822:D *326:10 0.000633616
35 *847:D *326:10 0.000760142
36 *854:D *326:10 0.000211205
37 *912:A *680:A2 3.90084e-05
38 *35:19 *326:10 0.000932441
39 *174:14 *326:27 0.000476856
40 *174:18 *326:27 0.000256341
41 *222:18 *326:10 0.00110474
42 *302:10 *326:10 0
43 *305:32 *326:8 0.00167245
44 *308:6 *598:B 0.0012839
45 *308:6 *326:27 0.0007771
46 *318:24 *326:10 0
*RES
1 *909:X *326:8 15.8714 
2 *326:8 *326:10 38.9179 
3 *326:10 *680:A2 14.6003 
4 *326:10 *326:27 11.7396 
5 *326:27 *598:B 10.8902 
6 *326:27 *597:A2 22.0035 
*END

*D_NET *327 0.0238057
*CONN
*I *593:A2 I *D sky130_fd_sc_hd__a21oi_1
*I *594:B I *D sky130_fd_sc_hd__and3_1
*I *677:A2 I *D sky130_fd_sc_hd__a22oi_1
*I *910:X O *D sky130_fd_sc_hd__buf_1
*CAP
1 *593:A2 0
2 *594:B 0.000224759
3 *677:A2 0
4 *910:X 0.0039325
5 *327:40 0.000433254
6 *327:34 0.004141
7 *594:B *728:A 5.52877e-05
8 *594:B *369:43 0.000874237
9 *327:34 *680:A1 0.000587843
10 *327:34 *328:12 7.96925e-05
11 *327:34 *328:16 0.000434998
12 *327:34 *331:101 0
13 *327:34 *364:10 0.000380791
14 *327:40 *681:B 0.00108481
15 *327:40 *364:10 7.04018e-05
16 *327:40 *369:43 0.000139371
17 *593:B1 *327:40 0.000640679
18 *599:B *327:34 7.09466e-05
19 *599:C *327:34 0.000780873
20 *677:B1 *327:40 7.09466e-05
21 *679:B *594:B 0.000637248
22 *679:B *327:40 2.85077e-05
23 *706:A2 *327:34 0.002061
24 *708:B *327:34 0.000506804
25 *728:B *594:B 0.000167179
26 *815:D *327:34 0.00132191
27 *15:21 *327:34 0.000895354
28 *174:14 *327:34 0.000583428
29 *174:18 *327:34 0.00269905
30 *240:10 *327:40 8.87979e-05
31 *243:20 *327:34 6.39828e-05
32 *308:6 *327:34 0.000506804
33 *308:25 *327:34 0.000243245
*RES
1 *910:X *327:34 40.9826 
2 *327:34 *327:40 10.5103 
3 *327:40 *677:A2 9.3 
4 *327:40 *594:B 12.8518 
5 *327:34 *593:A2 13.8 
*END

*D_NET *328 0.044992
*CONN
*I *590:B I *D sky130_fd_sc_hd__and3_1
*I *674:A2 I *D sky130_fd_sc_hd__a22oi_1
*I *589:A2 I *D sky130_fd_sc_hd__a21oi_1
*I *911:X O *D sky130_fd_sc_hd__buf_1
*CAP
1 *590:B 0
2 *674:A2 0.00541635
3 *589:A2 0.000189969
4 *911:X 0.00133406
5 *328:31 0.00567745
6 *328:16 0.00116189
7 *328:12 0.00204488
8 *589:A2 *590:A 0.000463758
9 *674:A2 *369:128 6.24291e-05
10 *328:12 *617:A1 0
11 *328:12 *734:A 0.000733007
12 *328:12 *786:B 0.00103379
13 *328:12 *329:18 2.22322e-05
14 *328:12 *331:65 0.00282773
15 *328:12 *331:69 0.00136217
16 *328:12 *335:16 0.00110474
17 *328:12 *342:10 0.00523941
18 *328:12 *342:19 0.000344598
19 *328:12 *348:18 0.00144901
20 *328:16 *329:18 0.00248212
21 *328:16 *331:107 0
22 *328:16 *363:12 0.000240194
23 *328:16 *369:10 0.000248477
24 *328:16 *369:14 0.00031125
25 *328:16 *369:59 0.000181781
26 *589:B1 *589:A2 0.000506804
27 *591:B *589:A2 0.000169792
28 *591:C *589:A2 2.61555e-05
29 *591:C *328:16 2.8989e-05
30 *598:C *328:16 0.000759635
31 *599:B *328:16 0.000552011
32 *616:A *328:12 7.66137e-05
33 *617:B1 *328:12 0.000266394
34 *618:B *328:12 0.00127704
35 *619:B *328:12 0.000310596
36 *809:D *328:12 0
37 *814:D *328:16 0
38 *816:CLK *589:A2 0
39 *840:CLK *328:16 0
40 *848:CLK *589:A2 0.00154024
41 *848:CLK *674:A2 0.00042352
42 *848:CLK *328:31 0.000128171
43 *876:A *674:A2 0.000302354
44 *243:20 *328:16 0.000157096
45 *293:154 *674:A2 0.000143402
46 *296:12 *674:A2 0.0012839
47 *296:82 *674:A2 0.000506804
48 *302:10 *328:12 0
49 *308:25 *328:12 0.00170779
50 *308:25 *328:16 9.2852e-05
51 *317:22 *328:16 0.000210998
52 *322:399 *328:12 0
53 *322:409 *328:12 7.48689e-05
54 *327:34 *328:12 7.96925e-05
55 *327:34 *328:16 0.000434998
*RES
1 *911:X *328:12 44.3171 
2 *328:12 *328:16 13.0459 
3 *328:16 *589:A2 17.5662 
4 *328:16 *328:31 5.12771 
5 *328:31 *674:A2 22.6126 
6 *328:31 *590:B 9.3 
*END

*D_NET *329 0.0250164
*CONN
*I *807:A2 I *D sky130_fd_sc_hd__a21oi_1
*I *671:A2 I *D sky130_fd_sc_hd__a22oi_1
*I *586:B I *D sky130_fd_sc_hd__and3_1
*I *912:X O *D sky130_fd_sc_hd__buf_1
*CAP
1 *807:A2 0
2 *671:A2 0.000888342
3 *586:B 5.1765e-05
4 *912:X 0.00165061
5 *329:22 0.0011554
6 *329:18 0.0018659
7 *586:B *586:A 0.000932441
8 *586:B *674:B2 7.04018e-05
9 *586:B *333:34 0.00144934
10 *586:B *366:14 0.000211205
11 *329:18 *587:A 0.000944212
12 *329:18 *617:A1 0.000211205
13 *329:18 *331:743 0.000105396
14 *329:18 *333:34 0.000604061
15 *329:18 *369:59 0.000105603
16 *329:18 *369:100 0.000304595
17 *329:22 *587:A 0.000310727
18 *329:22 *674:B2 2.8989e-05
19 *329:22 *333:34 0.000495112
20 *587:B *329:22 0.000759635
21 *587:C *671:A2 0.000895354
22 *587:C *329:22 4.44643e-05
23 *597:A2 *329:18 0.00179343
24 *671:B1 *671:A2 0.000513308
25 *676:B *329:22 0
26 *817:D *586:B 7.04018e-05
27 *901:A *329:18 0.000189974
28 *908:A *329:18 0.00262
29 *912:A *329:18 2.76439e-05
30 *1:18 *329:18 0.00140114
31 *33:27 *329:18 0.000130131
32 *243:20 *329:18 0.000652326
33 *246:20 *329:18 0.000588001
34 *292:25 *671:A2 0.0012839
35 *314:16 *329:18 0.000157096
36 *328:12 *329:18 2.22322e-05
37 *328:16 *329:18 0.00248212
*RES
1 *912:X *329:18 34.7748 
2 *329:18 *329:22 4.33119 
3 *329:22 *586:B 17.1478 
4 *329:22 *671:A2 19.6377 
5 *329:18 *807:A2 13.8 
*END

*D_NET *330 0.00978979
*CONN
*I *695:B_N I *D sky130_fd_sc_hd__nor2b_1
*I *913:X O *D sky130_fd_sc_hd__buf_1
*CAP
1 *695:B_N 0.000912385
2 *913:X 0.000912385
3 *695:B_N *677:B2 0.000755763
4 *695:B_N *678:B 0.000151702
5 *695:B_N *331:107 0.00322665
6 *695:B_N *365:21 8.89286e-05
7 *695:B_N *369:10 0.000931934
8 *695:B_N *369:14 0.00196522
9 *591:C *695:B_N 0.000844821
10 *593:B1 *695:B_N 0
11 *240:10 *695:B_N 0
*RES
1 *913:X *695:B_N 41.7025 
*END

*D_NET *331 0.354791
*CONN
*I *685:A I *D sky130_fd_sc_hd__nor3_1
*I *676:A I *D sky130_fd_sc_hd__nor3_1
*I *591:A I *D sky130_fd_sc_hd__nor3_1
*I *673:A I *D sky130_fd_sc_hd__nor3_1
*I *702:A I *D sky130_fd_sc_hd__nor2b_1
*I *620:C1 I *D sky130_fd_sc_hd__a211oi_1
*I *587:A I *D sky130_fd_sc_hd__nor3_1
*I *603:A I *D sky130_fd_sc_hd__nor3_1
*I *670:A I *D sky130_fd_sc_hd__nor3_1
*I *805:A I *D sky130_fd_sc_hd__nor3_1
*I *694:A I *D sky130_fd_sc_hd__nor3_1
*I *765:A I *D sky130_fd_sc_hd__nor3_1
*I *739:A I *D sky130_fd_sc_hd__nor2_1
*I *640:A I *D sky130_fd_sc_hd__nor3_1
*I *621:C1 I *D sky130_fd_sc_hd__a211oi_1
*I *624:C1 I *D sky130_fd_sc_hd__a211oi_1
*I *623:C1 I *D sky130_fd_sc_hd__a211oi_1
*I *733:A I *D sky130_fd_sc_hd__nor2_1
*I *721:A I *D sky130_fd_sc_hd__nor2_1
*I *727:A I *D sky130_fd_sc_hd__nor2_1
*I *622:C1 I *D sky130_fd_sc_hd__a211oi_1
*I *631:A I *D sky130_fd_sc_hd__nor3_1
*I *715:A I *D sky130_fd_sc_hd__nor2_1
*I *753:A I *D sky130_fd_sc_hd__nor3_2
*I *652:A I *D sky130_fd_sc_hd__nor3_1
*I *661:A I *D sky130_fd_sc_hd__nor3_1
*I *797:A I *D sky130_fd_sc_hd__nor3_1
*I *667:A I *D sky130_fd_sc_hd__nor3_1
*I *607:A I *D sky130_fd_sc_hd__nor3_1
*I *643:A I *D sky130_fd_sc_hd__nor3_1
*I *611:A I *D sky130_fd_sc_hd__nor3_1
*I *705:A I *D sky130_fd_sc_hd__nor3_1
*I *649:A I *D sky130_fd_sc_hd__nor3_1
*I *761:A I *D sky130_fd_sc_hd__nor3_1
*I *777:A I *D sky130_fd_sc_hd__nor3_1
*I *749:A I *D sky130_fd_sc_hd__nor3_1
*I *628:A I *D sky130_fd_sc_hd__nor3_1
*I *637:A I *D sky130_fd_sc_hd__nor3_1
*I *625:C1 I *D sky130_fd_sc_hd__a211oi_1
*I *757:A I *D sky130_fd_sc_hd__nor3_1
*I *745:A I *D sky130_fd_sc_hd__nor2_1
*I *634:A I *D sky130_fd_sc_hd__nor3_1
*I *691:A I *D sky130_fd_sc_hd__nor3_1
*I *769:A I *D sky130_fd_sc_hd__nor3_1
*I *615:A I *D sky130_fd_sc_hd__nor3_1
*I *773:A I *D sky130_fd_sc_hd__nor3_1
*I *793:A I *D sky130_fd_sc_hd__nor3_1
*I *664:A I *D sky130_fd_sc_hd__nor3_1
*I *646:A I *D sky130_fd_sc_hd__nor3_1
*I *789:A I *D sky130_fd_sc_hd__nor3_1
*I *658:A I *D sky130_fd_sc_hd__nor3_1
*I *701:A I *D sky130_fd_sc_hd__nor2_1
*I *709:C1 I *D sky130_fd_sc_hd__a211oi_1
*I *785:A I *D sky130_fd_sc_hd__nor3_1
*I *682:A I *D sky130_fd_sc_hd__nor3_1
*I *619:A I *D sky130_fd_sc_hd__nor3_1
*I *599:A I *D sky130_fd_sc_hd__nor3_1
*I *595:A I *D sky130_fd_sc_hd__nor3_1
*I *679:A I *D sky130_fd_sc_hd__nor3_1
*I *695:A I *D sky130_fd_sc_hd__nor2b_1
*I *708:A I *D sky130_fd_sc_hd__nor3_1
*I *781:A I *D sky130_fd_sc_hd__nor3_1
*I *801:A I *D sky130_fd_sc_hd__nor3_1
*I *688:A I *D sky130_fd_sc_hd__nor3_1
*I *655:A I *D sky130_fd_sc_hd__nor3_1
*I *914:X O *D sky130_fd_sc_hd__clkbuf_8
*CAP
1 *685:A 6.9961e-06
2 *676:A 1.64092e-05
3 *591:A 0.001172
4 *673:A 0
5 *702:A 0.000429609
6 *620:C1 0.00110659
7 *587:A 0.000628162
8 *603:A 8.00279e-05
9 *670:A 0
10 *805:A 6.60991e-06
11 *694:A 0
12 *765:A 0
13 *739:A 0.00174976
14 *640:A 9.18172e-05
15 *621:C1 0
16 *624:C1 0
17 *623:C1 0
18 *733:A 0.000376971
19 *721:A 4.49082e-05
20 *727:A 0.000649165
21 *622:C1 0.000533908
22 *631:A 0.00018835
23 *715:A 0
24 *753:A 0.00165438
25 *652:A 7.00992e-06
26 *661:A 4.25632e-05
27 *797:A 7.35866e-05
28 *667:A 3.50863e-05
29 *607:A 0
30 *643:A 5.51155e-05
31 *611:A 0
32 *705:A 0
33 *649:A 0
34 *761:A 0.000719993
35 *777:A 0
36 *749:A 0
37 *628:A 0
38 *637:A 0.000688138
39 *625:C1 0.000147738
40 *757:A 0
41 *745:A 0
42 *634:A 0.000594584
43 *691:A 0.000461179
44 *769:A 0
45 *615:A 0.00035871
46 *773:A 9.42166e-05
47 *793:A 6.93056e-05
48 *664:A 1.957e-05
49 *646:A 0.00123604
50 *789:A 0
51 *658:A 0.000187484
52 *701:A 0.00118915
53 *709:C1 9.7726e-06
54 *785:A 0
55 *682:A 0.000972449
56 *619:A 8.99775e-05
57 *599:A 0.000101309
58 *595:A 0
59 *679:A 0.000239761
60 *695:A 0
61 *708:A 0.000545284
62 *781:A 3.3018e-05
63 *801:A 0.000172706
64 *688:A 0.000518131
65 *655:A 0
66 *914:X 0.000119828
67 *331:782 0.00289017
68 *331:780 0.00657592
69 *331:774 0.00685143
70 *331:766 0.00084535
71 *331:764 0.00228626
72 *331:743 0.00281652
73 *331:732 0.000684411
74 *331:695 0.00373695
75 *331:678 0.00242362
76 *331:646 0.000820165
77 *331:644 0.00117657
78 *331:634 0.000784866
79 *331:601 0.00192625
80 *331:595 0.00132312
81 *331:589 0.00466952
82 *331:585 0.00465116
83 *331:574 0.000563943
84 *331:565 0.000765299
85 *331:561 0.0014497
86 *331:559 0.00167035
87 *331:538 0.00261434
88 *331:536 0.000308953
89 *331:525 0.000318815
90 *331:523 0.000492352
91 *331:455 0.00113915
92 *331:449 0.00137661
93 *331:441 0.001177
94 *331:407 0.00491529
95 *331:363 0.00182414
96 *331:357 0.0013327
97 *331:355 0.000398681
98 *331:349 0.00468933
99 *331:345 0.00105339
100 *331:341 0.000858389
101 *331:337 0.000390937
102 *331:324 0.00185965
103 *331:320 0.00391528
104 *331:298 0.00146784
105 *331:290 0.00457457
106 *331:282 0.00165623
107 *331:269 0.00175352
108 *331:261 0.00138836
109 *331:241 0.000256654
110 *331:222 0.0015511
111 *331:220 0.00167544
112 *331:216 0.00154575
113 *331:202 0.000231308
114 *331:145 0.00128345
115 *331:116 0.000596169
116 *331:107 0.000874508
117 *331:101 0.00102074
118 *331:79 0.00183274
119 *331:71 0.00179522
120 *331:69 0.000412453
121 *331:65 0.000174983
122 *331:41 0.000825247
123 *331:32 0.00156999
124 *331:26 0.00178101
125 *331:22 0.00317675
126 *331:14 0.00423847
127 *331:10 0.000324729
128 *331:8 0.000562844
129 *587:A *369:128 0
130 *587:A *369:154 0
131 *615:A *346:18 0
132 *620:C1 *711:B 0
133 *637:A *635:B2 0
134 *637:A *636:B 0.000492812
135 *637:A *350:28 0.0004514
136 *676:A *588:B 0.00042352
137 *676:A *333:26 0.0012839
138 *679:A *332:16 0.00403331
139 *679:A *333:26 0.0012839
140 *685:A *363:14 0.000506804
141 *691:A *642:B 0
142 *691:A *347:12 0
143 *753:A *669:B 0.000262616
144 *753:A *369:181 7.01947e-05
145 *773:A *794:B 0.000167179
146 *797:A *792:B 3.90084e-05
147 *805:A *671:B2 0.000128171
148 *331:22 *342:10 0.000507416
149 *331:65 *348:18 0.00058937
150 *331:69 *618:A 0.000310596
151 *331:69 *348:18 4.44643e-05
152 *331:69 *348:26 2.61555e-05
153 *331:101 *348:18 0
154 *331:101 *348:26 0.00221542
155 *331:107 *598:A 0.000134592
156 *331:107 *363:12 0.000936203
157 *331:216 *341:12 0
158 *331:261 *662:A2 0.00110474
159 *331:261 *662:B2 0.000662605
160 *331:261 *792:B 0.000297137
161 *331:261 *335:16 9.93907e-05
162 *331:269 *794:B 0.000128171
163 *331:282 *339:16 0
164 *331:282 *339:20 0
165 *331:320 *766:B 7.9476e-05
166 *331:320 *347:16 7.9476e-05
167 *331:449 *703:B2 0.000932441
168 *331:536 *338:10 0.00103379
169 *331:536 *338:14 7.09466e-05
170 *331:538 *668:A1 0.000182216
171 *331:538 *669:B 4.44643e-05
172 *331:538 *338:14 0.00144934
173 *331:559 *668:A1 0.000760142
174 *331:559 *367:8 0
175 *331:559 *369:181 0
176 *331:559 *369:386 0
177 *331:561 *671:B2 0.00029535
178 *331:585 *369:193 0
179 *331:589 *719:B 0.000384512
180 *331:595 *719:B 0.00167245
181 *331:601 *356:14 0.00042352
182 *331:634 *718:B 6.41898e-05
183 *331:634 *358:19 0.000200089
184 *331:644 *718:B 4.44643e-05
185 *331:678 *639:B 0
186 *331:678 *349:27 0
187 *331:678 *352:10 0.00300003
188 *331:695 *762:B 0
189 *331:743 *602:A 0.000380998
190 *331:743 *369:154 0
191 *331:764 *600:B 0.00120559
192 *331:766 *600:B 0.000243245
193 *331:766 *369:128 0.00111939
194 *331:766 *369:154 3.52009e-05
195 *331:774 *588:B 8.89287e-05
196 *331:774 *333:26 0
197 *331:780 *588:B 5.73995e-05
198 *331:780 *366:14 0.000247067
199 *587:C *587:A 0.00029535
200 *588:A *331:774 0
201 *591:B *591:A 0.00029535
202 *591:C *591:A 7.9476e-05
203 *595:B *331:116 0.000895354
204 *599:B *331:107 0.000137316
205 *602:B *331:732 0.000587843
206 *602:B *331:743 7.09466e-05
207 *606:A *331:290 0.0028381
208 *606:B *331:290 0.000384512
209 *607:B *331:290 0.0023313
210 *607:B *331:320 0.000895354
211 *607:C *331:290 7.9476e-05
212 *607:C *331:320 0.000653008
213 *609:A2 *331:341 0.0007771
214 *609:B1 *331:341 0.000895354
215 *610:B *331:341 0.0012839
216 *610:B *331:441 0
217 *610:C *331:341 0.000371656
218 *611:B *331:441 0.000310596
219 *611:C *331:441 2.61555e-05
220 *611:C *331:449 9.93907e-05
221 *616:A *331:69 0.000328888
222 *616:A *331:101 0.000999012
223 *617:B1 *619:A 0.000156589
224 *623:A2 *733:A 0.000506804
225 *624:A1 *331:646 0.000134764
226 *624:A2 *331:646 0.000506804
227 *624:B1 *331:644 0.000506804
228 *624:B1 *331:646 0.000506804
229 *625:A1 *625:C1 0.000506804
230 *627:A *331:407 0.000524005
231 *628:B *637:A 0.000243245
232 *628:C *637:A 0.00042352
233 *628:C *331:407 0.000134764
234 *629:A2 *753:A 0
235 *631:C *331:585 0.000418488
236 *631:C *331:678 0.000559727
237 *635:A1 *331:407 0.0012839
238 *635:A2 *331:407 0.000217333
239 *635:B1 *331:407 7.9476e-05
240 *637:B *637:A 0.00374662
241 *637:B *331:407 2.11936e-05
242 *637:C *637:A 0.000167179
243 *639:A *640:A 0.000506804
244 *643:B *331:320 0.000384512
245 *643:B *331:324 0.00029535
246 *643:C *691:A 0.000107237
247 *643:C *331:337 0.00024063
248 *643:C *331:441 6.27732e-05
249 *647:A1 *331:455 0.00400375
250 *647:A2 *331:455 0.000414485
251 *649:B *761:A 8.91622e-05
252 *649:B *331:455 0.000506804
253 *649:C *761:A 0.000895354
254 *651:A *652:A 0.000506804
255 *651:A *331:525 0.00167245
256 *655:C *688:A 0.00029535
257 *659:B1 *331:220 0.000726857
258 *661:B *661:A 7.04018e-05
259 *661:C *661:A 0.000845785
260 *661:C *331:216 0.00153498
261 *663:A *331:241 0
262 *663:A *331:261 0
263 *666:A *667:A 0.000551691
264 *667:C *667:A 0.000763145
265 *667:C *331:290 1.72006e-05
266 *672:A *331:780 0.0020782
267 *673:C *331:780 0.000158952
268 *673:C *331:782 0.00042352
269 *676:B *331:766 0
270 *680:B1 *682:A 0
271 *684:A *685:A 0.000506804
272 *686:A1 *331:298 0
273 *694:B *331:561 0.0007771
274 *694:B *331:565 0.000895354
275 *694:C *331:561 0.000506804
276 *694:C *331:565 0.0012839
277 *695:B_N *331:107 0.00322665
278 *696:A *658:A 0.000895354
279 *697:A *682:A 6.41898e-05
280 *701:B *701:A 0.00010671
281 *701:B *331:22 0.000238428
282 *702:B_N *702:A 0.0012839
283 *704:A *331:449 0
284 *705:B *331:455 0.00029535
285 *706:A2 *331:101 0.000169792
286 *708:C *708:A 0.00029535
287 *709:A1 *709:C1 0.000128171
288 *709:A1 *331:26 0.000895354
289 *709:A2 *709:C1 0.000506804
290 *709:A2 *331:26 0.000401712
291 *715:B *631:A 0.000103664
292 *715:B *331:565 9.33746e-05
293 *719:A *331:634 0.000352009
294 *719:A *331:644 0.000243245
295 *720:A *331:644 0.000140804
296 *721:B *721:A 2.72343e-05
297 *721:B *331:595 7.9476e-05
298 *721:B *331:601 0.00029535
299 *726:A *622:C1 0
300 *726:B *622:C1 0.00127653
301 *726:B *727:A 0.00042352
302 *727:B *727:A 0.000340819
303 *728:B *682:A 0.00196623
304 *732:A *733:A 0.00031125
305 *734:B *658:A 3.90084e-05
306 *734:B *331:14 0.000803408
307 *734:B *331:202 0.000256341
308 *739:B *739:A 0.000577522
309 *744:A *634:A 7.09466e-05
310 *745:B *634:A 0.000506804
311 *745:B *331:363 0.0015542
312 *747:A2 *331:407 4.44643e-05
313 *747:B1 *331:355 0.00029535
314 *747:B1 *331:357 3.90084e-05
315 *749:B *331:355 0.00102861
316 *749:B *331:407 9.93907e-05
317 *749:C *331:349 0.000506804
318 *753:B *753:A 7.09466e-05
319 *755:A2 *625:C1 7.09466e-05
320 *757:B *331:363 0.000506804
321 *757:C *625:C1 0.000931934
322 *757:C *331:357 0.000506804
323 *757:C *331:363 0.0012839
324 *760:C *331:407 0.000185828
325 *762:A *331:695 0
326 *763:B1 *331:695 0
327 *765:B *739:A 0.00018314
328 *765:B *331:695 6.11237e-05
329 *768:A *331:298 0.0012839
330 *768:B *615:A 0
331 *768:C *331:298 0
332 *769:B *615:A 0.000242739
333 *769:B *331:298 0
334 *770:A *615:A 0
335 *777:C *331:345 0.000506804
336 *781:C *331:79 0.000140804
337 *781:C *331:525 0.000506804
338 *789:C *658:A 0.000506804
339 *792:C *331:269 0
340 *793:B *793:A 0.000853888
341 *793:C *793:A 0.000128171
342 *794:A *331:261 0
343 *794:A *331:269 0.000895354
344 *797:C *331:269 7.9476e-05
345 *805:B *805:A 0.000506804
346 *805:B *331:561 0.000506804
347 *805:C *331:559 0
348 *805:C *331:561 0.000128171
349 *809:D *619:A 2.41884e-05
350 *811:D *331:449 0.000309975
351 *813:D *331:732 0.0004514
352 *814:D *331:107 0.00101399
353 *817:D *331:780 0.000256341
354 *818:D *331:559 0.000310596
355 *821:D *331:261 0.000246199
356 *823:D *331:65 0.00127704
357 *824:D *331:79 0.000846292
358 *825:CLK *331:695 0.00173911
359 *827:D *615:A 8.89286e-05
360 *828:D *739:A 5.73995e-05
361 *829:D *625:C1 0.00282722
362 *829:D *331:355 0.000521801
363 *829:D *331:407 0.00105541
364 *836:D *331:601 0
365 *837:D *622:C1 0
366 *837:D *331:601 0
367 *840:D *331:107 0.00654929
368 *840:D *331:116 0.00031255
369 *846:D *587:A 0.000592203
370 *849:CLK *331:780 0.000120712
371 *849:D *331:774 0.0004514
372 *849:D *331:780 0.000267486
373 *851:D *753:A 0.00042352
374 *851:D *331:538 0
375 *852:CLK *688:A 0.000132268
376 *852:CLK *801:A 0.000285095
377 *852:CLK *331:290 0.000506804
378 *852:D *667:A 0.000217333
379 *852:D *331:290 0.00443031
380 *854:D *661:A 0.000430747
381 *854:D *331:216 0.000673486
382 *860:CLK *691:A 0.000243245
383 *860:D *691:A 0.0004514
384 *860:D *331:324 2.76439e-05
385 *861:D *331:678 0.00101461
386 *863:CLK *634:A 0
387 *863:D *634:A 0.000380998
388 *864:CLK *331:589 0.000103664
389 *864:D *331:589 0.000310082
390 *865:D *637:A 0.000506804
391 *866:D *625:C1 0.000118254
392 *868:D *733:A 0.002061
393 *868:D *331:646 0.00038855
394 *870:D *331:644 0.000380998
395 *872:CLK *620:C1 0.000551691
396 *872:D *620:C1 0.00248756
397 *872:D *702:A 0.00110474
398 *883:A *708:A 0.000506804
399 *888:A *682:A 0.00335787
400 *888:A *331:71 0.000652326
401 *888:A *331:79 0.00188212
402 *888:A *331:145 0.0013902
403 *891:A *701:A 0.000256341
404 *891:A *331:14 0.0004866
405 *891:A *331:22 3.90084e-05
406 *893:A *331:101 0.000381478
407 *899:A *331:202 0.000167179
408 *901:A *331:107 0.000204993
409 *914:A *331:8 0.0012839
410 *916:A *679:A 0.0012839
411 *1:18 *331:559 7.28265e-05
412 *15:21 *682:A 2.11936e-05
413 *74:10 *331:407 0
414 *80:18 *331:298 0.000189668
415 *141:14 *682:A 3.90084e-05
416 *174:14 *679:A 0.00162113
417 *174:24 *733:A 6.27732e-05
418 *174:24 *753:A 1.47434e-05
419 *179:16 *331:79 0.000499378
420 *204:10 *331:298 0
421 *204:10 *331:320 0.000103664
422 *213:10 *331:525 0.000114799
423 *225:12 *331:269 0.000506804
424 *225:12 *331:282 0
425 *249:10 *331:298 0
426 *262:12 *331:538 0.00110474
427 *263:12 *667:A 0.000167179
428 *268:14 *331:525 0.0023313
429 *271:12 *331:320 0.000256341
430 *271:27 *331:320 0.000506804
431 *272:21 *331:101 0.000169792
432 *273:8 *331:678 0
433 *276:12 *331:585 2.8989e-05
434 *276:12 *331:678 0.000281607
435 *276:18 *331:678 0
436 *279:16 *331:695 0
437 *282:10 *331:644 0
438 *285:16 *702:A 0
439 *285:16 *331:782 7.48689e-05
440 *289:10 *682:A 0.000587843
441 *291:10 *591:A 0.000419266
442 *291:10 *331:774 0
443 *293:52 *331:644 0
444 *293:86 *331:407 0
445 *293:130 *331:32 0.00029535
446 *293:139 *331:32 0.000167179
447 *293:154 *331:764 0.000521594
448 *293:154 *331:766 0.00108439
449 *293:177 *801:A 0
450 *293:177 *331:282 0
451 *295:27 *331:644 0
452 *295:33 *331:644 0
453 *295:80 *331:644 0.00038855
454 *295:80 *331:646 0.0036152
455 *295:90 *733:A 0
456 *297:14 *331:101 0.00144934
457 *297:31 *331:732 0.00024063
458 *297:48 *331:79 0.0004866
459 *299:57 *637:A 0.000506804
460 *299:61 *637:A 0
461 *300:12 *331:32 0.0036152
462 *300:63 *688:A 7.48689e-05
463 *300:101 *331:26 0.000158952
464 *300:101 *331:32 0.000103664
465 *302:10 *619:A 0.000195598
466 *302:10 *331:22 0.00196623
467 *305:32 *664:A 0.000506804
468 *305:32 *793:A 0.00258764
469 *305:32 *331:241 0.000673993
470 *305:32 *331:261 0
471 *305:38 *646:A 0.000132216
472 *305:38 *331:455 0.000134764
473 *305:53 *331:449 0
474 *307:12 *331:22 0.000211936
475 *307:12 *331:282 0.00144934
476 *308:25 *331:101 0.000177857
477 *309:18 *652:A 0.000506804
478 *309:18 *708:A 0.000134764
479 *309:18 *331:523 0.00038855
480 *309:18 *331:525 0.0062168
481 *309:18 *331:732 0
482 *310:26 *646:A 0.00712912
483 *310:26 *331:220 0.000898285
484 *310:26 *331:222 0.000898285
485 *310:26 *331:241 0
486 *310:42 *331:407 6.35809e-05
487 *310:44 *331:407 0.000162216
488 *311:18 *625:C1 0.00074543
489 *312:18 *679:A 0.000985625
490 *313:12 *664:A 0.00018314
491 *313:12 *793:A 0.000342093
492 *313:12 *331:282 0.000943798
493 *313:18 *331:341 0.000852307
494 *313:18 *331:345 0.00111453
495 *313:18 *331:349 0.000128171
496 *313:24 *331:349 0.000256341
497 *314:16 *331:732 0.000204013
498 *314:16 *331:743 0.000137316
499 *314:16 *331:764 0.0036152
500 *317:22 *331:107 0.000151571
501 *319:16 *664:A 0.000128171
502 *322:64 *331:341 3.90084e-05
503 *322:68 *331:341 0.000557263
504 *322:68 *331:345 2.72343e-05
505 *322:84 *331:355 7.9476e-05
506 *322:84 *331:357 5.52877e-05
507 *322:255 *646:A 0.000211205
508 *322:422 *331:261 0.000185704
509 *323:16 *682:A 0.00038187
510 *323:31 *691:A 0.000774419
511 *323:31 *331:337 0.000352009
512 *323:31 *331:441 7.04018e-05
513 *324:16 *331:10 0.000774202
514 *324:16 *331:14 0.0002405
515 *324:16 *331:216 0.000596345
516 *326:10 *682:A 6.65657e-05
517 *326:10 *331:10 0.000755894
518 *326:10 *331:14 8.87979e-05
519 *326:10 *331:216 0.00100437
520 *327:34 *331:101 0
521 *328:12 *331:65 0.00282773
522 *328:12 *331:69 0.00136217
523 *328:16 *331:107 0
524 *329:18 *587:A 0.000944212
525 *329:18 *331:743 0.000105396
526 *329:22 *587:A 0.000310727
*RES
1 *914:X *331:8 15.3902 
2 *331:8 *331:10 6.19339 
3 *331:10 *331:14 9.27058 
4 *331:14 *331:22 19.4618 
5 *331:22 *331:26 3.05485 
6 *331:26 *331:32 12.2194 
7 *331:32 *655:A 9.3 
8 *331:32 *331:41 1.12987 
9 *331:41 *688:A 12.8361 
10 *331:41 *801:A 20.5807 
11 *331:26 *331:65 10.3377 
12 *331:65 *331:69 6.22422 
13 *331:69 *331:71 0.230033 
14 *331:71 *331:79 12.5067 
15 *331:79 *781:A 9.3 
16 *331:79 *708:A 13.7777 
17 *331:71 *331:101 13.673 
18 *331:101 *331:107 19.2721 
19 *331:107 *695:A 9.3 
20 *331:107 *331:116 3.53609 
21 *331:116 *679:A 28.699 
22 *331:116 *595:A 9.3 
23 *331:101 *599:A 14.4277 
24 *331:69 *331:145 0.490235 
25 *331:145 *619:A 18.162 
26 *331:145 *682:A 24.1167 
27 *331:65 *785:A 13.8 
28 *331:22 *709:C1 9.92771 
29 *331:14 *701:A 12.7105 
30 *331:10 *331:202 5.60895 
31 *331:202 *658:A 11.3714 
32 *331:202 *789:A 9.3 
33 *331:8 *331:216 9.57255 
34 *331:216 *331:220 5.20124 
35 *331:220 *331:222 0.316767 
36 *331:222 *646:A 21.3555 
37 *331:222 *331:241 9.65712 
38 *331:241 *664:A 10.409 
39 *331:241 *793:A 13.2964 
40 *331:220 *331:261 14.6369 
41 *331:261 *331:269 6.82109 
42 *331:269 *773:A 9.92771 
43 *331:269 *331:282 17.3276 
44 *331:282 *331:290 13.8096 
45 *331:290 *331:298 18.9178 
46 *331:298 *615:A 21.6478 
47 *331:298 *769:A 9.3 
48 *331:290 *331:320 8.72514 
49 *331:320 *331:324 7.53392 
50 *331:324 *691:A 19.8051 
51 *331:324 *331:337 1.92497 
52 *331:337 *331:341 8.97765 
53 *331:341 *331:345 5.46106 
54 *331:345 *331:349 6.57144 
55 *331:349 *331:355 8.72657 
56 *331:355 *331:357 1.10895 
57 *331:357 *331:363 9.93871 
58 *331:363 *634:A 24.4097 
59 *331:363 *745:A 9.3 
60 *331:357 *757:A 9.3 
61 *331:355 *625:C1 24.7654 
62 *331:349 *331:407 19.293 
63 *331:407 *637:A 30.6658 
64 *331:407 *628:A 9.3 
65 *331:345 *749:A 9.3 
66 *331:341 *777:A 9.3 
67 *331:337 *331:441 2.99207 
68 *331:441 *331:449 14.083 
69 *331:449 *331:455 7.5325 
70 *331:455 *761:A 13.7986 
71 *331:455 *649:A 9.3 
72 *331:449 *705:A 9.3 
73 *331:441 *611:A 13.8 
74 *331:320 *643:A 9.80217 
75 *331:290 *607:A 9.3 
76 *331:282 *667:A 11.8527 
77 *331:261 *797:A 9.92771 
78 *331:216 *661:A 15.5471 
79 *781:A *331:523 9.92771 
80 *331:523 *331:525 7.84635 
81 *331:525 *652:A 9.92771 
82 *331:525 *331:536 6.78067 
83 *331:536 *331:538 4.05918 
84 *331:538 *753:A 28.2401 
85 *331:538 *331:559 13.0996 
86 *331:559 *331:561 6.88386 
87 *331:561 *331:565 5.46106 
88 *331:565 *715:A 9.3 
89 *331:565 *331:574 1.12987 
90 *331:574 *631:A 10.409 
91 *331:574 *331:585 7.84778 
92 *331:585 *331:589 13.7901 
93 *331:589 *331:595 4.03825 
94 *331:595 *331:601 11.1328 
95 *331:601 *622:C1 18.738 
96 *331:601 *727:A 18.2986 
97 *331:595 *721:A 9.80217 
98 *331:589 *331:634 6.42497 
99 *331:634 *331:644 12.2208 
100 *331:644 *331:646 6.40262 
101 *331:646 *733:A 23.8448 
102 *331:646 *623:C1 9.3 
103 *331:644 *624:C1 9.3 
104 *331:634 *621:C1 13.8 
105 *331:585 *331:678 10.1061 
106 *331:678 *640:A 14.4277 
107 *331:678 *331:695 13.5181 
108 *331:695 *739:A 19.5735 
109 *331:695 *765:A 9.3 
110 *331:561 *694:A 9.3 
111 *331:559 *805:A 9.92771 
112 *331:536 *670:A 13.8 
113 *331:523 *331:732 9.98198 
114 *331:732 *603:A 14.4277 
115 *331:732 *331:743 3.70348 
116 *331:743 *587:A 22.6716 
117 *331:743 *331:764 16.114 
118 *331:764 *331:766 7.61619 
119 *331:766 *331:774 9.33335 
120 *331:774 *331:780 13.1819 
121 *331:780 *331:782 7.84635 
122 *331:782 *620:C1 16.686 
123 *331:782 *702:A 23.5937 
124 *331:780 *673:A 9.3 
125 *331:774 *591:A 16.6651 
126 *331:766 *676:A 15.3902 
127 *331:764 *685:A 14.4277 
*END

*D_NET *332 0.0156544
*CONN
*I *696:B I *D sky130_fd_sc_hd__nand2_1
*I *915:X O *D sky130_fd_sc_hd__buf_1
*CAP
1 *696:B 0.000401375
2 *915:X 0.00222375
3 *332:16 0.00262512
4 *332:16 *698:B 0.00114748
5 *679:A *332:16 0.00403331
6 *697:A *332:16 0.00152715
7 *900:A *696:B 0.000176153
8 *900:A *332:16 0.000945682
9 *905:A *332:16 0.000167179
10 *906:A *332:16 0
11 *150:10 *696:B 0.000506804
12 *174:14 *332:16 0.00105561
13 *289:10 *332:16 0
14 *289:12 *332:16 0
15 *312:18 *332:16 0.00031125
16 *323:16 *332:16 0.000533572
*RES
1 *915:X *332:16 47.9906 
2 *332:16 *696:B 12.3548 
*END

*D_NET *333 0.046875
*CONN
*I *668:A2 I *D sky130_fd_sc_hd__a22oi_1
*I *803:A2 I *D sky130_fd_sc_hd__a21oi_1
*I *804:B I *D sky130_fd_sc_hd__and3_1
*I *916:X O *D sky130_fd_sc_hd__buf_1
*CAP
1 *668:A2 0.000532998
2 *803:A2 0
3 *804:B 0.000503699
4 *916:X 0.0107608
5 *333:47 0.000542577
6 *333:34 0.000800978
7 *333:26 0.0110485
8 *668:A2 *362:10 0.000384429
9 *804:B *369:162 7.9476e-05
10 *804:B *369:171 0.000679861
11 *333:26 *586:A 0.00018314
12 *333:26 *588:B 0.000425142
13 *333:26 *675:B 0.000103664
14 *333:26 *365:8 7.00312e-05
15 *333:26 *366:14 0
16 *333:34 *807:A1 0.00213853
17 *333:34 *367:8 0.000111815
18 *333:47 *807:A1 0.000344598
19 *586:B *333:34 0.00144934
20 *586:C *333:34 0.000354853
21 *587:B *333:34 0.000759635
22 *589:B1 *333:26 0.000895354
23 *592:A *333:26 0.00029535
24 *674:B1 *333:26 0.00023371
25 *676:A *333:26 0.0012839
26 *676:B *333:26 0.000577751
27 *676:C *333:26 0.000128171
28 *679:A *333:26 0.0012839
29 *807:B1 *333:34 0.00144731
30 *817:D *333:34 0.00127704
31 *1:18 *668:A2 0
32 *231:10 *668:A2 0
33 *237:8 *333:26 0.00400375
34 *240:10 *333:26 5.34065e-05
35 *291:18 *333:26 0.00107708
36 *314:16 *668:A2 0.00174622
37 *314:16 *333:34 2.8989e-05
38 *314:16 *333:47 0.000169792
39 *329:18 *333:34 0.000604061
40 *329:22 *333:34 0.000495112
41 *331:774 *333:26 0
*RES
1 *916:X *333:26 47.9697 
2 *333:26 *333:34 16.8031 
3 *333:34 *804:B 17.3361 
4 *333:34 *333:47 0.857868 
5 *333:47 *803:A2 13.8 
6 *333:47 *668:A2 22.7762 
*END

*D_NET *334 0.0160945
*CONN
*I *665:A2 I *D sky130_fd_sc_hd__a22oi_1
*I *799:A2 I *D sky130_fd_sc_hd__a21oi_1
*I *800:B I *D sky130_fd_sc_hd__and3_1
*I *917:X O *D sky130_fd_sc_hd__buf_1
*CAP
1 *665:A2 5.22286e-05
2 *799:A2 0
3 *800:B 0.00136924
4 *917:X 0.000139542
5 *334:22 0.00180158
6 *334:8 0.000624113
7 *334:22 *665:B2 0.000415038
8 *334:22 *339:20 7.09466e-05
9 *665:B1 *334:22 0.000506804
10 *799:A1 *334:22 0.00287809
11 *800:A *800:B 0.000158952
12 *801:B *800:B 0.0012839
13 *917:A *334:8 0.000132268
14 *228:14 *800:B 3.99301e-05
15 *228:14 *334:22 0.000506804
16 *307:12 *334:22 0.000448061
17 *322:351 *665:A2 0.000139371
18 *322:351 *334:8 0.000552013
19 *322:351 *334:22 0.000128171
20 *324:16 *334:8 0.00400375
21 *324:16 *334:22 0.000843678
*RES
1 *917:X *334:8 14.7611 
2 *334:8 *334:22 18.3528 
3 *334:22 *800:B 13.5475 
4 *334:22 *799:A2 9.3 
5 *334:8 *665:A2 9.97479 
*END

*D_NET *335 0.0196786
*CONN
*I *662:A2 I *D sky130_fd_sc_hd__a22oi_1
*I *796:B I *D sky130_fd_sc_hd__and3_1
*I *795:A2 I *D sky130_fd_sc_hd__a21oi_1
*I *918:X O *D sky130_fd_sc_hd__buf_1
*CAP
1 *662:A2 0.00137458
2 *796:B 0.000254275
3 *795:A2 0
4 *918:X 0
5 *335:16 0.000916788
6 *335:4 0.0020371
7 *662:A2 *659:B2 0.000140804
8 *662:A2 *792:B 0.000204411
9 *662:A2 *336:29 0.000932441
10 *335:16 *792:B 0.000895354
11 *335:16 *348:18 0.000521801
12 *662:A1 *662:A2 0.000139371
13 *792:A *335:16 0.000103664
14 *793:C *335:16 0.000506804
15 *796:C *796:B 0.00039614
16 *797:B *796:B 0.000256341
17 *797:B *335:16 0.000400179
18 *797:C *796:B 0.000895354
19 *821:D *662:A2 0.00143925
20 *854:CLK *662:A2 0.00152715
21 *219:10 *335:16 0
22 *222:18 *662:A2 0
23 *222:18 *335:16 0.002061
24 *266:12 *796:B 0
25 *266:20 *796:B 0
26 *301:14 *662:A2 2.41884e-05
27 *301:81 *662:A2 0.000133393
28 *322:330 *796:B 0.000186596
29 *322:339 *796:B 7.9476e-05
30 *322:339 *335:16 0.00042352
31 *322:399 *335:16 0
32 *322:409 *335:16 0.000932441
33 *322:422 *662:A2 7.04018e-05
34 *322:422 *335:16 0.000516897
35 *326:10 *662:A2 0
36 *328:12 *335:16 0.00110474
37 *331:261 *662:A2 0.00110474
38 *331:261 *335:16 9.93907e-05
*RES
1 *918:X *335:4 9.3 
2 *335:4 *335:16 21.1566 
3 *335:16 *795:A2 9.3 
4 *335:16 *796:B 13.694 
5 *335:4 *662:A2 37.3904 
*END

*D_NET *336 0.0125938
*CONN
*I *659:A2 I *D sky130_fd_sc_hd__a22oi_1
*I *791:A2 I *D sky130_fd_sc_hd__a21oi_1
*I *792:B I *D sky130_fd_sc_hd__and3_1
*I *919:X O *D sky130_fd_sc_hd__buf_1
*CAP
1 *659:A2 0.00012334
2 *791:A2 0.000239903
3 *792:B 0.00207933
4 *919:X 0.000203024
5 *336:29 0.00046156
6 *336:6 0.00238067
7 *659:A2 *659:B2 0.000117025
8 *791:A2 *659:B2 8.89287e-05
9 *661:B *791:A2 0
10 *662:A2 *792:B 0.000204411
11 *662:A2 *336:29 0.000932441
12 *791:A1 *791:A2 0.00155069
13 *791:A1 *336:29 7.09466e-05
14 *793:C *336:29 0.000159548
15 *797:A *792:B 3.90084e-05
16 *854:CLK *791:A2 2.8989e-05
17 *854:CLK *792:B 5.73995e-05
18 *854:CLK *336:29 0.000352009
19 *919:A *792:B 0.000506804
20 *919:A *336:6 0.000506804
21 *301:81 *336:29 0.000310596
22 *322:422 *792:B 0.000572858
23 *322:439 *336:29 0.000415038
24 *326:10 *791:A2 0
25 *331:261 *792:B 0.000297137
26 *335:16 *792:B 0.000895354
*RES
1 *919:X *336:6 9.92771 
2 *336:6 *792:B 24.9119 
3 *336:6 *336:29 8.20348 
4 *336:29 *791:A2 17.7755 
5 *336:29 *659:A2 14.8671 
*END

*D_NET *2 0.00981238
*CONN
*P p O
*I *808:Q O *D sky130_fd_sc_hd__dfxtp_1
*CAP
1 p 0.00172999
2 *808:Q 0.00172999
3 p *909:A 0
4 p *911:A 0.00067008
5 p *914:A 0.00207319
6 p *7:17 0.000454064
7 p *13:11 0.000363429
8 p *17:25 0.000804096
9 p *311:16 0.000157096
10 p *324:16 0.00183045
*RES
1 *808:Q p 30.5838 
*END

*D_NET *3 0.0151463
*CONN
*P rst I
*I *914:A I *D sky130_fd_sc_hd__clkbuf_8
*CAP
1 rst 0.00102827
2 *914:A 0.00102827
3 *914:A *789:B 7.48689e-05
4 *914:A *911:A 0.00879679
5 *914:A *7:17 0.000860992
6 *914:A *331:8 0.0012839
7 p *914:A 0.00207319
*RES
1 rst *914:A 34.9736 
*END

*D_NET *337 0.00679008
*CONN
*I *699:B I *D sky130_fd_sc_hd__xnor2_1
*I *698:B I *D sky130_fd_sc_hd__nor2_1
*I *697:B I *D sky130_fd_sc_hd__nand2_1
*I *809:Q O *D sky130_fd_sc_hd__dfxtp_1
*CAP
1 *699:B 3.17189e-05
2 *698:B 0.00036493
3 *697:B 0
4 *809:Q 0.000718909
5 *337:12 0.000452458
6 *337:8 0.000838155
7 *697:A *337:12 2.8989e-05
8 *709:A2 *699:B 0.000932441
9 *709:A2 *337:12 0.00144934
10 *886:A *337:8 7.00312e-05
11 *323:16 *337:12 7.0489e-05
12 *326:10 *699:B 0.000222322
13 *326:10 *337:12 0.000462821
14 *332:16 *698:B 0.00114748
*RES
1 *809:Q *337:8 15.3902 
2 *337:8 *337:12 8.20348 
3 *337:12 *697:B 9.3 
4 *337:12 *698:B 13.1709 
5 *337:8 *699:B 15.725 
*END

*D_NET *338 0.0159711
*CONN
*I *668:B2 I *D sky130_fd_sc_hd__a22oi_1
*I *802:B I *D sky130_fd_sc_hd__xor2_1
*I *669:B I *D sky130_fd_sc_hd__nor2_1
*I *819:Q O *D sky130_fd_sc_hd__dfxtp_1
*CAP
1 *668:B2 0
2 *802:B 4.26949e-05
3 *669:B 0.000387142
4 *819:Q 0.00181567
5 *338:14 0.000469977
6 *338:10 0.00185581
7 *669:B *778:B 0
8 *669:B *369:181 0
9 *338:10 *650:B2 0.00244955
10 *338:10 *668:A1 7.09466e-05
11 *338:10 *778:B 0
12 *338:14 *668:A1 0.00144934
13 *652:B *338:10 0.000944212
14 *669:A *669:B 0.000228522
15 *670:C *669:B 0.000118254
16 *740:B *669:B 0.000118254
17 *753:A *669:B 0.000262616
18 *802:A *669:B 0.00038855
19 *802:A *802:B 0.000506804
20 *851:D *669:B 0.000932441
21 *857:D *338:10 0
22 *1:18 *338:10 6.32634e-05
23 *174:24 *669:B 0.000256341
24 *262:12 *669:B 0.000923003
25 *314:16 *669:B 8.91622e-05
26 *331:536 *338:10 0.00103379
27 *331:536 *338:14 7.09466e-05
28 *331:538 *669:B 4.44643e-05
29 *331:538 *338:14 0.00144934
*RES
1 *819:Q *338:10 24.4501 
2 *338:10 *338:14 7.49207 
3 *338:14 *669:B 25.3931 
4 *338:14 *802:B 9.92771 
5 *338:10 *668:B2 13.8 
*END

*D_NET *339 0.0100746
*CONN
*I *666:B I *D sky130_fd_sc_hd__nor2_1
*I *798:B I *D sky130_fd_sc_hd__xor2_1
*I *665:B2 I *D sky130_fd_sc_hd__a22oi_1
*I *820:Q O *D sky130_fd_sc_hd__dfxtp_1
*CAP
1 *666:B 0
2 *798:B 1.90292e-05
3 *665:B2 5.70031e-05
4 *820:Q 0.00109586
5 *339:20 0.00047128
6 *339:16 0.0014911
7 *339:16 *348:18 0.00143026
8 *339:20 *348:18 0
9 *665:B1 *798:B 0.00167245
10 *667:B *798:B 0.000128171
11 *667:B *339:20 0.000310596
12 *797:B *339:16 0.000587843
13 *797:C *339:16 0.000760142
14 *225:12 *339:16 0.000140596
15 *228:14 *798:B 0.0012839
16 *263:12 *665:B2 0
17 *263:12 *339:20 0
18 *307:12 *665:B2 0
19 *324:16 *339:20 0.000140389
20 *331:282 *339:16 0
21 *331:282 *339:20 0
22 *334:22 *665:B2 0.000415038
23 *334:22 *339:20 7.09466e-05
*RES
1 *820:Q *339:16 21.5627 
2 *339:16 *339:20 3.61978 
3 *339:20 *665:B2 14.6579 
4 *339:20 *798:B 15.8714 
5 *339:16 *666:B 13.8 
*END

*D_NET *340 0.0189349
*CONN
*I *662:B2 I *D sky130_fd_sc_hd__a22oi_1
*I *663:B I *D sky130_fd_sc_hd__nor2_1
*I *794:B I *D sky130_fd_sc_hd__xor2_1
*I *821:Q O *D sky130_fd_sc_hd__dfxtp_1
*CAP
1 *662:B2 0.00207808
2 *663:B 0.00011441
3 *794:B 0.000190266
4 *821:Q 0.000663842
5 *340:8 0.000304676
6 *340:6 0.00274192
7 *662:B1 *662:B2 0.000506804
8 *663:A *662:B2 0
9 *663:A *663:B 0.000774212
10 *664:B *662:B2 1.74694e-05
11 *773:A *794:B 0.000167179
12 *794:A *662:B2 0
13 *794:A *663:B 0.000592203
14 *794:A *794:B 0.000887802
15 *301:14 *662:B2 0.0036152
16 *301:14 *340:6 0.0012839
17 *313:12 *663:B 0.00327368
18 *313:12 *794:B 0.000932441
19 *331:261 *662:B2 0.000662605
20 *331:269 *794:B 0.000128171
*RES
1 *821:Q *340:6 10.8902 
2 *340:6 *340:8 4.5 
3 *340:8 *794:B 17.3152 
4 *340:8 *663:B 20.7048 
5 *340:6 *662:B2 26.7531 
*END

*D_NET *341 0.0150061
*CONN
*I *660:B I *D sky130_fd_sc_hd__nor2_1
*I *790:B I *D sky130_fd_sc_hd__xor2_1
*I *659:B2 I *D sky130_fd_sc_hd__a22oi_1
*I *822:Q O *D sky130_fd_sc_hd__dfxtp_1
*CAP
1 *660:B 4.4595e-05
2 *790:B 0
3 *659:B2 0.000451197
4 *822:Q 0.000209882
5 *341:14 0.000502704
6 *341:12 0.000305984
7 *659:A1 *659:B2 4.04016e-05
8 *659:A2 *659:B2 0.000117025
9 *659:B1 *659:B2 0.0004866
10 *660:A *660:B 2.72343e-05
11 *661:B *659:B2 0.00244955
12 *662:A2 *659:B2 0.000140804
13 *791:A2 *659:B2 8.89287e-05
14 *854:CLK *659:B2 0.00110474
15 *907:A *341:12 0.00167245
16 *919:A *659:B2 0.000506804
17 *919:A *341:12 0.00271985
18 *919:A *341:14 0.0023313
19 *265:10 *341:12 8.91622e-05
20 *265:16 *660:B 0
21 *265:16 *341:12 0.00029535
22 *265:16 *341:14 0.00104905
23 *322:439 *659:B2 0.000132268
24 *324:16 *341:12 0.000240194
25 *326:10 *659:B2 0
26 *331:216 *341:12 0
*RES
1 *822:Q *341:12 23.7401 
2 *341:12 *341:14 3.03392 
3 *341:14 *659:B2 27.1507 
4 *341:14 *790:B 9.3 
5 *341:12 *660:B 9.80217 
*END

*D_NET *342 0.0126128
*CONN
*I *786:B I *D sky130_fd_sc_hd__xor2_1
*I *657:B I *D sky130_fd_sc_hd__nor2_1
*I *656:B2 I *D sky130_fd_sc_hd__a22oi_1
*I *823:Q O *D sky130_fd_sc_hd__dfxtp_1
*CAP
1 *786:B 4.28551e-05
2 *657:B 0.000757717
3 *656:B2 0
4 *823:Q 0.000859827
5 *342:19 0.000814945
6 *342:10 0.000874199
7 *342:10 *734:A 0.000103664
8 *657:A *657:B 2.72343e-05
9 *657:A *342:10 0.000169585
10 *657:A *342:19 2.8989e-05
11 *658:C *657:B 0.000895354
12 *666:A *657:B 1.72006e-05
13 *266:20 *786:B 0.000310596
14 *266:20 *342:19 0.000140804
15 *302:10 *342:10 0
16 *322:351 *342:10 0.000355715
17 *322:399 *786:B 8.89287e-05
18 *328:12 *786:B 0.00103379
19 *328:12 *342:10 0.00523941
20 *328:12 *342:19 0.000344598
21 *331:22 *342:10 0.000507416
*RES
1 *823:Q *342:10 25.7265 
2 *342:10 *656:B2 13.8 
3 *342:10 *342:19 0.857868 
4 *342:19 *657:B 16.2481 
5 *342:19 *786:B 16.0807 
*END

*D_NET *343 0.00839819
*CONN
*I *782:B I *D sky130_fd_sc_hd__xor2_1
*I *653:B2 I *D sky130_fd_sc_hd__a22oi_1
*I *654:B I *D sky130_fd_sc_hd__nor2_1
*I *824:Q O *D sky130_fd_sc_hd__dfxtp_1
*CAP
1 *782:B 0.000216245
2 *653:B2 0
3 *654:B 4.3417e-05
4 *824:Q 0.000392223
5 *343:20 0.000848208
6 *343:10 0.00141326
7 *654:B *369:295 0.000158952
8 *654:B *369:299 0
9 *654:A *654:B 0.000895354
10 *779:A2 *654:B 0.000228522
11 *781:B *343:20 0
12 *782:A *782:B 0.000243245
13 *888:A *343:10 0
14 *267:16 *654:B 0
15 *293:148 *782:B 0
16 *293:148 *343:10 0
17 *293:148 *343:20 0.000380998
18 *297:48 *343:20 1.83088e-05
19 *304:14 *654:B 0.00167245
20 *304:14 *782:B 0.000689196
21 *304:14 *343:10 0.00109414
22 *304:14 *343:20 0.000103664
*RES
1 *824:Q *343:10 15.997 
2 *343:10 *343:20 18.9401 
3 *343:20 *654:B 11.8736 
4 *343:20 *653:B2 9.3 
5 *343:10 *782:B 16.4364 
*END

*D_NET *344 0.0218915
*CONN
*I *650:B2 I *D sky130_fd_sc_hd__a22oi_1
*I *651:B I *D sky130_fd_sc_hd__nor2_1
*I *778:B I *D sky130_fd_sc_hd__xor2_1
*I *825:Q O *D sky130_fd_sc_hd__dfxtp_1
*CAP
1 *650:B2 0.00110534
2 *651:B 0
3 *778:B 0.00219189
4 *825:Q 0.000467572
5 *344:14 0.00245707
6 *344:6 0.00183809
7 *650:B2 *763:A1 0.000506804
8 *651:A *778:B 7.9476e-05
9 *652:B *650:B2 0.000679861
10 *652:B *778:B 0.000808032
11 *669:B *778:B 0
12 *763:A2 *650:B2 0.000895354
13 *763:A2 *344:6 8.91622e-05
14 *763:A2 *344:14 0.00144934
15 *763:B1 *344:6 0.000506804
16 *819:CLK *650:B2 0.000256341
17 *819:D *650:B2 0.00171046
18 *857:D *778:B 2.8989e-05
19 *75:12 *344:14 0.00248313
20 *268:14 *778:B 0.000103664
21 *309:18 *344:14 0.000679861
22 *309:33 *344:14 0.00110474
23 *338:10 *650:B2 0.00244955
24 *338:10 *778:B 0
*RES
1 *825:Q *344:6 10.409 
2 *344:6 *344:14 16.679 
3 *344:14 *778:B 26.5857 
4 *344:14 *651:B 9.3 
5 *344:6 *650:B2 19.5735 
*END

*D_NET *345 0.00865723
*CONN
*I *774:B I *D sky130_fd_sc_hd__xor2_1
*I *648:B I *D sky130_fd_sc_hd__nor2_1
*I *647:B2 I *D sky130_fd_sc_hd__a22oi_1
*I *826:Q O *D sky130_fd_sc_hd__dfxtp_1
*CAP
1 *774:B 0
2 *648:B 0.000133732
3 *647:B2 0
4 *826:Q 0.00114259
5 *345:18 0.000544046
6 *345:12 0.00155291
7 *649:C *648:B 0.0004514
8 *811:CLK *345:12 0.000421569
9 *829:D *345:18 0
10 *843:CLK *648:B 0.000506804
11 *858:D *648:B 0
12 *210:10 *345:12 0.000151702
13 *269:10 *648:B 0.000506804
14 *269:21 *648:B 0.000211205
15 *293:86 *345:18 9.93907e-05
16 *299:33 *648:B 0
17 *299:33 *345:18 0
18 *305:53 *345:12 0
19 *310:42 *648:B 0.00127704
20 *310:42 *345:12 0.000380998
21 *310:42 *345:18 0.00127704
*RES
1 *826:Q *345:12 22.7777 
2 *345:12 *345:18 8.72657 
3 *345:18 *647:B2 13.8 
4 *345:18 *648:B 18.1312 
5 *345:12 *774:B 9.3 
*END

*D_NET *346 0.00629597
*CONN
*I *770:B I *D sky130_fd_sc_hd__xor2_1
*I *644:B2 I *D sky130_fd_sc_hd__a22oi_1
*I *645:B I *D sky130_fd_sc_hd__nor2_1
*I *827:Q O *D sky130_fd_sc_hd__dfxtp_1
*CAP
1 *770:B 7.36803e-06
2 *644:B2 0
3 *645:B 0.000128939
4 *827:Q 0.000241325
5 *346:18 0.000384498
6 *346:10 0.000504252
7 *615:A *346:18 0
8 *615:B *346:18 0
9 *615:C *645:B 0
10 *644:A2 *645:B 0
11 *645:A *645:B 0.000261066
12 *646:B *346:18 0.000243245
13 *768:A *346:18 0.000158952
14 *770:A *770:B 0.00038855
15 *770:A *346:18 0.00138817
16 *810:D *645:B 0.0012839
17 *810:D *346:10 0
18 *80:18 *770:B 0.000167179
19 *80:18 *346:18 0.000551691
20 *322:242 *346:10 0.00058683
*RES
1 *827:Q *346:10 20.5807 
2 *346:10 *346:18 14.0635 
3 *346:18 *645:B 11.8945 
4 *346:18 *644:B2 9.3 
5 *346:10 *770:B 9.92771 
*END

*D_NET *347 0.0117775
*CONN
*I *642:B I *D sky130_fd_sc_hd__nor2_1
*I *766:B I *D sky130_fd_sc_hd__xor2_1
*I *641:B2 I *D sky130_fd_sc_hd__a22oi_1
*I *828:Q O *D sky130_fd_sc_hd__dfxtp_1
*CAP
1 *642:B 0.000247095
2 *766:B 4.84386e-05
3 *641:B2 8.03333e-05
4 *828:Q 0.00108826
5 *347:16 0.000388936
6 *347:12 0.00159552
7 *347:12 *920:A 0
8 *642:A *641:B2 0.000506804
9 *643:B *641:B2 0.00110373
10 *643:B *347:16 0.00167245
11 *643:C *642:B 0.00102861
12 *691:A *642:B 0
13 *691:A *347:12 0
14 *819:CLK *347:12 7.04018e-05
15 *845:CLK *347:12 0.000240194
16 *860:CLK *347:12 0
17 *860:D *347:12 0.000285095
18 *75:12 *347:12 0.000587336
19 *184:22 *347:12 0.000262863
20 *271:27 *641:B2 0.000931934
21 *271:27 *766:B 3.90084e-05
22 *293:23 *347:12 0.000626783
23 *322:49 *641:B2 0.000140804
24 *322:49 *347:12 0
25 *322:64 *641:B2 0.000506804
26 *322:64 *642:B 0.000167179
27 *331:320 *766:B 7.9476e-05
28 *331:320 *347:16 7.9476e-05
*RES
1 *828:Q *347:12 26.4588 
2 *347:12 *347:16 7.05268 
3 *347:16 *641:B2 21.5641 
4 *347:16 *766:B 9.92771 
5 *347:12 *642:B 17.4198 
*END

*D_NET *348 0.0323337
*CONN
*I *616:B I *D sky130_fd_sc_hd__xor2_1
*I *707:B I *D sky130_fd_sc_hd__nor2_1
*I *706:B2 I *D sky130_fd_sc_hd__a22oi_1
*I *810:Q O *D sky130_fd_sc_hd__dfxtp_1
*CAP
1 *616:B 0.000489865
2 *707:B 6.57511e-05
3 *706:B2 0.000423772
4 *810:Q 0.00411991
5 *348:26 0.000913442
6 *348:18 0.00503369
7 *348:18 *618:A 0.000760142
8 *348:26 *618:A 7.09466e-05
9 *616:A *616:B 0.00167245
10 *616:A *348:26 0.000105603
11 *706:B1 *706:B2 0.0004514
12 *706:B1 *707:B 3.99301e-05
13 *707:A *707:B 0.000194413
14 *708:C *706:B2 0.0028381
15 *708:C *707:B 0.00167245
16 *797:B *348:18 0.000760142
17 *799:A1 *348:18 0.000310596
18 *820:CLK *348:18 0.000103664
19 *820:D *348:18 0.000568475
20 *823:D *348:18 0.00127704
21 *893:A *706:B2 0
22 *893:A *348:26 0.000310596
23 *912:A *707:B 4.1773e-05
24 *33:27 *706:B2 4.04102e-05
25 *293:154 *706:B2 0
26 *297:14 *706:B2 0.0028381
27 *297:14 *707:B 0.0007771
28 *324:16 *348:18 0.000177465
29 *328:12 *348:18 0.00144901
30 *331:65 *348:18 0.00058937
31 *331:69 *348:18 4.44643e-05
32 *331:69 *348:26 2.61555e-05
33 *331:101 *348:18 0
34 *331:101 *348:26 0.00221542
35 *335:16 *348:18 0.000521801
36 *339:16 *348:18 0.00143026
37 *339:20 *348:18 0
*RES
1 *810:Q *348:18 44.4322 
2 *348:18 *348:26 11.1119 
3 *348:26 *706:B2 25.8743 
4 *348:26 *707:B 11.8736 
5 *348:18 *616:B 17.2105 
*END

*D_NET *349 0.0110057
*CONN
*I *762:B I *D sky130_fd_sc_hd__xor2_1
*I *638:B2 I *D sky130_fd_sc_hd__a22oi_1
*I *639:B I *D sky130_fd_sc_hd__nor2_1
*I *829:Q O *D sky130_fd_sc_hd__dfxtp_1
*CAP
1 *762:B 0.000217586
2 *638:B2 9.18322e-05
3 *639:B 0.000251635
4 *829:Q 0.000286437
5 *349:27 0.00208833
6 *349:6 0.00231698
7 *349:27 *630:B 0.000158952
8 *630:A *349:27 0.002061
9 *631:B *349:6 1.74694e-05
10 *631:B *349:27 3.99301e-05
11 *639:A *638:B2 0.000506804
12 *639:A *639:B 0.000228522
13 *640:C *639:B 0.000118254
14 *762:A *762:B 0.00155069
15 *861:D *639:B 0.000240194
16 *74:10 *639:B 0
17 *273:8 *762:B 7.09466e-05
18 *273:8 *349:27 0.000760142
19 *331:678 *639:B 0
20 *331:678 *349:27 0
21 *331:695 *762:B 0
*RES
1 *829:Q *349:6 9.92771 
2 *349:6 *639:B 20.9991 
3 *349:6 *349:27 10.0657 
4 *349:27 *638:B2 14.4277 
5 *349:27 *762:B 17.1478 
*END

*D_NET *350 0.00671227
*CONN
*I *636:B I *D sky130_fd_sc_hd__nor2_1
*I *758:B I *D sky130_fd_sc_hd__xor2_1
*I *635:B2 I *D sky130_fd_sc_hd__a22oi_1
*I *830:Q O *D sky130_fd_sc_hd__dfxtp_1
*CAP
1 *636:B 0.000120786
2 *758:B 0.000323222
3 *635:B2 0.000563055
4 *830:Q 0.00157822
5 *350:28 0.00145917
6 *635:B2 *627:B 1.83088e-05
7 *635:B1 *350:28 0
8 *636:A *636:B 0.0004514
9 *636:A *758:B 0.00029535
10 *637:A *635:B2 0
11 *637:A *636:B 0.000492812
12 *637:A *350:28 0.0004514
13 *830:D *635:B2 0.000506804
14 *830:D *350:28 0.000268606
15 *274:8 *758:B 0.00018314
*RES
1 *830:Q *635:B2 30.5084 
2 *830:Q *350:28 18.1521 
3 *350:28 *758:B 16.8339 
4 *350:28 *636:B 16.7921 
*END

*D_NET *351 0.0183817
*CONN
*I *754:B I *D sky130_fd_sc_hd__xor2_1
*I *632:B2 I *D sky130_fd_sc_hd__a22oi_1
*I *633:B I *D sky130_fd_sc_hd__nor2_1
*I *831:Q O *D sky130_fd_sc_hd__dfxtp_1
*CAP
1 *754:B 0.000448661
2 *632:B2 2.78625e-05
3 *633:B 0
4 *831:Q 0.000903949
5 *351:27 0.000526719
6 *351:18 0.000954145
7 *351:18 *354:29 0.000281607
8 *625:B1 *351:18 0.00110015
9 *632:A1 *754:B 0
10 *632:B1 *632:B2 0.0012839
11 *633:A *351:18 2.8989e-05
12 *633:A *351:27 0.000592203
13 *634:B *632:B2 0.000256341
14 *744:A *632:B2 0.002061
15 *744:B *351:18 2.41884e-05
16 *745:B *754:B 0.00137839
17 *745:B *351:18 0.000415544
18 *745:B *351:27 0.00155069
19 *754:A *754:B 0.000895354
20 *831:CLK *351:18 0.000932441
21 *831:D *351:18 0.00331995
22 *866:D *351:18 2.61555e-05
23 *867:CLK *351:18 0.000506804
24 *867:D *351:18 0.000256341
25 *275:10 *754:B 0.00053995
26 *275:10 *351:27 7.04018e-05
*RES
1 *831:Q *351:18 25.58 
2 *351:18 *633:B 13.8 
3 *351:18 *351:27 3.34778 
4 *351:27 *632:B2 16.3527 
5 *351:27 *754:B 19.826 
*END

*D_NET *352 0.008201
*CONN
*I *750:B I *D sky130_fd_sc_hd__xor2_1
*I *629:B2 I *D sky130_fd_sc_hd__a22oi_1
*I *630:B I *D sky130_fd_sc_hd__nor2_1
*I *832:Q O *D sky130_fd_sc_hd__dfxtp_1
*CAP
1 *750:B 0.000163391
2 *629:B2 2.67839e-05
3 *630:B 7.72714e-05
4 *832:Q 0
5 *352:10 0.000225622
6 *352:4 0.000284957
7 *629:A2 *629:B2 0
8 *630:A *629:B2 0.000211614
9 *630:A *630:B 0.000322584
10 *631:B *629:B2 0.00038855
11 *631:B *630:B 0.00167245
12 *164:14 *750:B 7.9476e-05
13 *276:12 *750:B 0.000506804
14 *276:12 *352:10 0.000415544
15 *276:18 *352:10 0.000666965
16 *331:678 *352:10 0.00300003
17 *349:27 *630:B 0.000158952
*RES
1 *832:Q *352:4 9.3 
2 *352:4 *352:10 15.1934 
3 *352:10 *630:B 11.8736 
4 *352:10 *629:B2 10.4299 
5 *352:4 *750:B 10.9111 
*END

*D_NET *353 0.00768104
*CONN
*I *627:B I *D sky130_fd_sc_hd__nor2_1
*I *746:B I *D sky130_fd_sc_hd__xor2_1
*I *626:B2 I *D sky130_fd_sc_hd__a22oi_1
*I *833:Q O *D sky130_fd_sc_hd__dfxtp_1
*CAP
1 *627:B 7.91983e-05
2 *746:B 0.000283942
3 *626:B2 0.000215689
4 *833:Q 0.000319542
5 *353:24 0.000466994
6 *626:B1 *626:B2 0.000895354
7 *626:B1 *627:B 0.000587336
8 *626:B1 *353:24 0.00127141
9 *627:A *627:B 0.000688182
10 *628:B *627:B 0.000355715
11 *628:B *353:24 0.00113598
12 *635:B2 *627:B 1.83088e-05
13 *746:A *746:B 0.0012839
14 *277:8 *746:B 7.9476e-05
15 *322:99 *626:B2 0
*RES
1 *833:Q *626:B2 20.2111 
2 *833:Q *353:24 17.1896 
3 *353:24 *746:B 16.3527 
4 *353:24 *627:B 16.7921 
*END

*D_NET *354 0.0250122
*CONN
*I *743:B I *D sky130_fd_sc_hd__xnor2_1
*I *742:B I *D sky130_fd_sc_hd__nor2_1
*I *741:B I *D sky130_fd_sc_hd__nand2_1
*I *834:Q O *D sky130_fd_sc_hd__dfxtp_1
*CAP
1 *743:B 0
2 *742:B 0.000269849
3 *741:B 0.00173162
4 *834:Q 0.00383501
5 *354:29 0.000360442
6 *354:12 0.00565722
7 *625:A2 *741:B 9.73295e-05
8 *625:A2 *354:12 0.000223071
9 *625:B1 *742:B 7.9476e-05
10 *634:C *741:B 2.11936e-05
11 *741:A *741:B 0.00215438
12 *741:A *354:12 0
13 *741:A *354:29 0.000932441
14 *742:A *742:B 0.000895354
15 *742:A *354:29 0.000506804
16 *744:B *354:29 0.000965756
17 *745:B *354:29 7.09466e-05
18 *831:CLK *354:12 0.000912555
19 *831:CLK *354:29 2.61555e-05
20 *834:D *354:12 0.00132191
21 *278:14 *354:29 0.000631795
22 *278:16 *354:29 0.00038855
23 *298:16 *354:12 0.00364878
24 *351:18 *354:29 0.000281607
*RES
1 *834:Q *354:12 20.2221 
2 *354:12 *741:B 14.1543 
3 *354:12 *354:29 12.8709 
4 *354:29 *742:B 11.8736 
5 *354:29 *743:B 9.3 
*END

*D_NET *355 0.00348144
*CONN
*I *735:B I *D sky130_fd_sc_hd__nand2_1
*I *737:B I *D sky130_fd_sc_hd__xnor2_1
*I *736:B I *D sky130_fd_sc_hd__nor2_1
*I *835:Q O *D sky130_fd_sc_hd__dfxtp_1
*CAP
1 *735:B 0.000193206
2 *737:B 0
3 *736:B 0.000564559
4 *835:Q 0
5 *355:12 0.000808391
6 *355:6 0.000437038
7 *624:A2 *735:B 2.8989e-05
8 *624:A2 *355:12 0.000380377
9 *735:A *735:B 0.000133262
10 *737:A *736:B 0.000395701
11 *279:25 *736:B 0.000539917
*RES
1 *835:Q *355:6 13.8 
2 *355:6 *355:12 7.05268 
3 *355:12 *736:B 13.694 
4 *355:12 *737:B 9.3 
5 *355:6 *735:B 15.6413 
*END

*D_NET *356 0.00781615
*CONN
*I *731:B I *D sky130_fd_sc_hd__xnor2_1
*I *730:B I *D sky130_fd_sc_hd__nor2_1
*I *729:B I *D sky130_fd_sc_hd__nand2_1
*I *836:Q O *D sky130_fd_sc_hd__dfxtp_1
*CAP
1 *731:B 6.39523e-05
2 *730:B 1.93006e-05
3 *729:B 0.000258452
4 *836:Q 0.00141798
5 *356:16 0.000761035
6 *356:14 0.00196521
7 *729:A *729:B 0.000194413
8 *729:A *730:B 9.38865e-05
9 *729:A *731:B 0
10 *729:A *356:16 0.000256341
11 *868:D *356:14 0
12 *280:12 *356:14 0.000196166
13 *280:14 *356:16 0.0012839
14 *295:90 *729:B 0.000158952
15 *295:90 *731:B 0.000573456
16 *295:90 *356:14 9.42961e-05
17 *295:90 *356:16 5.52877e-05
18 *331:601 *356:14 0.00042352
*RES
1 *836:Q *356:14 25.414 
2 *356:14 *356:16 3.51516 
3 *356:16 *729:B 11.3924 
4 *356:16 *730:B 9.80217 
5 *356:14 *731:B 10.7856 
*END

*D_NET *357 0.0124893
*CONN
*I *725:B I *D sky130_fd_sc_hd__xnor2_1
*I *723:B I *D sky130_fd_sc_hd__nand2_1
*I *724:B I *D sky130_fd_sc_hd__nor2_1
*I *837:Q O *D sky130_fd_sc_hd__dfxtp_1
*CAP
1 *725:B 0
2 *723:B 0.000369254
3 *724:B 0.000591534
4 *837:Q 0.00280118
5 *357:23 0.000971821
6 *357:6 0.00399528
7 *622:A2 *723:B 0.000551691
8 *723:A *723:B 0.00244955
9 *726:B *724:B 0
10 *837:CLK *357:6 0.000139832
11 *837:CLK *357:23 0.00018314
12 *837:D *357:6 0.000436059
13 *281:12 *724:B 0
*RES
1 *837:Q *357:6 15.7026 
2 *357:6 *724:B 22.3592 
3 *357:6 *357:23 4.8752 
4 *357:23 *723:B 14.2798 
5 *357:23 *725:B 9.3 
*END

*D_NET *358 0.0103317
*CONN
*I *717:B I *D sky130_fd_sc_hd__nand2_1
*I *718:B I *D sky130_fd_sc_hd__nor2_1
*I *719:B I *D sky130_fd_sc_hd__xnor2_1
*I *838:Q O *D sky130_fd_sc_hd__dfxtp_1
*CAP
1 *717:B 0.000628496
2 *718:B 0.000111992
3 *719:B 0.000225958
4 *838:Q 0.00047362
5 *358:19 0.000832158
6 *358:8 0.000791248
7 *621:A2 *717:B 7.9476e-05
8 *621:B1 *717:B 0.0012839
9 *715:B *358:8 0
10 *717:A *717:B 0.00042352
11 *719:A *719:B 0.000506804
12 *719:A *358:19 0
13 *720:A *358:8 0
14 *720:B *358:8 0.000240194
15 *721:B *358:8 0
16 *282:10 *718:B 7.09466e-05
17 *282:18 *717:B 0.00124086
18 *293:52 *718:B 4.83876e-05
19 *293:52 *358:8 0.000521801
20 *293:52 *358:19 0.0004866
21 *331:589 *719:B 0.000384512
22 *331:595 *719:B 0.00167245
23 *331:634 *718:B 6.41898e-05
24 *331:634 *358:19 0.000200089
25 *331:644 *718:B 4.44643e-05
*RES
1 *838:Q *358:8 18.9263 
2 *358:8 *719:B 17.3152 
3 *358:8 *358:19 2.45852 
4 *358:19 *718:B 15.1077 
5 *358:19 *717:B 19.6168 
*END

*D_NET *359 0.00938248
*CONN
*I *612:B I *D sky130_fd_sc_hd__xor2_1
*I *704:B I *D sky130_fd_sc_hd__nor2_1
*I *703:B2 I *D sky130_fd_sc_hd__a22oi_1
*I *811:Q O *D sky130_fd_sc_hd__dfxtp_1
*CAP
1 *612:B 0.000342183
2 *704:B 5.14037e-05
3 *703:B2 0.000199169
4 *811:Q 0.000601932
5 *359:14 0.000998545
6 *359:10 0.00169209
7 *614:C *612:B 0.000107107
8 *647:A1 *703:B2 0.000506804
9 *703:A2 *612:B 0.000895354
10 *704:A *359:14 0.000895354
11 *705:B *703:B2 3.90084e-05
12 *705:C *703:B2 0.000506804
13 *705:C *359:14 0.000506804
14 *768:B *359:10 2.8989e-05
15 *80:18 *359:10 0.000103664
16 *305:38 *612:B 0.000895354
17 *305:38 *703:B2 7.9476e-05
18 *331:449 *703:B2 0.000932441
*RES
1 *811:Q *359:10 17.0641 
2 *359:10 *359:14 8.97765 
3 *359:14 *703:B2 21.4804 
4 *359:14 *704:B 9.80217 
5 *359:10 *612:B 17.5453 
*END

*D_NET *360 0.0169515
*CONN
*I *712:B I *D sky130_fd_sc_hd__nor2_1
*I *713:B I *D sky130_fd_sc_hd__xnor2_1
*I *711:B I *D sky130_fd_sc_hd__nand2_1
*I *839:Q O *D sky130_fd_sc_hd__dfxtp_1
*CAP
1 *712:B 0
2 *713:B 0.000213266
3 *711:B 0.001555
4 *839:Q 0.00226024
5 *360:18 0.00184745
6 *360:12 0.00233942
7 *620:A1 *711:B 0.00127704
8 *620:A1 *360:12 0
9 *620:A1 *360:18 0.000344598
10 *620:A2 *711:B 0.000895354
11 *620:B1 *711:B 0
12 *620:C1 *711:B 0
13 *712:A *713:B 0.000573456
14 *712:A *360:18 0.00167245
15 *714:B *360:18 0.000256341
16 *838:D *360:12 0.000506804
17 *839:D *360:12 0.00115354
18 *871:D *711:B 0.000760142
19 *871:D *360:12 6.27732e-05
20 *871:D *360:18 0.000922348
21 *872:CLK *711:B 0.00018314
22 *284:21 *713:B 0.000128171
23 *294:53 *713:B 0
*RES
1 *839:Q *360:12 25.1839 
2 *360:12 *360:18 7.4293 
3 *360:18 *711:B 21.0396 
4 *360:18 *713:B 15.4111 
5 *360:12 *712:B 9.3 
*END

*D_NET *361 0.00688696
*CONN
*I *608:B I *D sky130_fd_sc_hd__xor2_1
*I *690:B I *D sky130_fd_sc_hd__nor2_1
*I *689:B2 I *D sky130_fd_sc_hd__a22oi_1
*I *812:Q O *D sky130_fd_sc_hd__dfxtp_1
*CAP
1 *608:B 0
2 *690:B 8.13479e-05
3 *689:B2 3.05893e-05
4 *812:Q 0.000260398
5 *361:23 0.00017104
6 *361:8 0.00038068
7 *690:A *690:B 0.000895354
8 *691:B *689:B2 0.000107237
9 *691:B *361:23 0.000222322
10 *691:C *690:B 0.000551691
11 *691:C *361:23 0.000140804
12 *825:D *689:B2 0.000169792
13 *825:D *361:23 0.000915016
14 *94:12 *689:B2 0.000895354
15 *94:12 *361:8 0.000506804
16 *184:22 *689:B2 0.00029535
17 *286:10 *361:23 0.00110423
18 *322:76 *690:B 0.000158952
*RES
1 *812:Q *361:8 14.4277 
2 *361:8 *689:B2 15.7668 
3 *361:8 *361:23 9.27058 
4 *361:23 *690:B 11.8736 
5 *361:23 *608:B 9.3 
*END

*D_NET *362 0.0224889
*CONN
*I *686:B2 I *D sky130_fd_sc_hd__a22oi_1
*I *687:B I *D sky130_fd_sc_hd__nor2_1
*I *604:B I *D sky130_fd_sc_hd__xor2_1
*I *813:Q O *D sky130_fd_sc_hd__dfxtp_1
*CAP
1 *686:B2 0.000284549
2 *687:B 7.37966e-05
3 *604:B 0
4 *813:Q 0.00465035
5 *362:12 7.37966e-05
6 *362:10 0.0049349
7 *650:B1 *362:10 0.000563214
8 *655:B *362:10 0
9 *668:A2 *362:10 0.000384429
10 *686:B1 *686:B2 0.00127141
11 *687:A *687:B 0.00173911
12 *688:B *686:B2 0.00162164
13 *688:B *362:10 0.00110474
14 *688:C *362:10 0
15 *781:B *362:10 0
16 *813:CLK *362:10 0.000436111
17 *813:D *362:10 3.19632e-05
18 *819:D *687:B 0.000551691
19 *819:D *362:10 0
20 *852:CLK *362:10 0
21 *1:18 *362:10 0.00168395
22 *94:12 *686:B2 0
23 *268:14 *362:10 0.000521801
24 *287:10 *686:B2 0.000172299
25 *287:10 *362:10 0.00179394
26 *297:18 *362:10 0.000580521
27 *300:63 *362:10 0
28 *314:16 *362:10 1.47434e-05
*RES
1 *813:Q *362:10 40.5404 
2 *362:10 *362:12 4.5 
3 *362:12 *604:B 9.3 
4 *362:12 *687:B 11.8736 
5 *362:10 *686:B2 18.7589 
*END

*D_NET *363 0.0247877
*CONN
*I *683:B2 I *D sky130_fd_sc_hd__a22oi_1
*I *600:B I *D sky130_fd_sc_hd__xor2_1
*I *684:B I *D sky130_fd_sc_hd__nor2_1
*I *814:Q O *D sky130_fd_sc_hd__dfxtp_1
*CAP
1 *683:B2 4.11123e-05
2 *600:B 0.000100624
3 *684:B 0.00132041
4 *814:Q 0.00425399
5 *363:14 0.0020252
6 *363:12 0.00489927
7 *600:B *369:154 0.00179292
8 *363:12 *369:10 0.000587843
9 *363:12 *369:112 0.00322665
10 *684:A *683:B2 4.44349e-05
11 *684:A *684:B 0.00176583
12 *684:A *363:12 0.00029535
13 *684:A *363:14 0.000335587
14 *685:A *363:14 0.000506804
15 *685:C *684:B 7.9476e-05
16 *840:D *363:12 7.9476e-05
17 *846:D *684:B 5.73995e-05
18 *164:12 *600:B 0.000103664
19 *293:154 *600:B 8.89287e-05
20 *314:16 *600:B 0.000506804
21 *317:22 *363:12 5.06805e-05
22 *328:16 *363:12 0.000240194
23 *331:107 *363:12 0.000936203
24 *331:764 *600:B 0.00120559
25 *331:766 *600:B 0.000243245
*RES
1 *814:Q *363:12 29.7661 
2 *363:12 *363:14 1.59019 
3 *363:14 *684:B 13.1918 
4 *363:14 *600:B 22.6312 
5 *363:12 *683:B2 9.80217 
*END

*D_NET *364 0.028521
*CONN
*I *680:B2 I *D sky130_fd_sc_hd__a22oi_1
*I *596:B I *D sky130_fd_sc_hd__xor2_1
*I *681:B I *D sky130_fd_sc_hd__nor2_1
*I *815:Q O *D sky130_fd_sc_hd__dfxtp_1
*CAP
1 *680:B2 0.000189206
2 *596:B 0
3 *681:B 0.00145935
4 *815:Q 0.0014782
5 *364:10 0.0015024
6 *364:8 0.00171046
7 *680:B2 *680:A1 0.000204013
8 *681:B *678:B 0.000506804
9 *591:B *681:B 0.000167179
10 *677:B1 *681:B 0.00098866
11 *678:A *681:B 0.00162164
12 *679:B *681:B 0.00100963
13 *679:C *681:B 0.0004514
14 *681:A *681:B 0.00118077
15 *682:B *680:B2 0.00167245
16 *728:B *680:B2 0.00162164
17 *728:B *681:B 0.00265492
18 *728:B *364:10 0.00110423
19 *815:D *364:8 0.00167245
20 *848:D *681:B 0.000310596
21 *912:A *680:B2 0.000114799
22 *913:A *681:B 0
23 *15:21 *680:B2 0.00244955
24 *33:27 *364:8 0.000895354
25 *141:14 *681:B 0.000237504
26 *174:14 *364:8 8.91622e-05
27 *290:10 *681:B 0.000932441
28 *326:27 *680:B2 0.000760142
29 *327:34 *364:10 0.000380791
30 *327:40 *681:B 0.00108481
31 *327:40 *364:10 7.04018e-05
*RES
1 *815:Q *364:8 17.3152 
2 *364:8 *364:10 2.28067 
3 *364:10 *681:B 36.2092 
4 *364:10 *596:B 13.8 
5 *364:8 *680:B2 21.0396 
*END

*D_NET *365 0.00774176
*CONN
*I *677:B2 I *D sky130_fd_sc_hd__a22oi_1
*I *592:B I *D sky130_fd_sc_hd__xor2_1
*I *678:B I *D sky130_fd_sc_hd__nor2_1
*I *816:Q O *D sky130_fd_sc_hd__dfxtp_1
*CAP
1 *677:B2 0.000106339
2 *592:B 0
3 *678:B 0.000129549
4 *816:Q 0.000709401
5 *365:21 0.00011526
6 *365:8 0.000847871
7 *678:A *678:B 0.000266786
8 *681:A *678:B 0.000506804
9 *681:B *678:B 0.000506804
10 *695:B_N *677:B2 0.000755763
11 *695:B_N *678:B 0.000151702
12 *695:B_N *365:21 8.89286e-05
13 *913:A *678:B 0
14 *240:10 *677:B2 0.00300003
15 *240:10 *678:B 7.09466e-05
16 *240:10 *365:21 0.000415544
17 *333:26 *365:8 7.00312e-05
*RES
1 *816:Q *365:8 15.3902 
2 *365:8 *678:B 16.7084 
3 *365:8 *365:21 0.857868 
4 *365:21 *592:B 13.8 
5 *365:21 *677:B2 19.9934 
*END

*D_NET *366 0.0104139
*CONN
*I *588:B I *D sky130_fd_sc_hd__xor2_1
*I *674:B2 I *D sky130_fd_sc_hd__a22oi_1
*I *675:B I *D sky130_fd_sc_hd__nor2_1
*I *817:Q O *D sky130_fd_sc_hd__dfxtp_1
*CAP
1 *588:B 0.000248403
2 *674:B2 4.10931e-05
3 *675:B 1.07979e-05
4 *817:Q 0
5 *366:14 0.000351558
6 *366:4 0.00054807
7 *674:B2 *586:A 0.000861494
8 *366:14 *586:A 7.09466e-05
9 *586:B *674:B2 7.04018e-05
10 *586:B *366:14 0.000211205
11 *587:C *674:B2 0.000760142
12 *587:C *675:B 0.000167179
13 *674:B1 *674:B2 0.000109526
14 *676:A *588:B 0.00042352
15 *817:D *366:14 0
16 *849:CLK *588:B 0.000506804
17 *849:CLK *366:14 0.00167245
18 *849:D *588:B 0.00044546
19 *291:18 *588:B 0.0028381
20 *291:18 *674:B2 1.83088e-05
21 *291:18 *366:14 0.000107237
22 *329:22 *674:B2 2.8989e-05
23 *331:774 *588:B 8.89287e-05
24 *331:780 *588:B 5.73995e-05
25 *331:780 *366:14 0.000247067
26 *333:26 *588:B 0.000425142
27 *333:26 *675:B 0.000103664
28 *333:26 *366:14 0
*RES
1 *817:Q *366:4 9.3 
2 *366:4 *366:14 9.98198 
3 *366:14 *675:B 14.4277 
4 *366:14 *674:B2 16.0807 
5 *366:4 *588:B 25.4977 
*END

*D_NET *367 0.0167687
*CONN
*I *672:B I *D sky130_fd_sc_hd__nor2_1
*I *671:B2 I *D sky130_fd_sc_hd__a22oi_1
*I *806:B I *D sky130_fd_sc_hd__xor2_1
*I *818:Q O *D sky130_fd_sc_hd__dfxtp_1
*CAP
1 *672:B 0.000661061
2 *671:B2 0.00122909
3 *806:B 0.000277642
4 *818:Q 0.000102855
5 *367:27 0.00289316
6 *367:8 0.0013835
7 *671:B2 *369:386 0.000373326
8 *367:8 *807:A1 0.000587843
9 *586:C *806:B 2.8989e-05
10 *672:A *672:B 0
11 *673:B *671:B2 0.000243245
12 *673:B *672:B 0
13 *805:A *671:B2 0.000128171
14 *805:B *671:B2 0.000158952
15 *805:B *367:8 0.000931934
16 *805:B *367:27 7.9476e-05
17 *807:B1 *806:B 0.000851997
18 *807:B1 *367:8 0.000587336
19 *817:CLK *672:B 0.000351627
20 *850:D *672:B 0
21 *292:25 *806:B 0.000506804
22 *296:24 *672:B 0.00206607
23 *296:24 *806:B 4.04102e-05
24 *296:24 *367:27 0.00167245
25 *296:26 *672:B 0.00120559
26 *331:559 *367:8 0
27 *331:561 *671:B2 0.00029535
28 *333:34 *367:8 0.000111815
*RES
1 *818:Q *367:8 16.7921 
2 *367:8 *806:B 17.1269 
3 *367:8 *367:27 7.05268 
4 *367:27 *671:B2 23.9075 
5 *367:27 *672:B 27.5273 
*END

*D_NET *4 0.0409238
*CONN
*P x[0] I
*I *915:A I *D sky130_fd_sc_hd__buf_1
*CAP
1 x[0] 0.00215492
2 *915:A 0.000304994
3 *4:11 0.00245991
4 *915:A *905:A 0.0156602
5 *915:A *916:A 0
6 *915:A *19:13 0.00542217
7 *4:11 *902:A 0.000173455
8 *4:11 *5:11 0.0141145
9 *4:11 *19:13 0.000633616
*RES
1 x[0] *4:11 41.4729 
2 *4:11 *915:A 30.6211 
*END

*D_NET *5 0.0306042
*CONN
*P x[10] I
*I *916:A I *D sky130_fd_sc_hd__buf_1
*CAP
1 x[10] 0.000486003
2 *916:A 0.00221801
3 *5:11 0.00270401
4 *916:A *679:A 0.0012839
5 *916:A *905:A 0
6 *5:11 *901:A 0.000281607
7 *5:11 *902:A 4.4672e-05
8 *5:11 *906:A 0.000268442
9 *5:11 *16:19 0.00101859
10 *5:11 *19:13 0.00704905
11 *5:11 *28:11 0.000719276
12 *5:11 *35:19 0.000416199
13 *915:A *916:A 0
14 *4:11 *5:11 0.0141145
*RES
1 x[10] *5:11 36.9355 
2 *5:11 *916:A 30.6211 
*END

*D_NET *6 0.0199246
*CONN
*P x[11] I
*I *917:A I *D sky130_fd_sc_hd__buf_1
*CAP
1 x[11] 0.00526507
2 *917:A 0.00526507
3 *917:A *808:D 0.00443031
4 *917:A *887:A 0.00273835
5 *917:A *891:A 4.4672e-05
6 *917:A *900:A 0.00188322
7 *917:A *902:A 8.9344e-05
8 *917:A *324:16 7.62511e-05
9 *917:A *334:8 0.000132268
*RES
1 x[11] *917:A 41.1042 
*END

*D_NET *7 0.018808
*CONN
*P x[12] I
*I *918:A I *D sky130_fd_sc_hd__buf_1
*CAP
1 x[12] 0.00588074
2 *918:A 0
3 *7:17 0.00588074
4 *7:17 *792:C 7.14134e-06
5 *7:17 *822:CLK 0.000167179
6 *7:17 *822:D 0.000933364
7 *7:17 *909:A 0.000173455
8 *7:17 *911:A 0.000528688
9 *7:17 *919:A 0
10 *7:17 *12:13 0.00274158
11 *7:17 *20:13 0.000173455
12 *7:17 *222:18 0.00100655
13 p *7:17 0.000454064
14 *914:A *7:17 0.000860992
*RES
1 x[12] *7:17 43.7536 
2 *7:17 *918:A 9.3 
*END

*D_NET *8 0.0180607
*CONN
*P x[13] I
*I *919:A I *D sky130_fd_sc_hd__buf_1
*CAP
1 x[13] 0.00297599
2 *919:A 0.00297599
3 *919:A *659:B2 0.000506804
4 *919:A *792:B 0.000506804
5 *919:A *854:CLK 0.000262616
6 *919:A *907:A 0.00166622
7 *919:A *909:A 0
8 *919:A *17:25 0
9 *919:A *20:13 0.000173455
10 *919:A *26:19 0.00292808
11 *919:A *222:18 0.000506804
12 *919:A *265:16 0
13 *919:A *336:6 0.000506804
14 *919:A *341:12 0.00271985
15 *919:A *341:14 0.0023313
16 *7:17 *919:A 0
*RES
1 x[13] *919:A 41.1107 
*END

*D_NET *9 0.013637
*CONN
*P x[14] I
*I *886:A I *D sky130_fd_sc_hd__buf_1
*CAP
1 x[14] 0.00454459
2 *886:A 0.00454459
3 *886:A *696:A 0
4 *886:A *887:A 0
5 *886:A *888:A 0.00207319
6 *886:A *900:A 6.39828e-05
7 *886:A *906:A 0.000714752
8 *886:A *28:11 0.000553403
9 *886:A *150:10 0.000587843
10 *886:A *302:10 0.000103664
11 *886:A *318:24 0.000380998
12 *886:A *337:8 7.00312e-05
*RES
1 x[14] *886:A 47.97 
*END

*D_NET *10 0.0152817
*CONN
*P x[15] I
*I *887:A I *D sky130_fd_sc_hd__buf_1
*CAP
1 x[15] 0.00254456
2 *887:A 0.00254456
3 *887:A *699:A 0.000808032
4 *887:A *700:B 3.99301e-05
5 *887:A *734:A 0
6 *887:A *734:B 0.00167245
7 *887:A *891:A 0.00197821
8 *887:A *900:A 0.00256928
9 *887:A *906:A 0.000203152
10 *887:A *303:12 0.00018314
11 *886:A *887:A 0
12 *917:A *887:A 0.00273835
*RES
1 x[15] *887:A 44.6791 
*END

*D_NET *11 0.0172286
*CONN
*P x[16] I
*I *888:A I *D sky130_fd_sc_hd__buf_1
*CAP
1 x[16] 0.00314053
2 *888:A 0.00314053
3 *888:A *682:A 0.00335787
4 *888:A *906:A 0
5 *888:A *15:21 0
6 *888:A *27:11 8.9344e-05
7 *888:A *35:19 0.000458416
8 *888:A *179:16 0.000748741
9 *888:A *304:14 0.00029535
10 *888:A *331:71 0.000652326
11 *888:A *331:79 0.00188212
12 *888:A *331:145 0.0013902
13 *888:A *343:10 0
14 *886:A *888:A 0.00207319
*RES
1 x[16] *888:A 25.7012 
*END

*D_NET *12 0.0245232
*CONN
*P x[17] I
*I *889:A I *D sky130_fd_sc_hd__buf_1
*CAP
1 x[17] 0.00219911
2 *889:A 0
3 *12:13 0.00219911
4 *12:13 *899:A 0.000268442
5 *12:13 *907:A 0.00139466
6 *12:13 *13:11 0.00411997
7 *12:13 *13:19 0
8 *12:13 *17:25 0.00944345
9 *12:13 *20:13 0.00136319
10 *12:13 *26:19 0.000498348
11 *12:13 *305:32 0.00029535
12 *7:17 *12:13 0.00274158
*RES
1 x[17] *12:13 44.6145 
2 *12:13 *889:A 9.3 
*END

*D_NET *13 0.0523419
*CONN
*P x[18] I
*I *890:A I *D sky130_fd_sc_hd__buf_1
*CAP
1 x[18] 0.000549742
2 *890:A 0
3 *13:19 0.0018916
4 *13:11 0.00244135
5 *13:11 *907:A 0.00136319
6 *13:11 *17:25 0.000363429
7 *13:11 *20:13 0.000422203
8 *13:19 *909:A 0.000746193
9 *13:19 *17:25 4.23873e-05
10 *13:19 *20:13 0.0257625
11 *13:19 *26:19 0.014106
12 *13:19 *313:12 0.000169792
13 p *13:11 0.000363429
14 *12:13 *13:11 0.00411997
15 *12:13 *13:19 0
*RES
1 x[18] *13:11 18.8815 
2 *13:11 *13:19 49.4453 
3 *13:19 *890:A 9.3 
*END

*D_NET *14 0.00834622
*CONN
*P x[19] I
*I *891:A I *D sky130_fd_sc_hd__buf_1
*CAP
1 x[19] 0.00182748
2 *891:A 0.00182748
3 *891:A *701:A 0.000256341
4 *891:A *701:B 0.000895354
5 *891:A *734:B 0
6 *891:A *808:D 0.000380998
7 *891:A *895:A 0.000173455
8 *891:A *899:A 4.4672e-05
9 *891:A *902:A 0
10 *891:A *907:A 0
11 *891:A *911:A 0
12 *891:A *311:16 0.000161568
13 *891:A *323:16 0.000230395
14 *891:A *331:14 0.0004866
15 *891:A *331:22 3.90084e-05
16 *887:A *891:A 0.00197821
17 *917:A *891:A 4.4672e-05
*RES
1 x[19] *891:A 25.5503 
*END

*D_NET *15 0.0202679
*CONN
*P x[1] I
*I *892:A I *D sky130_fd_sc_hd__buf_1
*CAP
1 x[1] 0.00567765
2 *892:A 0
3 *15:21 0.00567765
4 *15:21 *617:A1 0.00110474
5 *15:21 *680:B2 0.00244955
6 *15:21 *682:A 2.11936e-05
7 *15:21 *682:B 0.000128171
8 *15:21 *815:CLK 0.00110474
9 *15:21 *898:A 0
10 *15:21 *901:A 4.4672e-05
11 *15:21 *906:A 0.000739473
12 *15:21 *912:A 6.35809e-05
13 *15:21 *16:19 0.000737915
14 *15:21 *27:11 0.00064839
15 *15:21 *33:27 0
16 *15:21 *141:14 7.9476e-05
17 *15:21 *174:18 0.000895354
18 *15:21 *327:34 0.000895354
19 *888:A *15:21 0
*RES
1 x[1] *15:21 43.4406 
2 *15:21 *892:A 9.3 
*END

*D_NET *16 0.0484344
*CONN
*P x[20] I
*I *893:A I *D sky130_fd_sc_hd__buf_1
*CAP
1 x[20] 0.00636058
2 *893:A 0.00181348
3 *16:19 0.00817406
4 *893:A *706:A1 0.000895354
5 *893:A *706:A2 0.000415038
6 *893:A *706:B1 0.000284833
7 *893:A *706:B2 0
8 *893:A *174:18 0.000973577
9 *893:A *293:154 0
10 *893:A *325:16 0.00184446
11 *893:A *331:101 0.000381478
12 *893:A *348:26 0.000310596
13 *893:A *369:106 7.09466e-05
14 *16:19 *617:A2 0.000950642
15 *16:19 *847:D 0.00209901
16 *16:19 *901:A 0.000363429
17 *16:19 *906:A 0
18 *16:19 *28:11 0.000416199
19 *16:19 *35:19 0.0174318
20 *16:19 *289:10 0.00167245
21 *16:19 *297:14 0.000158952
22 *16:19 *297:80 0.002061
23 *5:11 *16:19 0.00101859
24 *15:21 *16:19 0.000737915
*RES
1 x[20] *16:19 48.8455 
2 *16:19 *893:A 26.2286 
*END

*D_NET *17 0.0291699
*CONN
*P x[21] I
*I *894:A I *D sky130_fd_sc_hd__buf_1
*CAP
1 x[21] 0.00122547
2 *894:A 0
3 *17:25 0.00122547
4 *17:25 *661:C 0.0012839
5 *17:25 *909:A 0.0143795
6 *17:25 *26:19 0.000100247
7 *17:25 *305:32 0.000134764
8 *17:25 *310:26 0.000167179
9 p *17:25 0.000804096
10 *919:A *17:25 0
11 *12:13 *17:25 0.00944345
12 *13:11 *17:25 0.000363429
13 *13:19 *17:25 4.23873e-05
*RES
1 x[21] *17:25 43.2104 
2 *17:25 *894:A 9.3 
*END

*D_NET *18 0.0204054
*CONN
*P x[22] I
*I *895:A I *D sky130_fd_sc_hd__buf_2
*CAP
1 x[22] 0.00142201
2 *895:A 0.00142201
3 *895:A *899:A 0.0173879
4 *891:A *895:A 0.000173455
*RES
1 x[22] *895:A 40.5622 
*END

*D_NET *19 0.0299374
*CONN
*P x[23] I
*I *896:A I *D sky130_fd_sc_hd__buf_1
*CAP
1 x[23] 0.00217297
2 *896:A 8.78146e-05
3 *19:13 0.00226079
4 *896:A *905:A 0
5 *19:13 *681:A 0.000238428
6 *19:13 *898:A 0.000363429
7 *19:13 *901:A 0.00146817
8 *19:13 *904:A 0.00291297
9 *19:13 *905:A 0.000350637
10 *19:13 *913:A 0.000114799
11 *19:13 *28:11 0.000675029
12 *19:13 *36:11 0.00618756
13 *915:A *19:13 0.00542217
14 *4:11 *19:13 0.000633616
15 *5:11 *19:13 0.00704905
*RES
1 x[23] *19:13 49.953 
2 *19:13 *896:A 10.1579 
*END

*D_NET *20 0.0330714
*CONN
*P x[24] I
*I *897:A I *D sky130_fd_sc_hd__buf_1
*CAP
1 x[24] 0.00220629
2 *897:A 0.000261695
3 *20:13 0.00246799
4 *897:A *26:19 0.00024063
5 *897:A *310:26 0
6 *919:A *20:13 0.000173455
7 *7:17 *20:13 0.000173455
8 *12:13 *20:13 0.00136319
9 *13:11 *20:13 0.000422203
10 *13:19 *20:13 0.0257625
*RES
1 x[24] *20:13 46.2435 
2 *20:13 *897:A 20.9364 
*END

*D_NET *21 0.032025
*CONN
*P x[25] I
*I *898:A I *D sky130_fd_sc_hd__buf_1
*CAP
1 x[25] 0.0053926
2 *898:A 0.0053926
3 *898:A *595:B 0.00400375
4 *898:A *597:A1 0.000132268
5 *898:A *815:D 0.00136268
6 *898:A *901:A 0.0107962
7 *898:A *908:A 0
8 *898:A *33:27 0.00142982
9 *898:A *174:14 0.00136268
10 *898:A *314:16 0.000895354
11 *898:A *318:24 0.00062404
12 *898:A *369:74 0.000269528
13 *15:21 *898:A 0
14 *19:13 *898:A 0.000363429
*RES
1 x[25] *898:A 37.9759 
*END

*D_NET *22 0.0212747
*CONN
*P x[26] I
*I *899:A I *D sky130_fd_sc_hd__buf_1
*CAP
1 x[26] 0.00167456
2 *899:A 0.00167456
3 *899:A *734:B 5.73995e-05
4 *899:A *331:202 0.000167179
5 *891:A *899:A 4.4672e-05
6 *895:A *899:A 0.0173879
7 *12:13 *899:A 0.000268442
*RES
1 x[26] *899:A 41.0465 
*END

*D_NET *23 0.0162798
*CONN
*P x[27] I
*I *900:A I *D sky130_fd_sc_hd__buf_1
*CAP
1 x[27] 0.0037372
2 *900:A 0.0037372
3 *900:A *696:B 0.000176153
4 *900:A *697:A 0.0012839
5 *900:A *902:A 0.00188322
6 *900:A *35:19 0
7 *900:A *332:16 0.000945682
8 *886:A *900:A 6.39828e-05
9 *887:A *900:A 0.00256928
10 *917:A *900:A 0.00188322
*RES
1 x[27] *900:A 47.3334 
*END

*D_NET *24 0.0270266
*CONN
*P x[28] I
*I *901:A I *D sky130_fd_sc_hd__buf_1
*CAP
1 x[28] 0.000767451
2 *901:A 0.000767451
3 *901:A *599:B 0.000501187
4 *901:A *908:A 0.00282346
5 *901:A *28:11 0.00179394
6 *901:A *33:27 0.00226114
7 *901:A *243:20 0.00262
8 *901:A *318:24 0.000506804
9 *901:A *329:18 0.000189974
10 *901:A *331:107 0.000204993
11 *901:A *369:96 0.00147575
12 *901:A *369:100 0.000160408
13 *898:A *901:A 0.0107962
14 *5:11 *901:A 0.000281607
15 *15:21 *901:A 4.4672e-05
16 *16:19 *901:A 0.000363429
17 *19:13 *901:A 0.00146817
*RES
1 x[28] *901:A 35.2496 
*END

*D_NET *25 0.0114309
*CONN
*P x[29] I
*I *902:A I *D sky130_fd_sc_hd__buf_1
*CAP
1 x[29] 0.00265336
2 *902:A 0.00265336
3 *902:A *700:A 0
4 *902:A *709:A1 6.41898e-05
5 *902:A *734:A 0.000895354
6 *902:A *841:CLK 0.000329395
7 *902:A *906:A 0
8 *902:A *179:16 0
9 *902:A *302:10 0.00153549
10 *902:A *318:24 0.000454553
11 *902:A *323:16 0.000654541
12 *891:A *902:A 0
13 *900:A *902:A 0.00188322
14 *917:A *902:A 8.9344e-05
15 *4:11 *902:A 0.000173455
16 *5:11 *902:A 4.4672e-05
*RES
1 x[29] *902:A 26.6778 
*END

*D_NET *26 0.0334477
*CONN
*P x[2] I
*I *903:A I *D sky130_fd_sc_hd__buf_1
*CAP
1 x[2] 0.00744579
2 *903:A 0
3 *26:19 0.00744579
4 *26:19 *663:A 0
5 *26:19 *909:A 0.00068272
6 *26:19 *313:12 0
7 *897:A *26:19 0.00024063
8 *919:A *26:19 0.00292808
9 *12:13 *26:19 0.000498348
10 *13:19 *26:19 0.014106
11 *17:25 *26:19 0.000100247
*RES
1 x[2] *26:19 41.2474 
2 *26:19 *903:A 9.3 
*END

*D_NET *27 0.0520193
*CONN
*P x[30] I
*I *904:A I *D sky130_fd_sc_hd__buf_1
*CAP
1 x[30] 0.00153214
2 *904:A 0.0053661
3 *27:11 0.00689824
4 *904:A *913:A 0.0214885
5 *27:11 *28:11 0.0111842
6 *27:11 *33:27 0.00101859
7 *27:11 *35:19 0.000458416
8 *27:11 *36:11 0.000422411
9 *888:A *27:11 8.9344e-05
10 *15:21 *27:11 0.00064839
11 *19:13 *904:A 0.00291297
*RES
1 x[30] *27:11 33.7255 
2 *27:11 *904:A 49.7272 
*END

*D_NET *28 0.0429696
*CONN
*P x[31] I
*I *905:A I *D sky130_fd_sc_hd__buf_1
*CAP
1 x[31] 0.000632008
2 *905:A 0.00110678
3 *28:11 0.00173878
4 *905:A *681:A 0.000506804
5 *905:A *312:18 0.000222467
6 *905:A *332:16 0.000167179
7 *28:11 *906:A 0.000553403
8 *28:11 *35:19 0.00101859
9 *28:11 *36:11 0.00567066
10 *886:A *28:11 0.000553403
11 *896:A *905:A 0
12 *901:A *28:11 0.00179394
13 *915:A *905:A 0.0156602
14 *916:A *905:A 0
15 *5:11 *28:11 0.000719276
16 *16:19 *28:11 0.000416199
17 *19:13 *905:A 0.000350637
18 *19:13 *28:11 0.000675029
19 *27:11 *28:11 0.0111842
*RES
1 x[31] *28:11 37.1957 
2 *28:11 *905:A 30.7885 
*END

*D_NET *29 0.00825172
*CONN
*P x[3] I
*I *906:A I *D sky130_fd_sc_hd__buf_1
*CAP
1 x[3] 0.00273858
2 *906:A 0.00273858
3 *906:A *697:A 0
4 *906:A *261:10 0
5 *906:A *323:16 0.00029535
6 *906:A *332:16 0
7 *886:A *906:A 0.000714752
8 *887:A *906:A 0.000203152
9 *888:A *906:A 0
10 *902:A *906:A 0
11 *5:11 *906:A 0.000268442
12 *15:21 *906:A 0.000739473
13 *16:19 *906:A 0
14 *28:11 *906:A 0.000553403
*RES
1 x[3] *906:A 35.1657 
*END

*D_NET *30 0.0134366
*CONN
*P x[4] I
*I *907:A I *D sky130_fd_sc_hd__buf_1
*CAP
1 x[4] 0.00227668
2 *907:A 0.00227668
3 *907:A *909:A 0.000267338
4 *907:A *911:A 0.000458416
5 *907:A *265:10 0.002061
6 *907:A *341:12 0.00167245
7 *891:A *907:A 0
8 *919:A *907:A 0.00166622
9 *12:13 *907:A 0.00139466
10 *13:11 *907:A 0.00136319
*RES
1 x[4] *907:A 46.9739 
*END

*D_NET *31 0.0163089
*CONN
*P x[5] I
*I *908:A I *D sky130_fd_sc_hd__buf_1
*CAP
1 x[5] 0.00145521
2 *908:A 0.00145521
3 *908:A *600:A 0
4 *908:A *33:27 0.000743377
5 *908:A *36:11 0.000458416
6 *908:A *164:12 0.000238428
7 *908:A *243:20 0.000759896
8 *908:A *314:16 0.00167245
9 *908:A *318:24 0.00018438
10 *908:A *325:16 0
11 *908:A *329:18 0.00262
12 *908:A *369:112 0.00050068
13 *898:A *908:A 0
14 *901:A *908:A 0.00282346
15 *1:18 *908:A 0.00339735
*RES
1 x[5] *908:A 27.1358 
*END

*D_NET *32 0.0254221
*CONN
*P x[6] I
*I *909:A I *D sky130_fd_sc_hd__buf_1
*CAP
1 x[6] 0.00318528
2 *909:A 0.00318528
3 *909:A *661:C 0.000207416
4 *909:A *793:B 0
5 *909:A *305:32 0.00218294
6 *909:A *310:26 0.00041197
7 p *909:A 0
8 *907:A *909:A 0.000267338
9 *919:A *909:A 0
10 *7:17 *909:A 0.000173455
11 *13:19 *909:A 0.000746193
12 *17:25 *909:A 0.0143795
13 *26:19 *909:A 0.00068272
*RES
1 x[6] *909:A 44.3116 
*END

*D_NET *33 0.0192788
*CONN
*P x[7] I
*I *910:A I *D sky130_fd_sc_hd__buf_1
*CAP
1 x[7] 0.00400744
2 *910:A 0
3 *33:27 0.00400744
4 *33:27 *680:B1 0.000232207
5 *33:27 *706:B2 4.04102e-05
6 *33:27 *815:D 7.09466e-05
7 *33:27 *174:14 0.0006639
8 *33:27 *246:20 0.000652326
9 *33:27 *289:12 3.52009e-05
10 *33:27 *293:154 6.41898e-05
11 *33:27 *329:18 0.000130131
12 *33:27 *364:8 0.000895354
13 *33:27 *369:96 0.00163616
14 *33:27 *369:100 0.0013902
15 *898:A *33:27 0.00142982
16 *901:A *33:27 0.00226114
17 *908:A *33:27 0.000743377
18 *15:21 *33:27 0
19 *27:11 *33:27 0.00101859
*RES
1 x[7] *33:27 48.6862 
2 *33:27 *910:A 9.3 
*END

*D_NET *34 0.0256823
*CONN
*P x[8] I
*I *911:A I *D sky130_fd_sc_hd__buf_1
*CAP
1 x[8] 0.0059835
2 *911:A 0.0059835
3 *911:A *787:A1 0.000300922
4 *911:A *787:A2 7.9476e-05
5 *911:A *787:B1 0.000895354
6 *911:A *788:C 0.000760206
7 *911:A *789:B 1.47434e-05
8 *911:A *322:403 0.000315315
9 *911:A *322:409 0.000895354
10 p *911:A 0.00067008
11 *891:A *911:A 0
12 *907:A *911:A 0.000458416
13 *914:A *911:A 0.00879679
14 *7:17 *911:A 0.000528688
*RES
1 x[8] *911:A 37.9485 
*END

*D_NET *35 0.0303309
*CONN
*P x[9] I
*I *912:A I *D sky130_fd_sc_hd__buf_1
*CAP
1 x[9] 0.00163247
2 *912:A 0.0024712
3 *35:19 0.00410367
4 *912:A *680:A2 3.90084e-05
5 *912:A *680:B2 0.000114799
6 *912:A *682:B 0.000158952
7 *912:A *707:A 6.66522e-05
8 *912:A *707:B 4.1773e-05
9 *912:A *329:18 2.76439e-05
10 *35:19 *847:D 0.000895354
11 *35:19 *318:24 0
12 *35:19 *326:10 0.000932441
13 *888:A *35:19 0.000458416
14 *900:A *35:19 0
15 *5:11 *35:19 0.000416199
16 *15:21 *912:A 6.35809e-05
17 *16:19 *35:19 0.0174318
18 *27:11 *35:19 0.000458416
19 *28:11 *35:19 0.00101859
*RES
1 x[9] *35:19 44.6025 
2 *35:19 *912:A 15.598 
*END

*D_NET *36 0.038923
*CONN
*P y I
*I *913:A I *D sky130_fd_sc_hd__buf_1
*CAP
1 y 0.000273716
2 *913:A 0.00178739
3 *36:11 0.00206111
4 *913:A *678:B 0
5 *913:A *681:B 0
6 *904:A *913:A 0.0214885
7 *908:A *36:11 0.000458416
8 *1:18 *36:11 0.000458416
9 *19:13 *913:A 0.000114799
10 *19:13 *36:11 0.00618756
11 *27:11 *36:11 0.000422411
12 *28:11 *36:11 0.00567066
*RES
1 y *36:11 22.5252 
2 *36:11 *913:A 48.158 
*END

*D_NET *369 0.168238
*CONN
*I *617:A1 I *D sky130_fd_sc_hd__a21oi_1
*I *598:A I *D sky130_fd_sc_hd__and3_1
*I *706:A1 I *D sky130_fd_sc_hd__a22oi_1
*I *716:A I *D sky130_fd_sc_hd__nand2_1
*I *683:A1 I *D sky130_fd_sc_hd__a22oi_1
*I *601:A1 I *D sky130_fd_sc_hd__a21oi_1
*I *602:A I *D sky130_fd_sc_hd__and3_1
*I *807:A1 I *D sky130_fd_sc_hd__a21oi_1
*I *804:A I *D sky130_fd_sc_hd__and3_1
*I *668:A1 I *D sky130_fd_sc_hd__a22oi_1
*I *710:A I *D sky130_fd_sc_hd__nand2_1
*I *671:A1 I *D sky130_fd_sc_hd__a22oi_1
*I *692:A I *D sky130_fd_sc_hd__and3_1
*I *693:A1 I *D sky130_fd_sc_hd__a21oi_1
*I *722:A I *D sky130_fd_sc_hd__nand2_1
*I *751:A1 I *D sky130_fd_sc_hd__a21oi_1
*I *740:A I *D sky130_fd_sc_hd__nand2_1
*I *920:A I *D sky130_fd_sc_hd__buf_4
*I *653:A1 I *D sky130_fd_sc_hd__a22oi_1
*I *784:A I *D sky130_fd_sc_hd__and3_1
*I *783:A1 I *D sky130_fd_sc_hd__a21oi_1
*I *734:A I *D sky130_fd_sc_hd__nand2_1
*I *618:A I *D sky130_fd_sc_hd__and3_1
*I *779:A1 I *D sky130_fd_sc_hd__a21oi_1
*I *650:A1 I *D sky130_fd_sc_hd__a22oi_1
*I *780:A I *D sky130_fd_sc_hd__and3_1
*I *763:A1 I *D sky130_fd_sc_hd__a21oi_1
*I *764:A I *D sky130_fd_sc_hd__and3_1
*I *638:A1 I *D sky130_fd_sc_hd__a22oi_1
*I *629:A1 I *D sky130_fd_sc_hd__a22oi_1
*I *752:A I *D sky130_fd_sc_hd__and3_1
*I *803:A1 I *D sky130_fd_sc_hd__a21oi_1
*I *674:A1 I *D sky130_fd_sc_hd__a22oi_1
*I *586:A I *D sky130_fd_sc_hd__and3_1
*I *593:A1 I *D sky130_fd_sc_hd__a21oi_1
*I *680:A1 I *D sky130_fd_sc_hd__a22oi_1
*I *597:A1 I *D sky130_fd_sc_hd__a21oi_1
*I *728:A I *D sky130_fd_sc_hd__nand2_1
*I *594:A I *D sky130_fd_sc_hd__and3_1
*I *677:A1 I *D sky130_fd_sc_hd__a22oi_1
*I *589:A1 I *D sky130_fd_sc_hd__a21oi_1
*I *590:A I *D sky130_fd_sc_hd__and3_1
*I *840:Q O *D sky130_fd_sc_hd__dfxtp_4
*CAP
1 *617:A1 0.000317935
2 *598:A 2.12395e-05
3 *706:A1 0.000119401
4 *716:A 0
5 *683:A1 0
6 *601:A1 0.000456757
7 *602:A 5.55921e-05
8 *807:A1 0.00080465
9 *804:A 0
10 *668:A1 0.000188184
11 *710:A 0
12 *671:A1 0.000452641
13 *692:A 0.000332347
14 *693:A1 0
15 *722:A 4.10033e-05
16 *751:A1 0
17 *740:A 7.42956e-05
18 *920:A 0.000646087
19 *653:A1 0
20 *784:A 0
21 *783:A1 0
22 *734:A 0.000254708
23 *618:A 3.13012e-05
24 *779:A1 2.77705e-05
25 *650:A1 0
26 *780:A 4.43148e-05
27 *763:A1 0.000367182
28 *764:A 0
29 *638:A1 0.000177528
30 *629:A1 0.000322675
31 *752:A 0
32 *803:A1 0
33 *674:A1 5.44656e-05
34 *586:A 0.00113429
35 *593:A1 0
36 *680:A1 0.000421666
37 *597:A1 2.05153e-05
38 *728:A 0.000472018
39 *594:A 0
40 *677:A1 0
41 *589:A1 0
42 *590:A 0.00112492
43 *840:Q 0.000655944
44 *369:390 0.000684579
45 *369:388 0.000845053
46 *369:386 0.000329332
47 *369:316 0.0012615
48 *369:303 0.00235057
49 *369:299 0.00186349
50 *369:295 0.0010395
51 *369:282 0.000853774
52 *369:273 0.000628713
53 *369:258 0.0044067
54 *369:243 0.00581641
55 *369:234 0.00137804
56 *369:232 0.000709009
57 *369:219 0.000483774
58 *369:204 0.000619351
59 *369:202 0.000547775
60 *369:193 0.00107976
61 *369:187 0.000951302
62 *369:185 0.000478711
63 *369:181 0.000975092
64 *369:173 0.000749781
65 *369:171 0.000168598
66 *369:162 0.00105341
67 *369:158 0.000205893
68 *369:154 0.000899742
69 *369:128 0.00268635
70 *369:122 0.00207431
71 *369:112 0.000438309
72 *369:106 0.000393315
73 *369:100 0.000376087
74 *369:96 0.000221777
75 *369:92 0.000471218
76 *369:74 0.00107715
77 *369:61 0.000675998
78 *369:59 0.000296415
79 *369:43 0.000492866
80 *369:36 0.000501993
81 *369:14 0.00119831
82 *369:10 0.000695858
83 *369:8 0.00102143
84 *586:B *586:A 0.000932441
85 *586:C *586:A 0.000962928
86 *587:A *369:128 0
87 *587:A *369:154 0
88 *587:C *586:A 0.00029535
89 *589:A2 *590:A 0.000463758
90 *589:B1 *590:A 0.000506804
91 *590:C *590:A 0.000185828
92 *591:C *369:14 0.000759635
93 *593:B1 *369:10 0
94 *593:B1 *369:59 0
95 *594:B *728:A 5.52877e-05
96 *594:B *369:43 0.000874237
97 *594:C *728:A 0.000962928
98 *594:C *369:36 0.000895354
99 *594:C *369:43 0.0012839
100 *595:B *369:74 6.41184e-05
101 *597:A2 *617:A1 0.000947137
102 *597:A2 *369:59 0.000242739
103 *597:A2 *369:92 0.000602539
104 *599:B *598:A 0.000328888
105 *599:C *706:A1 0.000108425
106 *600:A *369:122 7.09466e-05
107 *600:B *369:154 0.00179292
108 *602:B *601:A1 0.000167179
109 *603:C *602:A 0.000895354
110 *617:B1 *617:A1 2.8989e-05
111 *629:A2 *629:A1 0.000267486
112 *629:A2 *740:A 0.000506804
113 *629:A2 *369:193 8.89286e-05
114 *629:A2 *369:202 0.000640809
115 *638:A2 *638:A1 0.000171035
116 *639:A *638:A1 6.66522e-05
117 *650:A2 *779:A1 5.79086e-05
118 *650:A2 *369:282 0.00109751
119 *650:B1 *369:273 0.000760142
120 *650:B2 *763:A1 0.000506804
121 *653:A2 *369:299 0.00044571
122 *654:A *369:295 0.000256341
123 *654:B *369:295 0.000158952
124 *654:B *369:299 0
125 *655:B *369:295 0.00167245
126 *668:B1 *668:A1 0.000506804
127 *669:B *369:181 0
128 *671:B1 *671:A1 0.000167179
129 *671:B2 *369:386 0.000373326
130 *674:A2 *369:128 6.24291e-05
131 *674:B2 *586:A 0.000861494
132 *676:B *586:A 0
133 *676:B *369:128 0
134 *676:C *586:A 0
135 *679:B *369:36 0.000189668
136 *679:B *369:43 3.99301e-05
137 *680:B1 *680:A1 0.000157096
138 *680:B2 *680:A1 0.000204013
139 *683:A2 *369:112 0.000139371
140 *692:B *692:A 0.000746514
141 *692:B *369:388 1.72006e-05
142 *692:B *369:390 7.9476e-05
143 *692:C *692:A 0.00114876
144 *695:B_N *369:10 0.000931934
145 *695:B_N *369:14 0.00196522
146 *706:A2 *706:A1 0.000743313
147 *710:B *369:386 7.09466e-05
148 *710:B *369:390 0.000506804
149 *728:B *728:A 0.00167245
150 *734:B *734:A 0.000701627
151 *740:B *740:A 0.000506804
152 *751:B1 *369:193 0.000592203
153 *753:A *369:181 7.01947e-05
154 *753:B *369:181 0.00110373
155 *753:B *369:187 0.000114799
156 *753:B *369:193 0.000132268
157 *753:C *369:181 0.000167179
158 *755:A1 *920:A 4.44643e-05
159 *762:A *369:219 0
160 *762:A *369:232 0.00031125
161 *763:B1 *920:A 0.000861494
162 *763:B1 *369:232 0.000415544
163 *764:C *369:243 0.000469404
164 *765:C *369:243 0.000104816
165 *779:A2 *779:A1 6.66522e-05
166 *779:B1 *369:273 0.000587843
167 *779:B1 *369:282 0.000116806
168 *781:B *369:273 4.44643e-05
169 *782:A *369:299 0.000895354
170 *783:B1 *369:303 0.00148663
171 *783:B1 *369:316 0.000763145
172 *803:B1 *369:171 0.00038855
173 *804:B *369:162 7.9476e-05
174 *804:B *369:171 0.000679861
175 *804:C *369:171 0.000760206
176 *805:B *807:A1 0.000563214
177 *807:B1 *807:A1 0.000167179
178 *809:CLK *617:A1 7.09466e-05
179 *809:D *734:A 9.93907e-05
180 *814:D *369:106 0.000930414
181 *814:D *369:112 0.00179191
182 *815:CLK *617:A1 0.000675029
183 *818:CLK *369:181 0.000242739
184 *818:CLK *369:386 0.000961398
185 *818:D *369:386 0.000196166
186 *825:CLK *920:A 0
187 *840:CLK *369:112 0.000242739
188 *840:CLK *369:122 0
189 *840:D *369:8 0.00042352
190 *846:D *369:128 0
191 *846:D *369:154 0
192 *848:CLK *590:A 0.000384512
193 *857:CLK *780:A 6.66522e-05
194 *857:CLK *369:258 0.00685177
195 *857:CLK *369:273 0.000128171
196 *860:CLK *920:A 0.00110474
197 *876:A *369:128 0.000167179
198 *887:A *734:A 0
199 *893:A *706:A1 0.000895354
200 *893:A *369:106 7.09466e-05
201 *898:A *597:A1 0.000132268
202 *898:A *369:74 0.000269528
203 *901:A *369:96 0.00147575
204 *901:A *369:100 0.000160408
205 *902:A *734:A 0.000895354
206 *908:A *369:112 0.00050068
207 *1:18 *668:A1 0.000728104
208 *1:18 *807:A1 0
209 *1:18 *369:122 0.000726857
210 *15:21 *617:A1 0.00110474
211 *33:27 *369:96 0.00163616
212 *33:27 *369:100 0.0013902
213 *75:12 *763:A1 0.000587843
214 *75:12 *369:202 0
215 *75:12 *369:204 0
216 *75:12 *369:219 0
217 *94:12 *920:A 0.00322665
218 *159:12 *369:386 0.000157096
219 *164:12 *369:158 0.0036152
220 *164:12 *369:162 0.00167245
221 *164:12 *369:171 0.000479247
222 *164:12 *369:173 0.000506804
223 *164:12 *369:181 0.00244955
224 *174:18 *602:A 0.00029535
225 *174:18 *706:A1 0.000178324
226 *184:22 *920:A 0.00207064
227 *184:22 *369:219 0.00110474
228 *184:22 *369:232 0.000633616
229 *216:12 *369:299 0.000506804
230 *216:12 *369:303 0.000430395
231 *243:20 *369:74 0.000506804
232 *246:20 *601:A1 0.000156589
233 *246:20 *369:106 0
234 *246:20 *369:112 0
235 *267:16 *369:295 0.00105722
236 *267:16 *369:299 6.66522e-05
237 *273:8 *369:202 0
238 *273:8 *369:204 0
239 *273:8 *369:219 0
240 *276:12 *369:193 0
241 *276:18 *369:193 0
242 *276:18 *369:202 0
243 *288:10 *369:122 0.000329395
244 *293:154 *601:A1 0
245 *293:154 *369:154 0
246 *296:24 *807:A1 0.000114799
247 *297:48 *780:A 0
248 *298:40 *920:A 0
249 *298:66 *920:A 0
250 *302:10 *734:A 0.000115084
251 *303:12 *734:A 0.00204044
252 *303:25 *369:316 0.000158952
253 *304:14 *369:295 9.73295e-05
254 *304:14 *369:299 0.0012839
255 *304:16 *369:282 8.72509e-05
256 *304:16 *369:295 5.73995e-05
257 *312:18 *369:122 0.000726857
258 *312:18 *369:193 0
259 *312:22 *369:181 0
260 *314:16 *602:A 0.000932441
261 *314:16 *668:A1 0.000128171
262 *314:16 *369:158 0.000715284
263 *314:16 *369:162 0.000103664
264 *317:22 *722:A 5.61886e-05
265 *317:22 *369:112 0.000456076
266 *317:22 *369:185 0.000400067
267 *317:22 *369:187 0.00029535
268 *318:24 *597:A1 0.000895354
269 *318:24 *617:A1 0.000110899
270 *318:24 *680:A1 0
271 *318:24 *734:A 7.9476e-05
272 *318:24 *369:74 0.0012839
273 *318:24 *369:92 0.000129339
274 *322:10 *920:A 0.00322665
275 *326:10 *680:A1 7.04018e-05
276 *326:27 *680:A1 0.0004514
277 *327:34 *680:A1 0.000587843
278 *327:40 *369:43 0.000139371
279 *328:12 *617:A1 0
280 *328:12 *734:A 0.000733007
281 *328:16 *369:10 0.000248477
282 *328:16 *369:14 0.00031125
283 *328:16 *369:59 0.000181781
284 *329:18 *617:A1 0.000211205
285 *329:18 *369:59 0.000105603
286 *329:18 *369:100 0.000304595
287 *331:69 *618:A 0.000310596
288 *331:107 *598:A 0.000134592
289 *331:538 *668:A1 0.000182216
290 *331:559 *668:A1 0.000760142
291 *331:559 *369:181 0
292 *331:559 *369:386 0
293 *331:585 *369:193 0
294 *331:743 *602:A 0.000380998
295 *331:743 *369:154 0
296 *331:766 *369:128 0.00111939
297 *331:766 *369:154 3.52009e-05
298 *333:26 *586:A 0.00018314
299 *333:34 *807:A1 0.00213853
300 *333:47 *807:A1 0.000344598
301 *338:10 *668:A1 7.09466e-05
302 *338:14 *668:A1 0.00144934
303 *342:10 *734:A 0.000103664
304 *347:12 *920:A 0
305 *348:18 *618:A 0.000760142
306 *348:26 *618:A 7.09466e-05
307 *363:12 *369:10 0.000587843
308 *363:12 *369:112 0.00322665
309 *366:14 *586:A 7.09466e-05
310 *367:8 *807:A1 0.000587843
*RES
1 *840:Q *369:8 15.3902 
2 *369:8 *369:10 3.34778 
3 *369:10 *369:14 8.55918 
4 *369:14 *590:A 13.966 
5 *369:14 *589:A1 9.3 
6 *369:10 *369:36 8.01516 
7 *369:36 *677:A1 9.3 
8 *369:36 *369:43 1.59019 
9 *369:43 *594:A 9.3 
10 *369:43 *728:A 13.3173 
11 *369:8 *369:59 2.63637 
12 *369:59 *369:61 4.5 
13 *369:61 *597:A1 10.409 
14 *369:61 *369:74 4.1638 
15 *369:74 *680:A1 23.782 
16 *369:74 *593:A1 9.3 
17 *369:59 *369:92 1.39142 
18 *369:92 *369:96 3.98697 
19 *369:96 *369:100 3.90024 
20 *369:100 *369:106 1.92497 
21 *369:106 *369:112 12.1999 
22 *369:112 *369:122 12.6637 
23 *369:122 *369:128 12.7125 
24 *369:128 *586:A 24.3888 
25 *369:128 *674:A1 9.80217 
26 *369:122 *369:154 4.59273 
27 *369:154 *369:158 8.97765 
28 *369:158 *369:162 2.5736 
29 *369:162 *803:A1 9.3 
30 *369:162 *369:171 4.01733 
31 *369:171 *369:173 0.627708 
32 *369:173 *369:181 12.2208 
33 *369:181 *369:185 5.60895 
34 *369:185 *369:187 2.07144 
35 *369:187 *369:193 10.6306 
36 *369:193 *752:A 13.8 
37 *369:193 *369:202 5.48198 
38 *369:202 *369:204 0.502166 
39 *369:204 *629:A1 16.0179 
40 *369:204 *369:219 3.26408 
41 *369:219 *638:A1 15.4111 
42 *369:219 *369:232 3.34778 
43 *369:232 *369:234 4.5 
44 *369:234 *764:A 9.3 
45 *369:234 *369:243 3.53609 
46 *369:243 *763:A1 20.1413 
47 *369:243 *369:258 9.77132 
48 *369:258 *780:A 9.80217 
49 *369:258 *369:273 11.197 
50 *369:273 *650:A1 9.3 
51 *369:273 *369:282 3.41055 
52 *369:282 *779:A1 9.80217 
53 *369:282 *369:295 5.83768 
54 *369:295 *369:299 5.46106 
55 *369:299 *369:303 3.53609 
56 *369:303 *618:A 19.8693 
57 *369:303 *369:316 2.55268 
58 *369:316 *734:A 26.5021 
59 *369:316 *783:A1 9.3 
60 *369:299 *784:A 9.3 
61 *369:295 *653:A1 9.3 
62 *369:232 *920:A 28.9696 
63 *369:202 *740:A 15.0554 
64 *369:187 *751:A1 9.3 
65 *369:185 *722:A 9.80217 
66 *369:181 *369:386 10.6097 
67 *369:386 *369:388 0.502166 
68 *369:388 *369:390 2.07144 
69 *369:390 *693:A1 9.3 
70 *369:390 *692:A 13.8195 
71 *369:388 *671:A1 11.8527 
72 *369:386 *710:A 9.3 
73 *369:173 *668:A1 24.8909 
74 *369:171 *804:A 9.3 
75 *369:162 *807:A1 25.0165 
76 *369:158 *602:A 21.3339 
77 *369:154 *601:A1 15.997 
78 *369:112 *683:A1 9.3 
79 *369:106 *716:A 13.8 
80 *369:100 *706:A1 15.8924 
81 *369:96 *598:A 17.89 
82 *369:92 *617:A1 20.5269 
*END
