*SPEF "ieee 1481-1999"
*DESIGN "spm"
*DATE "01:49:46 Friday July 24, 2026"
*VENDOR "The OpenROAD Project"
*PROGRAM "OpenROAD"
*VERSION "26Q3-155-g1bade74e72"
*DESIGN_FLOW "NAME_SCOPE LOCAL" "PIN_CAP NONE"
*DIVIDER /
*DELIMITER :
*BUS_DELIMITER []
*T_UNIT 1 NS
*C_UNIT 1 PF
*R_UNIT 1 OHM
*L_UNIT 1 HENRY

*NAME_MAP
*39 _000_
*40 _001_
*41 _002_
*42 _003_
*43 _004_
*44 _005_
*45 _006_
*46 _007_
*47 _008_
*48 _009_
*49 _010_
*50 _011_
*51 _012_
*52 _013_
*53 _014_
*54 _015_
*55 _016_
*56 _017_
*57 _018_
*58 _019_
*59 _020_
*60 _021_
*61 _022_
*62 _023_
*63 _024_
*64 _025_
*65 _026_
*66 _027_
*67 _028_
*68 _029_
*69 _030_
*70 _031_
*71 _032_
*72 _033_
*73 _034_
*74 _035_
*75 _036_
*76 _037_
*77 _038_
*78 _039_
*79 _040_
*80 _041_
*81 _042_
*82 _043_
*83 _044_
*84 _045_
*85 _046_
*86 _047_
*87 _048_
*88 _049_
*89 _050_
*90 _051_
*91 _052_
*92 _053_
*93 _054_
*94 _055_
*95 _056_
*96 _057_
*97 _058_
*98 _059_
*99 _060_
*100 _061_
*101 _062_
*102 _063_
*103 _064_
*104 _065_
*105 _066_
*106 _067_
*107 _068_
*108 _069_
*109 _070_
*110 _071_
*111 _072_
*112 _073_
*113 _074_
*114 _075_
*115 _076_
*116 _077_
*117 _078_
*118 _079_
*119 _080_
*120 _081_
*121 _082_
*122 _083_
*123 _084_
*124 _085_
*125 _086_
*126 _087_
*127 _088_
*128 _089_
*129 _090_
*130 _091_
*131 _092_
*132 _093_
*133 _094_
*134 _095_
*135 _096_
*136 _097_
*137 _098_
*138 _099_
*139 _100_
*140 _101_
*141 _102_
*142 _103_
*143 _104_
*144 _105_
*145 _106_
*146 _107_
*147 _108_
*148 _109_
*149 _110_
*150 _111_
*151 _112_
*152 _113_
*153 _114_
*154 _115_
*155 _116_
*156 _117_
*157 _118_
*158 _119_
*159 _120_
*160 _121_
*161 _122_
*162 _123_
*163 _124_
*164 _125_
*165 _126_
*166 _127_
*167 _128_
*168 _129_
*169 _130_
*170 _131_
*171 _132_
*172 _133_
*173 _134_
*174 _135_
*175 _136_
*176 _137_
*177 _138_
*178 _139_
*179 _140_
*180 _141_
*181 _142_
*182 _143_
*183 _144_
*184 _145_
*185 _146_
*186 _147_
*187 _148_
*188 _149_
*189 _150_
*190 _151_
*191 _152_
*192 _153_
*193 _154_
*194 _155_
*195 _156_
*196 _157_
*197 _158_
*198 _159_
*199 _160_
*200 _161_
*201 _162_
*202 _163_
*203 _164_
*204 _165_
*205 _166_
*206 _167_
*207 _168_
*208 _169_
*209 _170_
*210 _171_
*211 _172_
*212 _173_
*213 _174_
*214 _175_
*215 _176_
*216 _177_
*217 _178_
*218 _179_
*219 _180_
*220 _181_
*221 _182_
*222 _183_
*223 _184_
*224 _185_
*225 _186_
*226 _187_
*227 _188_
*228 _189_
*229 _190_
*230 _191_
*231 _192_
*232 _193_
*233 _194_
*234 _195_
*235 _196_
*236 _197_
*237 _198_
*238 _199_
*239 _200_
*240 _201_
*241 _202_
*242 _203_
*243 _204_
*244 _205_
*245 _206_
*246 _207_
*247 _208_
*248 _209_
*249 _210_
*250 _211_
*251 _212_
*252 _213_
*253 _214_
*254 _215_
*255 _216_
*256 _217_
*257 _218_
*258 _219_
*259 _220_
*260 _221_
*261 c[0]
*262 c[10]
*263 c[11]
*264 c[12]
*265 c[13]
*266 c[14]
*267 c[15]
*268 c[16]
*269 c[17]
*270 c[18]
*271 c[19]
*272 c[1]
*273 c[20]
*274 c[21]
*275 c[22]
*276 c[23]
*277 c[24]
*278 c[25]
*279 c[26]
*280 c[27]
*281 c[28]
*282 c[29]
*283 c[2]
*284 c[30]
*285 c[31]
*286 c[3]
*287 c[4]
*288 c[5]
*289 c[6]
*290 c[7]
*291 c[8]
*292 c[9]
*1 clk
*293 clknet_0_clk
*294 clknet_3_0__leaf_clk
*295 clknet_3_1__leaf_clk
*296 clknet_3_2__leaf_clk
*297 clknet_3_3__leaf_clk
*298 clknet_3_4__leaf_clk
*299 clknet_3_5__leaf_clk
*300 clknet_3_6__leaf_clk
*301 clknet_3_7__leaf_clk
*302 net10
*303 net11
*304 net12
*305 net13
*306 net14
*307 net15
*308 net16
*309 net17
*310 net18
*311 net19
*312 net20
*313 net21
*314 net22
*315 net23
*316 net24
*317 net25
*318 net26
*319 net27
*320 net28
*321 net29
*322 net3
*323 net30
*324 net31
*325 net32
*326 net33
*327 net34
*328 net35
*329 net36
*330 net37
*331 net4
*332 net5
*333 net6
*334 net7
*335 net8
*336 net9
*2 p_reg
*3 rst
*337 s[0]
*338 s[10]
*339 s[11]
*340 s[12]
*341 s[13]
*342 s[14]
*343 s[15]
*344 s[16]
*345 s[17]
*346 s[18]
*347 s[19]
*348 s[1]
*349 s[20]
*350 s[21]
*351 s[22]
*352 s[23]
*353 s[24]
*354 s[25]
*355 s[26]
*356 s[27]
*357 s[28]
*358 s[29]
*359 s[2]
*360 s[30]
*361 s[3]
*362 s[4]
*363 s[5]
*364 s[6]
*365 s[7]
*366 s[8]
*367 s[9]
*368 spare_tielo
*4 x[0]
*5 x[10]
*6 x[11]
*7 x[12]
*8 x[13]
*9 x[14]
*10 x[15]
*11 x[16]
*12 x[17]
*13 x[18]
*14 x[19]
*15 x[1]
*16 x[20]
*17 x[21]
*18 x[22]
*19 x[23]
*20 x[24]
*21 x[25]
*22 x[26]
*23 x[27]
*24 x[28]
*25 x[29]
*26 x[2]
*27 x[30]
*28 x[31]
*29 x[3]
*30 x[4]
*31 x[5]
*32 x[6]
*33 x[7]
*34 x[8]
*35 x[9]
*36 y
*369 y_rep[0]
*370 FILLER_0_121
*371 FILLER_0_126
*372 FILLER_0_13
*373 FILLER_0_31
*374 FILLER_0_42
*375 FILLER_0_61
*376 FILLER_10_117
*377 FILLER_10_134
*378 FILLER_10_16
*379 FILLER_10_27
*380 FILLER_10_31
*381 FILLER_10_35
*382 FILLER_10_60
*383 FILLER_11_0
*384 FILLER_11_134
*385 FILLER_11_97
*386 FILLER_12_0
*387 FILLER_12_112
*388 FILLER_12_35
*389 FILLER_12_56
*390 FILLER_12_62
*391 FILLER_12_91
*392 FILLER_13_0
*393 FILLER_13_128
*394 FILLER_13_15
*395 FILLER_13_67
*396 FILLER_13_73
*397 FILLER_13_84
*398 FILLER_13_98
*399 FILLER_14_111
*400 FILLER_14_28
*401 FILLER_14_51
*402 FILLER_14_68
*403 FILLER_14_74
*404 FILLER_14_81
*405 FILLER_14_89
*406 FILLER_14_91
*407 FILLER_14_97
*408 FILLER_15_0
*409 FILLER_15_109
*410 FILLER_15_19
*411 FILLER_15_26
*412 FILLER_15_33
*413 FILLER_15_51
*414 FILLER_15_55
*415 FILLER_15_61
*416 FILLER_15_7
*417 FILLER_15_70
*418 FILLER_15_84
*419 FILLER_16_110
*420 FILLER_16_16
*421 FILLER_16_23
*422 FILLER_16_35
*423 FILLER_16_45
*424 FILLER_16_55
*425 FILLER_16_72
*426 FILLER_16_84
*427 FILLER_16_91
*428 FILLER_16_99
*429 FILLER_17_16
*430 FILLER_17_28
*431 FILLER_17_36
*432 FILLER_17_48
*433 FILLER_17_54
*434 FILLER_17_61
*435 FILLER_18_0
*436 FILLER_18_100
*437 FILLER_18_27
*438 FILLER_18_72
*439 FILLER_18_78
*440 FILLER_18_8
*441 FILLER_19_134
*442 FILLER_19_16
*443 FILLER_19_37
*444 FILLER_19_45
*445 FILLER_19_53
*446 FILLER_19_57
*447 FILLER_19_61
*448 FILLER_19_67
*449 FILLER_1_135
*450 FILLER_1_19
*451 FILLER_1_46
*452 FILLER_1_59
*453 FILLER_1_61
*454 FILLER_1_79
*455 FILLER_20_113
*456 FILLER_20_23
*457 FILLER_20_31
*458 FILLER_20_44
*459 FILLER_20_70
*460 FILLER_20_87
*461 FILLER_21_0
*462 FILLER_21_131
*463 FILLER_21_31
*464 FILLER_21_40
*465 FILLER_21_58
*466 FILLER_21_6
*467 FILLER_21_61
*468 FILLER_21_65
*469 FILLER_21_70
*470 FILLER_21_76
*471 FILLER_21_81
*472 FILLER_21_89
*473 FILLER_21_91
*474 FILLER_21_95
*475 FILLER_2_0
*476 FILLER_2_11
*477 FILLER_2_66
*478 FILLER_3_0
*479 FILLER_3_100
*480 FILLER_3_118
*481 FILLER_3_12
*482 FILLER_3_121
*483 FILLER_3_47
*484 FILLER_3_57
*485 FILLER_3_61
*486 FILLER_3_67
*487 FILLER_3_72
*488 FILLER_4_102
*489 FILLER_4_125
*490 FILLER_4_16
*491 FILLER_4_28
*492 FILLER_4_31
*493 FILLER_4_48
*494 FILLER_4_79
*495 FILLER_4_91
*496 FILLER_5_100
*497 FILLER_5_118
*498 FILLER_5_121
*499 FILLER_5_134
*500 FILLER_5_16
*501 FILLER_5_59
*502 FILLER_5_69
*503 FILLER_5_81
*504 FILLER_6_107
*505 FILLER_6_13
*506 FILLER_6_31
*507 FILLER_6_51
*508 FILLER_6_77
*509 FILLER_7_0
*510 FILLER_7_118
*511 FILLER_7_12
*512 FILLER_7_121
*513 FILLER_7_132
*514 FILLER_7_18
*515 FILLER_7_41
*516 FILLER_7_45
*517 FILLER_7_53
*518 FILLER_7_57
*519 FILLER_7_61
*520 FILLER_7_76
*521 FILLER_8_0
*522 FILLER_8_13
*523 FILLER_8_17
*524 FILLER_8_28
*525 FILLER_8_37
*526 FILLER_8_47
*527 FILLER_8_54
*528 FILLER_8_69
*529 FILLER_8_78
*530 FILLER_8_82
*531 FILLER_8_91
*532 FILLER_9_0
*533 FILLER_9_119
*534 FILLER_9_22
*535 FILLER_9_43
*536 FILLER_9_58
*537 FILLER_9_77
*538 TAP_TAPCELL_ROW_0_0
*539 TAP_TAPCELL_ROW_0_1
*540 TAP_TAPCELL_ROW_0_2
*541 TAP_TAPCELL_ROW_0_3
*542 TAP_TAPCELL_ROW_10_22
*543 TAP_TAPCELL_ROW_10_23
*544 TAP_TAPCELL_ROW_11_24
*545 TAP_TAPCELL_ROW_11_25
*546 TAP_TAPCELL_ROW_12_26
*547 TAP_TAPCELL_ROW_12_27
*548 TAP_TAPCELL_ROW_13_28
*549 TAP_TAPCELL_ROW_13_29
*550 TAP_TAPCELL_ROW_14_30
*551 TAP_TAPCELL_ROW_14_31
*552 TAP_TAPCELL_ROW_15_32
*553 TAP_TAPCELL_ROW_15_33
*554 TAP_TAPCELL_ROW_16_34
*555 TAP_TAPCELL_ROW_16_35
*556 TAP_TAPCELL_ROW_17_36
*557 TAP_TAPCELL_ROW_17_37
*558 TAP_TAPCELL_ROW_18_38
*559 TAP_TAPCELL_ROW_18_39
*560 TAP_TAPCELL_ROW_19_40
*561 TAP_TAPCELL_ROW_19_41
*562 TAP_TAPCELL_ROW_1_4
*563 TAP_TAPCELL_ROW_1_5
*564 TAP_TAPCELL_ROW_20_42
*565 TAP_TAPCELL_ROW_20_43
*566 TAP_TAPCELL_ROW_21_44
*567 TAP_TAPCELL_ROW_21_45
*568 TAP_TAPCELL_ROW_21_46
*569 TAP_TAPCELL_ROW_21_47
*570 TAP_TAPCELL_ROW_2_6
*571 TAP_TAPCELL_ROW_2_7
*572 TAP_TAPCELL_ROW_3_8
*573 TAP_TAPCELL_ROW_3_9
*574 TAP_TAPCELL_ROW_4_10
*575 TAP_TAPCELL_ROW_4_11
*576 TAP_TAPCELL_ROW_5_12
*577 TAP_TAPCELL_ROW_5_13
*578 TAP_TAPCELL_ROW_6_14
*579 TAP_TAPCELL_ROW_6_15
*580 TAP_TAPCELL_ROW_7_16
*581 TAP_TAPCELL_ROW_7_17
*582 TAP_TAPCELL_ROW_8_18
*583 TAP_TAPCELL_ROW_8_19
*584 TAP_TAPCELL_ROW_9_20
*585 TAP_TAPCELL_ROW_9_21
*586 _222_
*587 _223_
*588 _224_
*589 _225_
*590 _226_
*591 _227_
*592 _228_
*593 _229_
*594 _230_
*595 _231_
*596 _232_
*597 _233_
*598 _234_
*599 _235_
*600 _236_
*601 _237_
*602 _238_
*603 _239_
*604 _240_
*605 _241_
*606 _242_
*607 _243_
*608 _244_
*609 _245_
*610 _246_
*611 _247_
*612 _248_
*613 _249_
*614 _250_
*615 _251_
*616 _252_
*617 _253_
*618 _254_
*619 _255_
*620 _256_
*621 _257_
*622 _258_
*623 _259_
*624 _260_
*625 _261_
*626 _262_
*627 _263_
*628 _264_
*629 _265_
*630 _266_
*631 _267_
*632 _268_
*633 _269_
*634 _270_
*635 _271_
*636 _272_
*637 _273_
*638 _274_
*639 _275_
*640 _276_
*641 _277_
*642 _278_
*643 _279_
*644 _280_
*645 _281_
*646 _282_
*647 _283_
*648 _284_
*649 _285_
*650 _286_
*651 _287_
*652 _288_
*653 _289_
*654 _290_
*655 _291_
*656 _292_
*657 _293_
*658 _294_
*659 _295_
*660 _296_
*661 _297_
*662 _298_
*663 _299_
*664 _300_
*665 _301_
*666 _302_
*667 _303_
*668 _304_
*669 _305_
*670 _306_
*671 _307_
*672 _308_
*673 _309_
*674 _310_
*675 _311_
*676 _312_
*677 _313_
*678 _314_
*679 _315_
*680 _316_
*681 _317_
*682 _318_
*683 _319_
*684 _320_
*685 _321_
*686 _322_
*687 _323_
*688 _324_
*689 _325_
*690 _326_
*691 _327_
*692 _328_
*693 _329_
*694 _330_
*695 _331_
*696 _332_
*697 _333_
*698 _334_
*699 _335_
*700 _336_
*701 _337_
*702 _338_
*703 _339_
*704 _340_
*705 _341_
*706 _342_
*707 _343_
*708 _344_
*709 _345_
*710 _346_
*711 _347_
*712 _348_
*713 _349_
*714 _350_
*715 _351_
*716 _352_
*717 _353_
*718 _354_
*719 _355_
*720 _356_
*721 _357_
*722 _358_
*723 _359_
*724 _360_
*725 _361_
*726 _362_
*727 _363_
*728 _364_
*729 _365_
*730 _366_
*731 _367_
*732 _368_
*733 _369_
*734 _370_
*735 _371_
*736 _372_
*737 _373_
*738 _374_
*739 _375_
*740 _376_
*741 _377_
*742 _378_
*743 _379_
*744 _380_
*745 _381_
*746 _382_
*747 _383_
*748 _384_
*749 _385_
*750 _386_
*751 _387_
*752 _388_
*753 _389_
*754 _390_
*755 _391_
*756 _392_
*757 _393_
*758 _394_
*759 _395_
*760 _396_
*761 _397_
*762 _398_
*763 _399_
*764 _400_
*765 _401_
*766 _402_
*767 _403_
*768 _404_
*769 _405_
*770 _406_
*771 _407_
*772 _408_
*773 _409_
*774 _410_
*775 _411_
*776 _412_
*777 _413_
*778 _414_
*779 _415_
*780 _416_
*781 _417_
*782 _418_
*783 _419_
*784 _420_
*785 _421_
*786 _422_
*787 _423_
*788 _424_
*789 _425_
*790 _426_
*791 _427_
*792 _428_
*793 _429_
*794 _430_
*795 _431_
*796 _432_
*797 _433_
*798 _434_
*799 _435_
*800 _436_
*801 _437_
*802 _438_
*803 _439_
*804 _440_
*805 _441_
*806 _442_
*807 _443_
*808 _444_
*809 _445_
*810 _446_
*811 _447_
*812 _448_
*813 _449_
*814 _450_
*815 _451_
*816 _452_
*817 _453_
*818 _454_
*819 _455_
*820 _456_
*821 _457_
*822 _458_
*823 _459_
*824 _460_
*825 _461_
*826 _462_
*827 _463_
*828 _464_
*829 _465_
*830 _466_
*831 _467_
*832 _468_
*833 _469_
*834 _470_
*835 _471_
*836 _472_
*837 _473_
*838 _474_
*839 _475_
*840 _476_
*841 _477_
*842 _478_
*843 _479_
*844 _480_
*845 _481_
*846 _482_
*847 _483_
*848 _484_
*849 _485_
*850 _486_
*851 _487_
*852 _488_
*853 _489_
*854 _490_
*855 _491_
*856 _492_
*857 _493_
*858 _494_
*859 _495_
*860 _496_
*861 _497_
*862 _498_
*863 _499_
*864 _500_
*865 _501_
*866 _502_
*867 _503_
*868 _504_
*869 _505_
*870 _506_
*871 _507_
*872 _508_
*873 clkbuf_0_clk
*874 clkbuf_3_0__f_clk
*875 clkbuf_3_1__f_clk
*876 clkbuf_3_2__f_clk
*877 clkbuf_3_3__f_clk
*878 clkbuf_3_4__f_clk
*879 clkbuf_3_5__f_clk
*880 clkbuf_3_6__f_clk
*881 clkbuf_3_7__f_clk
*882 clkload0
*883 clkload1
*884 clkload2
*885 clkload3
*886 input10
*887 input11
*888 input12
*889 input13
*890 input14
*891 input15
*892 input16
*893 input17
*894 input18
*895 input19
*896 input20
*897 input21
*898 input22
*899 input23
*900 input24
*901 input25
*902 input26
*903 input27
*904 input28
*905 input29
*906 input30
*907 input31
*908 input32
*909 input33
*910 input34
*911 input35
*912 input36
*913 input37
*914 input4
*915 input5
*916 input6
*917 input7
*918 input8
*919 input9
*920 place3
*921 spare_aoi_0
*922 spare_dff_0
*923 spare_inverter_0
*924 spare_mux2_0
*925 spare_nand2_0
*926 spare_nor2_0
*927 spare_tielo_drv

*PORTS
clk I
p O
rst I
x[0] I
x[10] I
x[11] I
x[12] I
x[13] I
x[14] I
x[15] I
x[16] I
x[17] I
x[18] I
x[19] I
x[1] I
x[20] I
x[21] I
x[22] I
x[23] I
x[24] I
x[25] I
x[26] I
x[27] I
x[28] I
x[29] I
x[2] I
x[30] I
x[31] I
x[3] I
x[4] I
x[5] I
x[6] I
x[7] I
x[8] I
x[9] I
y I

*D_NET *39 0.00551314
*CONN
*I *865:D I *D sky130_fd_sc_hd__dfxtp_1
*I *628:Y O *D sky130_fd_sc_hd__nor3_1
*CAP
1 *865:D 0.00250997
2 *628:Y 0.00250997
3 *865:D *637:A 0.000493199
*RES
1 *628:Y *865:D 24.7099 
*END

*D_NET *40 0.00195095
*CONN
*I *864:D I *D sky130_fd_sc_hd__dfxtp_1
*I *631:Y O *D sky130_fd_sc_hd__nor3_1
*CAP
1 *864:D 0.000456987
2 *631:Y 0.000456987
3 *864:D *631:B 0.00073522
4 *864:D *864:CLK 0
5 *864:D *331:589 0.000301757
*RES
1 *631:Y *864:D 30.6189 
*END

*D_NET *41 0.00124446
*CONN
*I *863:D I *D sky130_fd_sc_hd__dfxtp_1
*I *634:Y O *D sky130_fd_sc_hd__nor3_1
*CAP
1 *863:D 0.00042634
2 *634:Y 0.00042634
3 *863:D *634:A 0.000368505
4 *863:D *634:B 1.70004e-05
5 *863:D *634:C 6.27708e-06
*RES
1 *634:Y *863:D 29.5886 
*END

*D_NET *42 0.00196875
*CONN
*I *862:D I *D sky130_fd_sc_hd__dfxtp_1
*I *637:Y O *D sky130_fd_sc_hd__nor3_1
*CAP
1 *862:D 0.000450115
2 *637:Y 0.000450115
3 *862:D *637:B 0.00106852
4 *862:D *299:57 0
5 *862:D *299:59 0
*RES
1 *637:Y *862:D 30.7856 
*END

*D_NET *43 0.00514491
*CONN
*I *861:D I *D sky130_fd_sc_hd__dfxtp_1
*I *640:Y O *D sky130_fd_sc_hd__nor3_1
*CAP
1 *861:D 0.000167078
2 *640:Y 0.000167078
3 *861:D *631:B 6.80933e-05
4 *861:D *631:C 0.00106852
5 *861:D *639:B 0.000232318
6 *861:D *851:CLK 0.00204266
7 *861:D *74:14 0
8 *861:D *174:24 0.000417815
9 *861:D *331:678 0.000981344
*RES
1 *640:Y *861:D 33.1947 
*END

*D_NET *44 0.00140723
*CONN
*I *860:D I *D sky130_fd_sc_hd__dfxtp_1
*I *643:Y O *D sky130_fd_sc_hd__nor3_1
*CAP
1 *860:D 0.00033399
2 *643:Y 0.00033399
3 *860:D *691:A 0.000436598
4 *860:D *331:324 2.69018e-05
5 *860:D *347:12 0.000275747
*RES
1 *643:Y *860:D 29.8462 
*END

*D_NET *45 0.0037658
*CONN
*I *859:D I *D sky130_fd_sc_hd__dfxtp_1
*I *646:Y O *D sky130_fd_sc_hd__nor3_1
*CAP
1 *859:D 3.95998e-05
2 *646:Y 3.95998e-05
3 *859:D *646:B 0.00106852
4 *859:D *859:CLK 0.00128643
5 *859:D *305:36 0.000263131
6 *859:D *322:255 0.00106852
*RES
1 *646:Y *859:D 30.4371 
*END

*D_NET *46 0.0110013
*CONN
*I *858:D I *D sky130_fd_sc_hd__dfxtp_1
*I *649:Y O *D sky130_fd_sc_hd__nor3_1
*CAP
1 *858:D 0.000525593
2 *649:Y 0.000525593
3 *858:D *648:B 0
4 *858:D *649:C 0.000232318
5 *858:D *843:CLK 0.000493199
6 *858:D *269:10 0.00200567
7 *858:D *299:33 0.000901869
8 *858:D *299:45 0.00631705
*RES
1 *649:Y *858:D 35.3159 
*END

*D_NET *47 0.00137967
*CONN
*I *857:D I *D sky130_fd_sc_hd__dfxtp_1
*I *652:Y O *D sky130_fd_sc_hd__nor3_1
*CAP
1 *857:D 0.000518437
2 *652:Y 0.000518437
3 *857:D *652:C 0.000162691
4 *857:D *778:B 2.80384e-05
5 *857:D *857:CLK 0.00015207
6 *857:D *338:10 0
*RES
1 *652:Y *857:D 29.8462 
*END

*D_NET *48 0.00223273
*CONN
*I *856:D I *D sky130_fd_sc_hd__dfxtp_1
*I *655:Y O *D sky130_fd_sc_hd__nor3_1
*CAP
1 *856:D 0.000240929
2 *655:Y 0.000240929
3 *856:D *655:B 0.000734729
4 *856:D *852:CLK 6.86205e-05
5 *856:D *293:124 3.92117e-05
6 *856:D *300:18 0.000908307
7 *856:D *300:63 0
*RES
1 *655:Y *856:D 29.5735 
*END

*D_NET *49 0.000923158
*CONN
*I *855:D I *D sky130_fd_sc_hd__dfxtp_1
*I *658:Y O *D sky130_fd_sc_hd__nor3_1
*CAP
1 *855:D 0.000161559
2 *658:Y 0.000161559
3 *855:D *789:C 0.000300411
4 *855:D *266:12 0.000109895
5 *855:D *302:23 0.000189734
*RES
1 *658:Y *855:D 29.422 
*END

*D_NET *50 0.00294336
*CONN
*I *854:D I *D sky130_fd_sc_hd__dfxtp_1
*I *661:Y O *D sky130_fd_sc_hd__nor3_1
*CAP
1 *854:D 0.000342334
2 *661:Y 0.000342334
3 *854:D *661:A 0.000416624
4 *854:D *661:B 0.000986385
5 *854:D *326:10 0.00020428
6 *854:D *331:216 0.000651405
*RES
1 *661:Y *854:D 31.4826 
*END

*D_NET *51 0.0037958
*CONN
*I *853:D I *D sky130_fd_sc_hd__dfxtp_1
*I *664:Y O *D sky130_fd_sc_hd__nor3_1
*CAP
1 *853:D 0.000377826
2 *664:Y 0.000377826
3 *853:D *663:A 0.00106803
4 *853:D *664:B 0.00056759
5 *853:D *264:8 0.000162691
6 *853:D *301:14 0.000530189
7 *853:D *305:36 0.000711651
*RES
1 *664:Y *853:D 32.1795 
*END

*D_NET *52 0.00655275
*CONN
*I *852:D I *D sky130_fd_sc_hd__dfxtp_1
*I *667:Y O *D sky130_fd_sc_hd__nor3_1
*CAP
1 *852:D 0.000924967
2 *667:Y 0.000924967
3 *852:D *667:A 0.000211498
4 *852:D *667:C 0.000179943
5 *852:D *331:290 0.00431138
*RES
1 *667:Y *852:D 23.6341 
*END

*D_NET *53 0.00358266
*CONN
*I *851:D I *D sky130_fd_sc_hd__dfxtp_1
*I *670:Y O *D sky130_fd_sc_hd__nor3_1
*CAP
1 *851:D 0.000562802
2 *670:Y 0.000562802
3 *851:D *669:A 0.000493199
4 *851:D *669:B 0.000901869
5 *851:D *753:A 0.000412151
6 *851:D *174:24 0.000649841
7 *851:D *331:538 0
*RES
1 *670:Y *851:D 32.9977 
*END

*D_NET *54 0.00287604
*CONN
*I *850:D I *D sky130_fd_sc_hd__dfxtp_1
*I *673:Y O *D sky130_fd_sc_hd__nor3_1
*CAP
1 *850:D 0.000260792
2 *673:Y 0.000260792
3 *850:D *672:B 0
4 *850:D *673:B 0.00106803
5 *850:D *296:52 0.00128643
*RES
1 *673:Y *850:D 30.4371 
*END

*D_NET *55 0.0032297
*CONN
*I *849:D I *D sky130_fd_sc_hd__dfxtp_1
*I *676:Y O *D sky130_fd_sc_hd__nor3_1
*CAP
1 *849:D 0.000615312
2 *676:Y 0.000615312
3 *849:D *588:B 0.000430854
4 *849:D *291:18 0.000871318
5 *849:D *331:774 0.000436598
6 *849:D *331:780 0.000260306
*RES
1 *676:Y *849:D 30.7818 
*END

*D_NET *56 0.00294082
*CONN
*I *848:D I *D sky130_fd_sc_hd__dfxtp_1
*I *679:Y O *D sky130_fd_sc_hd__nor3_1
*CAP
1 *848:D 0.000327877
2 *679:Y 0.000327877
3 *848:D *679:B 0.00073522
4 *848:D *681:B 0.000300411
5 *848:D *290:8 0.00124944
*RES
1 *679:Y *848:D 30.6189 
*END

*D_NET *57 0.00461895
*CONN
*I *847:D I *D sky130_fd_sc_hd__dfxtp_1
*I *682:Y O *D sky130_fd_sc_hd__nor3_1
*CAP
1 *847:D 0.000117266
2 *682:Y 0.000117266
3 *847:D *728:B 0.00073522
4 *847:D *326:10 0.00073522
5 *16:25 *847:D 0.00204266
6 *35:23 *847:D 0.000871318
*RES
1 *682:Y *847:D 30.6189 
*END

*D_NET *58 0.00444811
*CONN
*I *846:D I *D sky130_fd_sc_hd__dfxtp_1
*I *685:Y O *D sky130_fd_sc_hd__nor3_1
*CAP
1 *846:D 0.000270472
2 *685:Y 0.000270472
3 *846:D *587:A 0.000572784
4 *846:D *684:B 5.58584e-05
5 *846:D *685:C 0.00112078
6 *846:D *722:B 0.00200567
7 *846:D *296:16 0.00015207
8 *846:D *369:128 0
9 *846:D *369:154 0
*RES
1 *685:Y *846:D 31.7553 
*END

*D_NET *59 0.00321118
*CONN
*I *845:D I *D sky130_fd_sc_hd__dfxtp_1
*I *688:Y O *D sky130_fd_sc_hd__nor3_1
*CAP
1 *845:D 0.00107372
2 *688:Y 0.00107372
3 *845:D *688:B 7.7342e-05
4 *845:D *688:C 0.00011508
5 *845:D *287:10 0.000871318
*RES
1 *688:Y *845:D 23.6341 
*END

*D_NET *60 0.00401691
*CONN
*I *844:D I *D sky130_fd_sc_hd__dfxtp_1
*I *691:Y O *D sky130_fd_sc_hd__nor3_1
*CAP
1 *844:D 0.00112574
2 *691:Y 0.00112574
3 *844:D *689:B1 0.000100881
4 *844:D *844:CLK 0.00166455
*RES
1 *691:Y *844:D 23.6341 
*END

*D_NET *61 0.00379011
*CONN
*I *839:D I *D sky130_fd_sc_hd__dfxtp_1
*I *694:Y O *D sky130_fd_sc_hd__nor3_1
*CAP
1 *839:D 0.000690556
2 *694:Y 0.000690556
3 *839:D *694:B 0
4 *839:D *838:D 0.00128643
5 *839:D *360:12 0.00112257
*RES
1 *694:Y *839:D 33.5735 
*END

*D_NET *62 0.010799
*CONN
*I *840:D I *D sky130_fd_sc_hd__dfxtp_4
*I *695:Y O *D sky130_fd_sc_hd__nor2b_1
*CAP
1 *840:D 0.00154751
2 *695:Y 0.00154751
3 *840:D *722:B 0.000536881
4 *840:D *331:107 0.00637347
5 *840:D *331:116 0.00030416
6 *840:D *363:12 7.7342e-05
7 *840:D *369:8 0.000412151
*RES
1 *695:Y *840:D 27.1 
*END

*D_NET *63 0.00572324
*CONN
*I *808:D I *D sky130_fd_sc_hd__dfxtp_1
*I *701:Y O *D sky130_fd_sc_hd__nor2_1
*CAP
1 *808:D 0.000231156
2 *701:Y 0.000231156
3 *808:D *324:18 0.000581049
4 *891:A *808:D 0.000368505
5 *917:A *808:D 0.00431138
*RES
1 *701:Y *808:D 32.9674 
*END

*D_NET *64 0.00416172
*CONN
*I *872:D I *D sky130_fd_sc_hd__dfxtp_1
*I *702:Y O *D sky130_fd_sc_hd__nor2b_1
*CAP
1 *872:D 0.000336208
2 *702:Y 0.000336208
3 *872:D *620:B1 0
4 *872:D *620:C1 0.00242078
5 *872:D *702:A 0.00106852
*RES
1 *702:Y *872:D 31.4826 
*END

*D_NET *65 0.00108266
*CONN
*I *843:D I *D sky130_fd_sc_hd__dfxtp_1
*I *705:Y O *D sky130_fd_sc_hd__nor3_1
*CAP
1 *843:D 0.000409764
2 *705:Y 0.000409764
3 *843:D *269:21 0
4 *843:D *283:10 0
5 *843:D *310:32 0.000263131
*RES
1 *705:Y *843:D 30.4371 
*END

*D_NET *66 0.00590149
*CONN
*I *842:D I *D sky130_fd_sc_hd__dfxtp_1
*I *708:Y O *D sky130_fd_sc_hd__nor3_1
*CAP
1 *842:D 0.000174343
2 *708:Y 0.000174343
3 *842:D *708:B 0.00073522
4 *842:D *708:C 0.00187826
5 *842:D *297:14 0.00112203
6 *842:D *297:18 0.00162756
7 *842:D *309:18 0.000189734
*RES
1 *708:Y *842:D 31.1644 
*END

*D_NET *67 0.00210216
*CONN
*I *841:D I *D sky130_fd_sc_hd__dfxtp_1
*I *709:Y O *D sky130_fd_sc_hd__a211oi_1
*CAP
1 *841:D 0.00011874
2 *709:Y 0.00011874
3 *841:D *709:A1 0.000871318
4 *841:D *709:A2 0.000993368
*RES
1 *709:Y *841:D 19.9826 
*END

*D_NET *68 0.0103441
*CONN
*I *838:D I *D sky130_fd_sc_hd__dfxtp_1
*I *715:Y O *D sky130_fd_sc_hd__nor2_1
*CAP
1 *838:D 0.00236096
2 *715:Y 0.00236096
3 *838:D *620:A1 0
4 *838:D *715:B 0
5 *838:D *838:CLK 0.00355514
6 *838:D *839:CLK 0.000287421
7 *838:D *360:12 0.000493199
8 *839:D *838:D 0.00128643
*RES
1 *715:Y *838:D 39.0583 
*END

*D_NET *69 0.00544436
*CONN
*I *837:D I *D sky130_fd_sc_hd__dfxtp_1
*I *721:Y O *D sky130_fd_sc_hd__nor2_1
*CAP
1 *837:D 0.00143117
2 *721:Y 0.00143117
3 *837:D *622:C1 0
4 *837:D *721:B 0.00189453
5 *837:D *726:B 0
6 *837:D *837:CLK 0.000263131
7 *837:D *838:CLK 0
8 *837:D *331:601 0
9 *837:D *357:6 0.000424353
*RES
1 *721:Y *837:D 37.0735 
*END

*D_NET *70 0.00047257
*CONN
*I *836:D I *D sky130_fd_sc_hd__dfxtp_1
*I *727:Y O *D sky130_fd_sc_hd__nor2_1
*CAP
1 *836:D 0.000141418
2 *727:Y 0.000141418
3 *836:D *294:74 0.000189734
4 *836:D *331:601 0
*RES
1 *727:Y *836:D 28.8765 
*END

*D_NET *71 0.0013884
*CONN
*I *835:D I *D sky130_fd_sc_hd__dfxtp_1
*I *733:Y O *D sky130_fd_sc_hd__nor2_1
*CAP
1 *835:D 0.000680748
2 *733:Y 0.000680748
3 *835:D *733:B 2.69018e-05
4 *835:D *295:90 0
*RES
1 *733:Y *835:D 30.4333 
*END

*D_NET *72 0.00531621
*CONN
*I *834:D I *D sky130_fd_sc_hd__dfxtp_1
*I *739:Y O *D sky130_fd_sc_hd__nor2_1
*CAP
1 *834:D 0.00118718
2 *739:Y 0.00118718
3 *834:D *739:B 0.000369003
4 *834:D *867:D 0
5 *834:D *298:16 0.00128643
6 *834:D *354:12 0.00128643
*RES
1 *739:Y *834:D 33.1341 
*END

*D_NET *73 0.000784191
*CONN
*I *833:D I *D sky130_fd_sc_hd__dfxtp_1
*I *745:Y O *D sky130_fd_sc_hd__nor2_1
*CAP
1 *833:D 0.000392096
2 *745:Y 0.000392096
3 *833:D *863:CLK 0
*RES
1 *745:Y *833:D 29.5735 
*END

*D_NET *74 0.0124495
*CONN
*I *832:D I *D sky130_fd_sc_hd__dfxtp_1
*I *749:Y O *D sky130_fd_sc_hd__nor3_1
*CAP
1 *832:D 0
2 *749:Y 0.00193862
3 *74:14 0.00193862
4 *74:14 *631:B 0
5 *74:14 *639:B 0
6 *74:14 *747:A2 0.00140182
7 *74:14 *749:B 0.000135986
8 *74:14 *755:A1 0.00040192
9 *74:14 *765:C 0.000640878
10 *74:14 *825:D 0
11 *74:14 *828:D 0
12 *74:14 *832:CLK 0.00123517
13 *74:14 *77:14 0
14 *74:14 *164:14 5.01631e-05
15 *74:14 *279:16 0
16 *74:14 *293:42 0.00104724
17 *74:14 *293:52 0.00107516
18 *74:14 *293:86 0.00238326
19 *74:14 *313:18 0.000162691
20 *74:14 *313:24 3.79613e-05
21 *74:14 *331:407 0
22 *861:D *74:14 0
*RES
1 *749:Y *74:14 42.1826 
2 *74:14 *832:D 9.3 
*END

*D_NET *75 0.0317394
*CONN
*I *831:D I *D sky130_fd_sc_hd__dfxtp_1
*I *753:Y O *D sky130_fd_sc_hd__nor3_2
*CAP
1 *831:D 0
2 *753:Y 0.0044671
3 *75:14 0.0044671
4 *75:14 *625:B1 0.00393326
5 *75:14 *629:A2 0.00223507
6 *75:14 *763:A1 0.00056857
7 *75:14 *763:A2 0.000176241
8 *75:14 *819:CLK 0.00156798
9 *75:14 *819:D 0
10 *75:14 *828:D 0.00305783
11 *75:14 *867:D 0.00267971
12 *75:14 *164:14 0.00162756
13 *75:14 *184:24 0.000129019
14 *75:14 *300:31 0.000493199
15 *75:14 *309:33 0.000136187
16 *75:14 *344:14 0.00240172
17 *75:14 *347:12 0.00056808
18 *75:14 *351:18 0.00323082
19 *75:14 *369:202 0
20 *75:14 *369:204 0
21 *75:14 *369:219 0
*RES
1 *753:Y *75:14 47.1371 
2 *75:14 *831:D 9.3 
*END

*D_NET *76 0.0105444
*CONN
*I *830:D I *D sky130_fd_sc_hd__dfxtp_1
*I *757:Y O *D sky130_fd_sc_hd__nor3_1
*CAP
1 *830:D 0.00224901
2 *757:Y 0.00224901
3 *830:D *635:B1 0.000232741
4 *830:D *635:B2 0.000493199
5 *830:D *757:C 0.000162691
6 *830:D *759:B1 0.000900889
7 *830:D *761:B 0.000272173
8 *830:D *879:A 0.000474516
9 *830:D *189:10 0
10 *830:D *198:10 0.00133271
11 *830:D *293:86 0.000311825
12 *830:D *322:84 0.000300411
13 *830:D *322:99 0.00056857
14 *830:D *322:156 0.00073522
15 *830:D *350:28 0.000261395
*RES
1 *757:Y *830:D 43.2099 
*END

*D_NET *77 0.018548
*CONN
*I *829:D I *D sky130_fd_sc_hd__dfxtp_1
*I *761:Y O *D sky130_fd_sc_hd__nor3_1
*CAP
1 *829:D 0
2 *761:Y 0.00181309
3 *77:14 0.00181309
4 *77:14 *624:B1 0.000300411
5 *77:14 *625:B1 0.000258038
6 *77:14 *625:C1 0.00273453
7 *77:14 *747:B1 0.000901869
8 *77:14 *755:A1 0
9 *77:14 *755:A2 0.000476653
10 *77:14 *757:C 6.80933e-05
11 *77:14 *759:A2 0.00156651
12 *77:14 *761:B 0.000194357
13 *77:14 *761:C 0.000777064
14 *77:14 *867:CLK 0.00125372
15 *77:14 *867:D 0
16 *77:14 *189:10 0.00140182
17 *77:14 *293:42 0.000967644
18 *77:14 *293:52 0.000129019
19 *77:14 *293:86 0
20 *77:14 *295:25 0.00116655
21 *77:14 *295:27 0.000901869
22 *77:14 *295:72 2.24648e-05
23 *77:14 *299:10 0.000275747
24 *77:14 *299:33 0
25 *77:14 *322:99 0
26 *77:14 *331:355 0.000504691
27 *77:14 *331:407 0.0010208
28 *77:14 *345:18 0
29 *74:14 *77:14 0
*RES
1 *761:Y *77:14 45.1068 
2 *77:14 *829:D 9.3 
*END

*D_NET *78 0.00708878
*CONN
*I *828:D I *D sky130_fd_sc_hd__dfxtp_1
*I *765:Y O *D sky130_fd_sc_hd__nor3_1
*CAP
1 *828:D 0.000978199
2 *765:Y 0.000978199
3 *828:D *739:A 5.58584e-05
4 *828:D *765:B 0.000871318
5 *828:D *825:D 0
6 *828:D *279:16 0.00114737
7 *74:14 *828:D 0
8 *75:14 *828:D 0.00305783
*RES
1 *765:Y *828:D 33.2212 
*END

*D_NET *79 0.00240449
*CONN
*I *827:D I *D sky130_fd_sc_hd__dfxtp_1
*I *769:Y O *D sky130_fd_sc_hd__nor3_1
*CAP
1 *827:D 0.000161356
2 *769:Y 0.000161356
3 *827:D *615:A 8.60128e-05
4 *827:D *768:B 0.000128893
5 *827:D *768:C 0.000900889
6 *827:D *769:B 0.000435797
7 *827:D *827:CLK 0.000530189
*RES
1 *769:Y *827:D 30.2553 
*END

*D_NET *80 0.0261938
*CONN
*I *826:D I *D sky130_fd_sc_hd__dfxtp_1
*I *773:Y O *D sky130_fd_sc_hd__nor3_1
*CAP
1 *826:D 0.00695571
2 *773:Y 0.00695571
3 *826:D *768:A 0.000335887
4 *826:D *768:C 0.000400537
5 *826:D *769:B 0.000100881
6 *826:D *769:C 0.000480792
7 *826:D *770:A 7.7342e-05
8 *826:D *770:B 0.000162691
9 *826:D *772:B 0.000871318
10 *826:D *772:C 2.67149e-05
11 *826:D *773:B 0.00354527
12 *826:D *811:CLK 0.00506762
13 *826:D *811:D 0.00015207
14 *826:D *207:8 0.000162691
15 *826:D *322:229 7.62217e-05
16 *826:D *331:298 0.000184576
17 *826:D *346:18 0.000536881
18 *826:D *359:10 0.000100881
*RES
1 *773:Y *826:D 42.2705 
*END

*D_NET *81 0.00867265
*CONN
*I *825:D I *D sky130_fd_sc_hd__dfxtp_1
*I *777:Y O *D sky130_fd_sc_hd__nor3_1
*CAP
1 *825:D 0.0011194
2 *777:Y 0.0011194
3 *825:D *689:B2 0.000164225
4 *825:D *691:B 0
5 *825:D *755:A1 0
6 *825:D *765:B 3.11049e-05
7 *825:D *777:B 0.00023527
8 *825:D *777:C 0.00056857
9 *825:D *825:CLK 0.00155389
10 *825:D *844:CLK 0
11 *825:D *252:12 0
12 *825:D *279:16 0.000318627
13 *825:D *286:10 4.30064e-05
14 *825:D *293:86 0
15 *825:D *298:40 0.000999899
16 *825:D *298:66 0.0013332
17 *825:D *322:76 0.000189734
18 *825:D *322:135 0.000111311
19 *825:D *361:23 0.000885012
20 *828:D *825:D 0
21 *74:14 *825:D 0
*RES
1 *777:Y *825:D 40.9826 
*END

*D_NET *82 0.00264483
*CONN
*I *824:D I *D sky130_fd_sc_hd__dfxtp_1
*I *781:Y O *D sky130_fd_sc_hd__nor3_1
*CAP
1 *824:D 9.99052e-05
2 *781:Y 9.99052e-05
3 *824:D *781:B 0.00020428
4 *824:D *781:C 0.00056857
5 *824:D *297:48 0.000853627
6 *824:D *331:79 0.000818545
*RES
1 *781:Y *824:D 29.9788 
*END

*D_NET *83 0.00385508
*CONN
*I *823:D I *D sky130_fd_sc_hd__dfxtp_1
*I *785:Y O *D sky130_fd_sc_hd__nor3_1
*CAP
1 *823:D 0.000692372
2 *785:Y 0.000692372
3 *823:D *331:65 0.00123517
4 *823:D *348:18 0.00123517
*RES
1 *785:Y *823:D 32.0886 
*END

*D_NET *84 0.00568921
*CONN
*I *822:D I *D sky130_fd_sc_hd__dfxtp_1
*I *789:Y O *D sky130_fd_sc_hd__nor3_1
*CAP
1 *822:D 0.000256416
2 *789:Y 0.000256416
3 *822:D *789:B 0.00190177
4 *822:D *789:C 0.000845158
5 *822:D *822:CLK 0
6 *822:D *222:18 0.000908307
7 *822:D *326:10 0.000612839
8 *918:A *822:D 0.000908307
*RES
1 *789:Y *822:D 33.6947 
*END

*D_NET *85 0.0163754
*CONN
*I *821:D I *D sky130_fd_sc_hd__dfxtp_1
*I *793:Y O *D sky130_fd_sc_hd__nor3_1
*CAP
1 *821:D 0.00578752
2 *793:Y 0.00578752
3 *821:D *644:A2 0
4 *821:D *662:A2 0.00139507
5 *821:D *791:B1 0.000414367
6 *821:D *821:CLK 0.000526259
7 *821:D *881:A 0.000439266
8 *821:D *293:177 0.000135576
9 *821:D *301:14 0.000765017
10 *821:D *310:32 0.000151455
11 *821:D *322:422 0.00073522
12 *821:D *331:261 0.000238126
*RES
1 *793:Y *821:D 40.9068 
*END

*D_NET *86 0.00336191
*CONN
*I *820:D I *D sky130_fd_sc_hd__dfxtp_1
*I *797:Y O *D sky130_fd_sc_hd__nor3_1
*CAP
1 *820:D 0.000669865
2 *797:Y 0.000669865
3 *820:D *797:B 0.00073522
4 *820:D *797:C 0.000733749
5 *820:D *348:18 0.000553212
*RES
1 *797:Y *820:D 32.0129 
*END

*D_NET *87 0.00755982
*CONN
*I *819:D I *D sky130_fd_sc_hd__dfxtp_1
*I *801:Y O *D sky130_fd_sc_hd__nor3_1
*CAP
1 *819:D 0.00241642
2 *801:Y 0.00241642
3 *819:D *650:B2 0.00166455
4 *819:D *652:B 0
5 *819:D *687:A 0.000232026
6 *819:D *687:B 0.000536881
7 *819:D *801:C 3.79613e-05
8 *819:D *812:D 0.000255565
9 *819:D *287:10 0
10 *819:D *293:23 0
11 *819:D *362:10 0
12 *1:18 *819:D 0
13 *75:14 *819:D 0
*RES
1 *801:Y *819:D 41.1947 
*END

*D_NET *88 0.0017651
*CONN
*I *818:D I *D sky130_fd_sc_hd__dfxtp_1
*I *805:Y O *D sky130_fd_sc_hd__nor3_1
*CAP
1 *818:D 0.000183326
2 *805:Y 0.000183326
3 *818:D *722:B 0.000908307
4 *818:D *331:559 0.000300411
5 *818:D *369:386 0.000189734
*RES
1 *805:Y *818:D 29.5735 
*END

*D_NET *89 0.00404581
*CONN
*I *817:D I *D sky130_fd_sc_hd__dfxtp_1
*I *587:Y O *D sky130_fd_sc_hd__nor3_1
*CAP
1 *817:D 0.000191185
2 *587:Y 0.000191185
3 *817:D *586:B 6.80933e-05
4 *817:D *586:C 0.00056857
5 *817:D *672:A 0.00127901
6 *817:D *849:CLK 0.000263131
7 *817:D *331:780 0.00024946
8 *817:D *333:32 0.00123517
9 *817:D *366:14 0
*RES
1 *587:Y *817:D 32.4977 
*END

*D_NET *90 0.00081337
*CONN
*I *816:D I *D sky130_fd_sc_hd__dfxtp_1
*I *591:Y O *D sky130_fd_sc_hd__nor3_1
*CAP
1 *816:D 0.00029634
2 *591:Y 0.00029634
3 *816:D *588:A 0
4 *816:D *591:B 0
5 *816:D *710:B 0
6 *816:D *816:CLK 6.86205e-05
7 *816:D *237:8 0.00015207
8 *816:D *291:10 0
*RES
1 *591:Y *816:D 29.3917 
*END

*D_NET *91 0.010733
*CONN
*I *815:D I *D sky130_fd_sc_hd__dfxtp_1
*I *595:Y O *D sky130_fd_sc_hd__nor3_1
*CAP
1 *815:D 0.000231173
2 *595:Y 0.000231173
3 *815:D *681:A 0.00106852
4 *815:D *174:18 0.00383352
5 *815:D *289:12 0.00106803
6 *815:D *327:34 0.00128643
7 *815:D *364:8 0.00162756
8 *898:A *815:D 0.001318
9 *33:27 *815:D 6.86205e-05
*RES
1 *595:Y *815:D 34.0735 
*END

*D_NET *92 0.00508783
*CONN
*I *814:D I *D sky130_fd_sc_hd__dfxtp_1
*I *599:Y O *D sky130_fd_sc_hd__nor3_1
*CAP
1 *814:D 0.000532929
2 *599:Y 0.000532929
3 *814:D *840:CLK 0.000408159
4 *814:D *328:16 0
5 *814:D *331:107 0.000980743
6 *814:D *369:106 0.000899909
7 *814:D *369:112 0.00173316
*RES
1 *599:Y *814:D 34.3008 
*END

*D_NET *93 0.00174793
*CONN
*I *813:D I *D sky130_fd_sc_hd__dfxtp_1
*I *603:Y O *D sky130_fd_sc_hd__nor3_1
*CAP
1 *813:D 2.98208e-05
2 *603:Y 2.98208e-05
3 *813:D *813:CLK 0.00015207
4 *813:D *314:20 0.00106852
5 *813:D *331:732 0.000436598
6 *813:D *362:10 3.11049e-05
*RES
1 *603:Y *813:D 29.3917 
*END

*D_NET *94 0.0157261
*CONN
*I *812:D I *D sky130_fd_sc_hd__dfxtp_1
*I *607:Y O *D sky130_fd_sc_hd__nor3_1
*CAP
1 *812:D 0.00297132
2 *607:Y 0.00297132
3 *812:D *686:B1 0
4 *812:D *686:B2 0
5 *812:D *689:A2 0.00013563
6 *812:D *689:B2 0.000871318
7 *812:D *755:A1 0.00012741
8 *812:D *920:A 0.00314003
9 *812:D *184:24 0.00358643
10 *812:D *249:10 0
11 *812:D *271:12 0
12 *812:D *322:10 0.000680688
13 *812:D *322:49 0.000493199
14 *812:D *361:8 0.000493199
15 *819:D *812:D 0.000255565
*RES
1 *607:Y *812:D 43.8311 
*END

*D_NET *95 0.000771269
*CONN
*I *811:D I *D sky130_fd_sc_hd__dfxtp_1
*I *611:Y O *D sky130_fd_sc_hd__nor3_1
*CAP
1 *811:D 6.5017e-05
2 *611:Y 6.5017e-05
3 *811:D *305:53 0.000189355
4 *811:D *331:449 0.000299811
5 *826:D *811:D 0.00015207
*RES
1 *611:Y *811:D 28.8765 
*END

*D_NET *96 0.00720048
*CONN
*I *810:D I *D sky130_fd_sc_hd__dfxtp_1
*I *615:Y O *D sky130_fd_sc_hd__nor3_1
*CAP
1 *810:D 0.00169918
2 *615:Y 0.00169918
3 *810:D *615:C 2.35389e-05
4 *810:D *644:A2 0.00202973
5 *810:D *645:A 0.000154684
6 *810:D *645:B 0.00124944
7 *810:D *821:CLK 0.000192645
8 *810:D *301:35 0.00015207
9 *810:D *322:242 0
10 *810:D *346:10 0
*RES
1 *615:Y *810:D 36.4068 
*END

*D_NET *97 0.00360617
*CONN
*I *809:D I *D sky130_fd_sc_hd__dfxtp_1
*I *619:Y O *D sky130_fd_sc_hd__nor3_1
*CAP
1 *809:D 0.00088244
2 *619:Y 0.00088244
3 *809:D *617:B1 0.000493199
4 *809:D *619:A 2.35389e-05
5 *809:D *734:A 9.61317e-05
6 *809:D *809:CLK 0.000493199
7 *809:D *302:10 0.00073522
8 *809:D *328:16 0
*RES
1 *619:Y *809:D 30.922 
*END

*D_NET *98 0.00814675
*CONN
*I *871:D I *D sky130_fd_sc_hd__dfxtp_1
*I *620:Y O *D sky130_fd_sc_hd__a211oi_1
*CAP
1 *871:D 0.000860347
2 *620:Y 0.000860347
3 *871:D *620:A1 6.80933e-05
4 *871:D *620:B1 0.000146728
5 *871:D *711:B 0.00073522
6 *871:D *712:A 8.67686e-05
7 *871:D *714:B 0.00238379
8 *871:D *284:21 0.00124944
9 *871:D *294:53 0.000554285
10 *871:D *294:57 0.000245898
11 *871:D *360:12 6.07149e-05
12 *871:D *360:18 0.000895119
*RES
1 *620:Y *871:D 35.5735 
*END

*D_NET *99 0.00276247
*CONN
*I *870:D I *D sky130_fd_sc_hd__dfxtp_1
*I *621:Y O *D sky130_fd_sc_hd__a211oi_1
*CAP
1 *870:D 0.000756251
2 *621:Y 0.000756251
3 *870:D *174:24 0.000581049
4 *870:D *282:10 0.000300411
5 *870:D *293:52 0
6 *870:D *331:644 0.000368505
*RES
1 *621:Y *870:D 32.6189 
*END

*D_NET *100 0.00563589
*CONN
*I *869:D I *D sky130_fd_sc_hd__dfxtp_1
*I *622:Y O *D sky130_fd_sc_hd__a211oi_1
*CAP
1 *869:D 0.000381693
2 *622:Y 0.000381693
3 *869:D *622:A2 0
4 *869:D *622:B1 0.00117173
5 *869:D *726:B 0.000901869
6 *869:D *294:70 0.0027989
*RES
1 *622:Y *869:D 31.5735 
*END

*D_NET *101 0.00678322
*CONN
*I *868:D I *D sky130_fd_sc_hd__dfxtp_1
*I *623:Y O *D sky130_fd_sc_hd__a211oi_1
*CAP
1 *868:D 0.000671489
2 *623:Y 0.000671489
3 *868:D *623:A2 0.00024946
4 *868:D *623:B1 0.00257424
5 *868:D *733:A 0.00200567
6 *868:D *174:24 0
7 *868:D *280:12 0
8 *868:D *295:90 0.000232741
9 *868:D *331:646 0.000378119
10 *868:D *356:14 0
*RES
1 *623:Y *868:D 34.0886 
*END

*D_NET *102 0.00948669
*CONN
*I *867:D I *D sky130_fd_sc_hd__dfxtp_1
*I *624:Y O *D sky130_fd_sc_hd__a211oi_1
*CAP
1 *867:D 0.000575779
2 *624:Y 0.000575779
3 *867:D *624:A1 0.000544746
4 *867:D *624:A2 0
5 *867:D *624:B1 0.000300411
6 *867:D *738:B 0.00240172
7 *867:D *867:CLK 0.00212503
8 *867:D *179:16 3.40466e-05
9 *867:D *351:18 0.00024946
10 *834:D *867:D 0
11 *75:14 *867:D 0.00267971
12 *77:14 *867:D 0
*RES
1 *624:Y *867:D 38.1606 
*END

*D_NET *103 0.0110695
*CONN
*I *866:D I *D sky130_fd_sc_hd__dfxtp_1
*I *625:Y O *D sky130_fd_sc_hd__a211oi_1
*CAP
1 *866:D 0.00275458
2 *625:Y 0.00275458
3 *866:D *625:C1 0.00011508
4 *866:D *632:A2 0.00185771
5 *866:D *632:B1 0.000604755
6 *866:D *633:A 0.00106852
7 *866:D *634:B 0.000871318
8 *866:D *744:A 0.000161409
9 *866:D *831:CLK 0.000436598
10 *866:D *184:24 8.67686e-05
11 *866:D *278:14 0.000332907
12 *866:D *298:70 0
13 *866:D *351:18 2.52979e-05
*RES
1 *625:Y *866:D 42.4674 
*END

*D_NET *104 0.00536108
*CONN
*I *628:B I *D sky130_fd_sc_hd__nor3_1
*I *626:Y O *D sky130_fd_sc_hd__a22oi_1
*CAP
1 *628:B 0.00176151
2 *626:Y 0.00176151
3 *628:B *626:B1 0.000154684
4 *628:B *627:B 0.000344051
5 *628:B *637:A 0.00023527
6 *628:B *299:61 0
7 *628:B *299:63 0
8 *628:B *353:24 0.00110406
*RES
1 *626:Y *628:B 33.6 
*END

*D_NET *105 0.00139283
*CONN
*I *628:C I *D sky130_fd_sc_hd__nor3_1
*I *627:Y O *D sky130_fd_sc_hd__nor2_1
*CAP
1 *628:C 7.49808e-05
2 *627:Y 7.49808e-05
3 *628:C *627:A 3.79613e-05
4 *628:C *637:A 0.000412151
5 *628:C *637:B 0.000661611
6 *628:C *331:407 0.000131145
*RES
1 *627:Y *628:C 20.8121 
*END

*D_NET *106 0.00976767
*CONN
*I *631:B I *D sky130_fd_sc_hd__nor3_1
*I *629:Y O *D sky130_fd_sc_hd__a22oi_1
*CAP
1 *631:B 0.00100068
2 *629:Y 0.00100068
3 *631:B *629:B2 0.000378119
4 *631:B *630:B 0.00162756
5 *631:B *631:C 0.00490146
6 *631:B *864:CLK 0
7 *631:B *293:52 0
8 *631:B *349:6 1.70004e-05
9 *631:B *349:27 3.8858e-05
10 *861:D *631:B 6.80933e-05
11 *864:D *631:B 0.00073522
12 *74:14 *631:B 0
*RES
1 *629:Y *631:B 37.6303 
*END

*D_NET *107 0.00843144
*CONN
*I *631:C I *D sky130_fd_sc_hd__nor3_1
*I *630:Y O *D sky130_fd_sc_hd__nor2_1
*CAP
1 *631:C 0.000321997
2 *630:Y 0.000321997
3 *631:C *715:B 0.000871318
4 *631:C *331:585 0.000404766
5 *631:C *331:678 0.000541375
6 *631:B *631:C 0.00490146
7 *861:D *631:C 0.00106852
*RES
1 *630:Y *631:C 36.6 
*END

*D_NET *108 0.00439945
*CONN
*I *634:B I *D sky130_fd_sc_hd__nor3_1
*I *632:Y O *D sky130_fd_sc_hd__a22oi_1
*CAP
1 *634:B 0.000812762
2 *632:Y 0.000812762
3 *634:B *632:B1 0.00124944
4 *634:B *632:B2 0.00024946
5 *634:B *744:A 0.00038671
6 *863:D *634:B 1.70004e-05
7 *866:D *634:B 0.000871318
*RES
1 *632:Y *634:B 23.2364 
*END

*D_NET *109 0.00971627
*CONN
*I *634:C I *D sky130_fd_sc_hd__nor3_1
*I *633:Y O *D sky130_fd_sc_hd__nor2_1
*CAP
1 *634:C 0.00308561
2 *633:Y 0.00308561
3 *634:C *625:A2 0.00351815
4 *634:C *741:B 2.06247e-05
5 *863:D *634:C 6.27708e-06
*RES
1 *633:Y *634:C 25.797 
*END

*D_NET *110 0.00932783
*CONN
*I *637:B I *D sky130_fd_sc_hd__nor3_1
*I *635:Y O *D sky130_fd_sc_hd__a22oi_1
*CAP
1 *637:B 0.00194855
2 *635:Y 0.00194855
3 *637:B *627:A 5.58584e-05
4 *637:B *637:A 0.00362412
5 *637:B *299:57 0
6 *637:B *299:59 0
7 *637:B *299:61 0
8 *637:B *331:407 2.06247e-05
9 *628:C *637:B 0.000661611
10 *862:D *637:B 0.00106852
*RES
1 *635:Y *637:B 36.0091 
*END

*D_NET *111 0.00133898
*CONN
*I *637:C I *D sky130_fd_sc_hd__nor3_1
*I *636:Y O *D sky130_fd_sc_hd__nor2_1
*CAP
1 *637:C 0.000402557
2 *636:Y 0.000402557
3 *637:C *637:A 0.000162691
4 *637:C *299:45 0
5 *637:C *299:57 0.000371178
*RES
1 *636:Y *637:C 20.8121 
*END

*D_NET *112 0.00199371
*CONN
*I *640:B I *D sky130_fd_sc_hd__nor3_1
*I *638:Y O *D sky130_fd_sc_hd__a22oi_1
*CAP
1 *640:B 0.000183077
2 *638:Y 0.000183077
3 *640:B *639:A 0.00162756
*RES
1 *638:Y *640:B 20.1 
*END

*D_NET *113 0.000709872
*CONN
*I *640:C I *D sky130_fd_sc_hd__nor3_1
*I *639:Y O *D sky130_fd_sc_hd__nor2_1
*CAP
1 *640:C 0.000151187
2 *639:Y 0.000151187
3 *640:C *639:A 0.000292417
4 *640:C *639:B 0.00011508
*RES
1 *639:Y *640:C 19.7667 
*END

*D_NET *114 0.00399664
*CONN
*I *643:B I *D sky130_fd_sc_hd__nor3_1
*I *641:Y O *D sky130_fd_sc_hd__a22oi_1
*CAP
1 *643:B 0.000277065
2 *641:Y 0.000277065
3 *643:B *641:B2 0.00106754
4 *643:B *643:C 0
5 *643:B *768:B 1.77085e-05
6 *643:B *271:27 6.80933e-05
7 *643:B *331:320 0.00037419
8 *643:B *331:324 0.000287421
9 *643:B *347:16 0.00162756
*RES
1 *641:Y *643:B 31.6152 
*END

*D_NET *115 0.00344381
*CONN
*I *643:C I *D sky130_fd_sc_hd__nor3_1
*I *642:Y O *D sky130_fd_sc_hd__nor2_1
*CAP
1 *643:C 9.45822e-05
2 *642:Y 9.45822e-05
3 *643:C *642:B 0.00099789
4 *643:C *691:A 0.000103721
5 *643:C *313:18 0.00162756
6 *643:C *322:64 0.000232026
7 *643:C *331:337 0.000232741
8 *643:C *331:441 6.07149e-05
9 *643:B *643:C 0
*RES
1 *642:Y *643:C 31.2667 
*END

*D_NET *116 0.00448214
*CONN
*I *646:B I *D sky130_fd_sc_hd__nor3_1
*I *644:Y O *D sky130_fd_sc_hd__a22oi_1
*CAP
1 *646:B 0.000264245
2 *644:Y 0.000264245
3 *646:B *615:B 0
4 *646:B *615:C 0
5 *646:B *646:C 0.000533785
6 *646:B *770:A 0.00040192
7 *646:B *270:10 0.000666599
8 *646:B *310:32 0.000871318
9 *646:B *322:255 0.000176241
10 *646:B *346:18 0.00023527
11 *859:D *646:B 0.00106852
*RES
1 *644:Y *646:B 32.3727 
*END

*D_NET *117 0.00416814
*CONN
*I *646:C I *D sky130_fd_sc_hd__nor3_1
*I *645:Y O *D sky130_fd_sc_hd__nor2_1
*CAP
1 *646:C 0.000167265
2 *645:Y 0.000167265
3 *646:C *615:B 0
4 *646:C *615:C 0.000146728
5 *646:C *310:32 0.00112078
6 *646:C *319:16 0.00162756
7 *646:C *322:255 0
8 *646:C *322:276 0.000404766
9 *646:B *646:C 0.000533785
*RES
1 *645:Y *646:C 32.8121 
*END

*D_NET *118 0.00136469
*CONN
*I *649:B I *D sky130_fd_sc_hd__nor3_1
*I *647:Y O *D sky130_fd_sc_hd__a22oi_1
*CAP
1 *649:B 0.000145761
2 *647:Y 0.000145761
3 *649:B *649:C 0.000493199
4 *649:B *761:A 8.67686e-05
5 *649:B *331:455 0.000493199
*RES
1 *647:Y *649:B 19.7515 
*END

*D_NET *119 0.00296277
*CONN
*I *649:C I *D sky130_fd_sc_hd__nor3_1
*I *648:Y O *D sky130_fd_sc_hd__nor2_1
*CAP
1 *649:C 0.000318812
2 *648:Y 0.000318812
3 *649:C *648:B 0.000436598
4 *649:C *761:A 0.000871318
5 *649:C *843:CLK 0.000162691
6 *649:C *299:33 0.000129019
7 *649:B *649:C 0.000493199
8 *858:D *649:C 0.000232318
*RES
1 *648:Y *649:C 30.5091 
*END

*D_NET *120 0.00677951
*CONN
*I *652:B I *D sky130_fd_sc_hd__nor3_1
*I *650:Y O *D sky130_fd_sc_hd__a22oi_1
*CAP
1 *652:B 0.000399672
2 *650:Y 0.000399672
3 *652:B *650:B2 0.000661611
4 *652:B *651:A 0.00238379
5 *652:B *778:B 0.00078634
6 *652:B *338:10 0.000913251
7 *819:D *652:B 0
8 *1:18 *652:B 0.00123517
*RES
1 *650:Y *652:B 35.8727 
*END

*D_NET *121 0.000697135
*CONN
*I *652:C I *D sky130_fd_sc_hd__nor3_1
*I *651:Y O *D sky130_fd_sc_hd__nor2_1
*CAP
1 *652:C 8.23426e-05
2 *651:Y 8.23426e-05
3 *652:C *651:A 0.000292417
4 *652:C *309:18 7.7342e-05
5 *857:D *652:C 0.000162691
*RES
1 *651:Y *652:C 19.7667 
*END

*D_NET *122 0.00684949
*CONN
*I *655:B I *D sky130_fd_sc_hd__nor3_1
*I *653:Y O *D sky130_fd_sc_hd__a22oi_1
*CAP
1 *655:B 0.00102418
2 *653:Y 0.00102418
3 *655:B *655:C 0.00223458
4 *655:B *852:CLK 0.00020428
5 *655:B *293:177 0
6 *655:B *300:63 0
7 *655:B *362:10 0
8 *655:B *369:295 0.00162756
9 *856:D *655:B 0.000734729
*RES
1 *653:Y *655:B 32.8121 
*END

*D_NET *123 0.00378413
*CONN
*I *655:C I *D sky130_fd_sc_hd__nor3_1
*I *654:Y O *D sky130_fd_sc_hd__nor2_1
*CAP
1 *655:C 0.000381675
2 *654:Y 0.000381675
3 *655:C *688:A 0.000287421
4 *655:C *781:B 0
5 *655:C *267:16 0.000232614
6 *655:C *293:124 0.000266165
7 *655:C *293:148 0
8 *655:C *293:177 0
9 *655:B *655:C 0.00223458
*RES
1 *654:Y *655:C 32.6303 
*END

*D_NET *124 0.00355087
*CONN
*I *658:B I *D sky130_fd_sc_hd__nor3_1
*I *656:Y O *D sky130_fd_sc_hd__a22oi_1
*CAP
1 *658:B 8.73827e-05
2 *656:Y 8.73827e-05
3 *658:B *656:A2 0.00013563
4 *658:B *657:A 0.000493199
5 *658:B *658:C 0.0007416
6 *658:B *696:A 0.00200567
*RES
1 *656:Y *658:B 21.1455 
*END

*D_NET *125 0.00302701
*CONN
*I *658:C I *D sky130_fd_sc_hd__nor3_1
*I *657:Y O *D sky130_fd_sc_hd__nor2_1
*CAP
1 *658:C 0.000561888
2 *657:Y 0.000561888
3 *658:C *656:A2 0.00013563
4 *658:C *657:A 0.000154684
5 *658:C *657:B 0.000871318
6 *658:B *658:C 0.0007416
*RES
1 *657:Y *658:C 22.2061 
*END

*D_NET *126 0.00975806
*CONN
*I *661:B I *D sky130_fd_sc_hd__nor3_1
*I *659:Y O *D sky130_fd_sc_hd__a22oi_1
*CAP
1 *661:B 0.00287561
2 *659:Y 0.00287561
3 *661:B *659:B2 0.00238379
4 *661:B *661:A 6.80933e-05
5 *661:B *791:A2 0
6 *661:B *326:10 0.00056857
7 *854:D *661:B 0.000986385
*RES
1 *659:Y *661:B 33.7212 
*END

*D_NET *127 0.00744101
*CONN
*I *661:C I *D sky130_fd_sc_hd__nor3_1
*I *660:Y O *D sky130_fd_sc_hd__nor2_1
*CAP
1 *661:C 0.000789922
2 *660:Y 0.000789922
3 *661:C *661:A 0.000818054
4 *661:C *265:10 0.000493199
5 *661:C *265:16 0.000493199
6 *661:C *305:36 0.00112078
7 *661:C *331:216 0.00148465
8 *894:A *661:C 0.00124944
9 *909:A *661:C 0.000201848
*RES
1 *660:Y *661:C 33.6152 
*END

*D_NET *128 0.00388339
*CONN
*I *664:B I *D sky130_fd_sc_hd__nor3_1
*I *662:Y O *D sky130_fd_sc_hd__a22oi_1
*CAP
1 *664:B 0.000888655
2 *662:Y 0.000888655
3 *664:B *662:B1 1.43476e-05
4 *664:B *662:B2 1.70004e-05
5 *664:B *663:A 6.80933e-05
6 *664:B *305:36 0.00143904
7 *853:D *664:B 0.00056759
*RES
1 *662:Y *664:B 30.2364 
*END

*D_NET *129 0.0012775
*CONN
*I *664:C I *D sky130_fd_sc_hd__nor3_1
*I *663:Y O *D sky130_fd_sc_hd__nor2_1
*CAP
1 *664:C 5.93783e-05
2 *663:Y 5.93783e-05
3 *664:C *313:12 0.000871318
4 *664:C *319:16 0.000287421
*RES
1 *663:Y *664:C 19.7667 
*END

*D_NET *130 0.00206709
*CONN
*I *667:B I *D sky130_fd_sc_hd__nor3_1
*I *665:Y O *D sky130_fd_sc_hd__a22oi_1
*CAP
1 *667:B 0.000501011
2 *665:Y 0.000501011
3 *667:B *798:B 0.00012473
4 *667:B *228:14 0.000493199
5 *667:B *263:12 0.000146728
6 *667:B *307:14 0
7 *667:B *339:20 0.000300411
*RES
1 *665:Y *667:B 29.5394 
*END

*D_NET *131 0.0018466
*CONN
*I *667:C I *D sky130_fd_sc_hd__nor3_1
*I *666:Y O *D sky130_fd_sc_hd__nor2_1
*CAP
1 *667:C 0.000358843
2 *666:Y 0.000358843
3 *667:C *666:A 0.000189571
4 *667:C *667:A 0.000742658
5 *667:C *331:290 1.67388e-05
6 *852:D *667:C 0.000179943
*RES
1 *666:Y *667:C 20.9182 
*END

*D_NET *132 0.00111217
*CONN
*I *670:B I *D sky130_fd_sc_hd__nor3_1
*I *668:Y O *D sky130_fd_sc_hd__a22oi_1
*CAP
1 *670:B 0.000232146
2 *668:Y 0.000232146
3 *670:B *668:B1 0.000154684
4 *670:B *669:A 0.000493199
*RES
1 *668:Y *670:B 19.7515 
*END

*D_NET *133 0.00139535
*CONN
*I *670:C I *D sky130_fd_sc_hd__nor3_1
*I *669:Y O *D sky130_fd_sc_hd__nor2_1
*CAP
1 *670:C 3.6897e-05
2 *669:Y 3.6897e-05
3 *670:C *668:B1 9.08676e-05
4 *670:C *669:A 0.000227554
5 *670:C *669:B 0.00011508
6 *670:C *314:20 0.000888056
*RES
1 *669:Y *670:C 19.7667 
*END

*D_NET *134 0.00229438
*CONN
*I *673:B I *D sky130_fd_sc_hd__nor3_1
*I *671:Y O *D sky130_fd_sc_hd__a22oi_1
*CAP
1 *673:B 0.00049554
2 *671:Y 0.00049554
3 *673:B *671:B2 0.00023527
4 *673:B *672:B 0
5 *673:B *710:B 0
6 *673:B *285:16 0
7 *850:D *673:B 0.00106803
*RES
1 *671:Y *673:B 31.5697 
*END

*D_NET *135 0.00111117
*CONN
*I *673:C I *D sky130_fd_sc_hd__nor3_1
*I *672:Y O *D sky130_fd_sc_hd__nor2_1
*CAP
1 *673:C 0.000272165
2 *672:Y 0.000272165
3 *673:C *672:A 0
4 *673:C *331:780 0.000154684
5 *673:C *331:782 0.000412151
*RES
1 *672:Y *673:C 20.8121 
*END

*D_NET *136 0.00235614
*CONN
*I *676:B I *D sky130_fd_sc_hd__nor3_1
*I *674:Y O *D sky130_fd_sc_hd__a22oi_1
*CAP
1 *676:B 0.000343154
2 *674:Y 0.000343154
3 *676:B *586:A 0
4 *676:B *587:C 6.7893e-05
5 *676:B *674:B1 0.00073522
6 *676:B *676:C 0.000227554
7 *676:B *291:18 7.7342e-05
8 *676:B *329:22 0
9 *676:B *331:766 0
10 *676:B *333:32 0.000561819
11 *676:B *369:128 0
*RES
1 *674:Y *676:B 30.7818 
*END

*D_NET *137 0.00101351
*CONN
*I *676:C I *D sky130_fd_sc_hd__nor3_1
*I *675:Y O *D sky130_fd_sc_hd__nor2_1
*CAP
1 *676:C 8.40117e-05
2 *675:Y 8.40117e-05
3 *676:C *586:A 0
4 *676:C *291:18 0.000493199
5 *676:C *333:32 0.00012473
6 *676:B *676:C 0.000227554
*RES
1 *675:Y *676:C 19.7667 
*END

*D_NET *138 0.00785411
*CONN
*I *679:B I *D sky130_fd_sc_hd__nor3_1
*I *677:Y O *D sky130_fd_sc_hd__a22oi_1
*CAP
1 *679:B 0.00148368
2 *677:Y 0.00148368
3 *679:B *594:B 0.00062014
4 *679:B *679:C 6.86205e-05
5 *679:B *681:B 0.00097653
6 *679:B *682:C 0.00223507
7 *679:B *327:40 2.77423e-05
8 *679:B *369:36 0.000184576
9 *679:B *369:43 3.8858e-05
10 *848:D *679:B 0.00073522
*RES
1 *677:Y *679:B 33.6 
*END

*D_NET *139 0.00502638
*CONN
*I *679:C I *D sky130_fd_sc_hd__nor3_1
*I *678:Y O *D sky130_fd_sc_hd__nor2_1
*CAP
1 *679:C 0.00105347
2 *678:Y 0.00105347
3 *679:C *681:B 0.000436598
4 *679:C *682:C 0.00241423
5 *679:B *679:C 6.86205e-05
*RES
1 *678:Y *679:C 31.1 
*END

*D_NET *140 0.00269333
*CONN
*I *682:B I *D sky130_fd_sc_hd__nor3_1
*I *680:Y O *D sky130_fd_sc_hd__a22oi_1
*CAP
1 *682:B 7.87665e-05
2 *680:Y 7.87665e-05
3 *682:B *680:A2 0.00013563
4 *682:B *680:B2 0.00162756
5 *682:B *682:C 0.000493199
6 *892:A *682:B 0.00012473
7 *35:23 *682:B 0.000154684
*RES
1 *680:Y *682:B 20.4485 
*END

*D_NET *141 0.029451
*CONN
*I *682:C I *D sky130_fd_sc_hd__nor3_1
*I *681:Y O *D sky130_fd_sc_hd__nor2_1
*CAP
1 *682:C 0.000842367
2 *681:Y 0.000842367
3 *682:C *591:B 0.000493199
4 *682:C *591:C 0.00124944
5 *682:C *681:A 0.0119762
6 *682:C *681:B 0.000230045
7 *682:C *682:A 3.79613e-05
8 *682:C *728:B 0.00540043
9 *682:C *289:12 0.00266591
10 *682:C *312:18 0.000493199
11 *679:B *682:C 0.00223507
12 *679:C *682:C 0.00241423
13 *682:B *682:C 0.000493199
14 *892:A *682:C 7.7342e-05
*RES
1 *681:Y *682:C 48.3576 
*END

*D_NET *142 0.00170215
*CONN
*I *685:B I *D sky130_fd_sc_hd__nor3_1
*I *683:Y O *D sky130_fd_sc_hd__a22oi_1
*CAP
1 *685:B 2.02819e-05
2 *683:Y 2.02819e-05
3 *685:B *684:A 0.00124944
4 *685:B *722:B 0.000412151
*RES
1 *683:Y *685:B 19.7515 
*END

*D_NET *143 0.00237546
*CONN
*I *685:C I *D sky130_fd_sc_hd__nor3_1
*I *684:Y O *D sky130_fd_sc_hd__nor2_1
*CAP
1 *685:C 4.98459e-05
2 *684:Y 4.98459e-05
3 *685:C *684:A 0.00107765
4 *685:C *684:B 7.7342e-05
5 *846:D *685:C 0.00112078
*RES
1 *684:Y *685:C 20.5697 
*END

*D_NET *144 0.00422264
*CONN
*I *688:B I *D sky130_fd_sc_hd__nor3_1
*I *686:Y O *D sky130_fd_sc_hd__a22oi_1
*CAP
1 *688:B 0.000257506
2 *686:Y 0.000257506
3 *688:B *686:B2 0.00156847
4 *688:B *688:C 0.000352425
5 *688:B *852:CLK 0
6 *688:B *249:10 0.000640878
7 *688:B *362:10 0.00106852
8 *845:D *688:B 7.7342e-05
*RES
1 *686:Y *688:B 32.3727 
*END

*D_NET *145 0.00109343
*CONN
*I *688:C I *D sky130_fd_sc_hd__nor3_1
*I *687:Y O *D sky130_fd_sc_hd__nor2_1
*CAP
1 *688:C 0.000293981
2 *687:Y 0.000293981
3 *688:C *852:CLK 0
4 *688:C *300:63 3.79613e-05
5 *688:C *362:10 0
6 *688:B *688:C 0.000352425
7 *845:D *688:C 0.00011508
*RES
1 *687:Y *688:C 30.0545 
*END

*D_NET *146 0.00183929
*CONN
*I *691:B I *D sky130_fd_sc_hd__nor3_1
*I *689:Y O *D sky130_fd_sc_hd__a22oi_1
*CAP
1 *691:B 7.43285e-05
2 *689:Y 7.43285e-05
3 *691:B *689:B1 0.00123517
4 *691:B *689:B2 0.000103721
5 *691:B *691:C 6.86205e-05
6 *691:B *755:A1 6.80933e-05
7 *691:B *361:23 0.000215032
8 *825:D *691:B 0
*RES
1 *689:Y *691:B 29.7667 
*END

*D_NET *147 0.00439025
*CONN
*I *691:C I *D sky130_fd_sc_hd__nor3_1
*I *690:Y O *D sky130_fd_sc_hd__nor2_1
*CAP
1 *691:C 0.00134991
2 *690:Y 0.00134991
3 *691:C *689:B1 0.000136187
4 *691:C *690:A 7.7342e-05
5 *691:C *690:B 0.000536881
6 *691:C *286:10 0.00073522
7 *691:C *323:31 0
8 *691:C *361:23 0.000136187
9 *691:B *691:C 6.86205e-05
*RES
1 *690:Y *691:C 31.4485 
*END

*D_NET *148 0.00750733
*CONN
*I *694:B I *D sky130_fd_sc_hd__nor3_1
*I *702:B_N I *D sky130_fd_sc_hd__nor2b_1
*I *692:X O *D sky130_fd_sc_hd__and3_1
*CAP
1 *694:B 0.000607524
2 *702:B_N 0.000856018
3 *692:X 0
4 *148:6 0.00146354
5 *694:B *694:C 0.000734729
6 *694:B *818:CLK 0
7 *694:B *285:16 0.00023478
8 *694:B *331:561 0.000756238
9 *694:B *331:565 0.000871318
10 *702:B_N *702:A 0.00124944
11 *702:B_N *285:16 0.000733749
12 *839:D *694:B 0
*RES
1 *692:X *148:6 13.8 
2 *148:6 *702:B_N 18.1788 
3 *148:6 *694:B 17.7242 
*END

*D_NET *149 0.00503536
*CONN
*I *694:C I *D sky130_fd_sc_hd__nor3_1
*I *693:Y O *D sky130_fd_sc_hd__a21oi_1
*CAP
1 *694:C 0.00084334
2 *693:Y 0.00084334
3 *694:C *692:B 0.000871318
4 *694:C *169:14 0
5 *694:C *331:561 0.000493199
6 *694:C *331:565 0.00124944
7 *694:B *694:C 0.000734729
*RES
1 *693:Y *694:C 31.5545 
*END

*D_NET *150 0.0120556
*CONN
*I *700:A I *D sky130_fd_sc_hd__xnor2_1
*I *709:A1 I *D sky130_fd_sc_hd__a211oi_1
*I *696:Y O *D sky130_fd_sc_hd__nand2_1
*CAP
1 *700:A 0.000106136
2 *709:A1 0.00139203
3 *696:Y 0.000630307
4 *150:10 0.00212848
5 *700:A *696:A 4.30064e-05
6 *700:A *700:B 0.00181844
7 *700:A *808:CLK 0.000318753
8 *700:A *841:CLK 0.000103721
9 *709:A1 *709:A2 5.38032e-05
10 *709:A1 *709:C1 0.00012473
11 *709:A1 *331:26 0.000871318
12 *150:10 *696:A 0.000688102
13 *150:10 *700:B 0.000485245
14 *150:10 *716:B 0.00030484
15 *150:10 *179:16 0.000985194
16 *150:10 *302:10 6.27708e-06
17 *150:10 *332:20 0.000493199
18 *841:D *709:A1 0.000871318
19 *886:A *150:10 0.00056857
20 *902:A *700:A 0
21 *902:A *709:A1 6.2085e-05
*RES
1 *696:Y *150:10 19.4742 
2 *150:10 *709:A1 17.0348 
3 *150:10 *700:A 16.8682 
*END

*D_NET *151 0.0105376
*CONN
*I *709:A2 I *D sky130_fd_sc_hd__a211oi_1
*I *697:Y O *D sky130_fd_sc_hd__nand2_1
*CAP
1 *709:A2 0.00063511
2 *697:Y 0.00063511
3 *709:A2 *699:B 0.000901869
4 *709:A2 *709:B1 0.00089815
5 *709:A2 *709:C1 0.000493199
6 *709:A2 *734:B 0.000275747
7 *709:A2 *300:101 0.00240053
8 *709:A2 *323:16 0.001458
9 *709:A2 *326:10 0
10 *709:A2 *331:26 0.000390928
11 *709:A2 *337:12 0.00140182
12 *709:A1 *709:A2 5.38032e-05
13 *841:D *709:A2 0.000993368
*RES
1 *697:Y *709:A2 39.9788 
*END

*D_NET *152 0.016671
*CONN
*I *709:B1 I *D sky130_fd_sc_hd__a211oi_1
*I *698:Y O *D sky130_fd_sc_hd__nor2_1
*CAP
1 *709:B1 0.00361013
2 *698:Y 0.00361013
3 *709:B1 *261:8 0.000833249
4 *709:B1 *261:10 0.00240172
5 *709:B1 *300:101 0.00124944
6 *709:B1 *323:16 0.00406822
7 *709:A2 *709:B1 0.00089815
*RES
1 *698:Y *709:B1 39.9182 
*END

*D_NET *153 0.00916061
*CONN
*I *700:B I *D sky130_fd_sc_hd__xnor2_1
*I *699:Y O *D sky130_fd_sc_hd__xnor2_1
*CAP
1 *700:B 0.00187019
2 *699:Y 0.00187019
3 *700:B *696:A 0.000913251
4 *700:B *699:A 0.000536881
5 *700:B *734:B 0.00162756
6 *700:A *700:B 0.00181844
7 *887:A *700:B 3.8858e-05
8 *150:10 *700:B 0.000485245
*RES
1 *699:Y *700:B 34.297 
*END

*D_NET *154 0.00217913
*CONN
*I *701:B I *D sky130_fd_sc_hd__nor2_1
*I *700:Y O *D sky130_fd_sc_hd__xnor2_1
*CAP
1 *701:B 0.000155164
2 *700:Y 0.000155164
3 *701:B *701:A 0.000103845
4 *701:B *307:14 0.000661611
5 *701:B *331:22 0.000232026
6 *891:A *701:B 0.000871318
*RES
1 *700:Y *701:B 21.5242 
*END

*D_NET *155 0.00164611
*CONN
*I *705:B I *D sky130_fd_sc_hd__nor3_1
*I *703:Y O *D sky130_fd_sc_hd__a22oi_1
*CAP
1 *705:B 8.74426e-06
2 *703:Y 8.74426e-06
3 *705:B *647:A1 5.38032e-05
4 *705:B *703:B2 3.79613e-05
5 *705:B *305:38 0.00124944
6 *705:B *331:455 0.000287421
*RES
1 *703:Y *705:B 19.7515 
*END

*D_NET *156 0.0051758
*CONN
*I *705:C I *D sky130_fd_sc_hd__nor3_1
*I *704:Y O *D sky130_fd_sc_hd__nor2_1
*CAP
1 *705:C 0.00164377
2 *704:Y 0.00164377
3 *705:C *703:B2 0.000493199
4 *705:C *704:A 0
5 *705:C *305:53 0.000901869
6 *705:C *359:14 0.000493199
*RES
1 *704:Y *705:C 31.5394 
*END

*D_NET *157 0.00799515
*CONN
*I *708:B I *D sky130_fd_sc_hd__nor3_1
*I *706:Y O *D sky130_fd_sc_hd__a22oi_1
*CAP
1 *708:B 0.00184034
2 *706:Y 0.00184034
3 *708:B *708:C 0.00073522
4 *708:B *174:18 0.000336228
5 *708:B *293:148 4.30064e-05
6 *708:B *293:154 0.000344051
7 *708:B *297:31 0
8 *708:B *309:18 0.00162756
9 *708:B *327:34 0.000493199
10 *842:D *708:B 0.00073522
*RES
1 *706:Y *708:B 33.9485 
*END

*D_NET *158 0.0158592
*CONN
*I *708:C I *D sky130_fd_sc_hd__nor3_1
*I *707:Y O *D sky130_fd_sc_hd__nor2_1
*CAP
1 *708:C 0.00396876
2 *707:Y 0.00396876
3 *708:C *706:B2 0.00276191
4 *708:C *707:A 7.7342e-05
5 *708:C *707:B 0.00162756
6 *708:C *708:A 0.000287421
7 *708:C *293:154 0.000300411
8 *708:C *297:14 0.000253527
9 *708:B *708:C 0.00073522
10 *842:D *708:C 0.00187826
*RES
1 *707:Y *708:C 36.6303 
*END

*D_NET *159 0.0102705
*CONN
*I *620:A1 I *D sky130_fd_sc_hd__a211oi_1
*I *714:A I *D sky130_fd_sc_hd__xnor2_1
*I *710:Y O *D sky130_fd_sc_hd__nand2_1
*CAP
1 *620:A1 0.000259159
2 *714:A 0.000344566
3 *710:Y 0.00149545
4 *159:12 0.00209918
5 *620:A1 *711:A 4.30064e-05
6 *620:A1 *711:B 0.00123517
7 *620:A1 *872:CLK 0.000880102
8 *620:A1 *294:28 6.18848e-05
9 *620:A1 *294:30 0.000708771
10 *620:A1 *360:12 0
11 *620:A1 *360:18 0.0003333
12 *714:A *714:B 0.00023527
13 *714:A *169:14 0.000317736
14 *714:A *294:28 2.15032e-05
15 *159:12 *818:CLK 0.000151945
16 *159:12 *169:14 0.00118037
17 *159:12 *312:18 9.244e-05
18 *159:12 *321:18 0.000590608
19 *159:12 *369:386 0.000151945
20 *838:D *620:A1 0
21 *871:D *620:A1 6.80933e-05
*RES
1 *710:Y *159:12 19.0135 
2 *159:12 *714:A 18.0351 
3 *159:12 *620:A1 21.8236 
*END

*D_NET *160 0.000986608
*CONN
*I *620:A2 I *D sky130_fd_sc_hd__a211oi_1
*I *711:Y O *D sky130_fd_sc_hd__nand2_1
*CAP
1 *620:A2 5.76452e-05
2 *711:Y 5.76452e-05
3 *620:A2 *711:B 0.000871318
*RES
1 *711:Y *620:A2 19.403 
*END

*D_NET *161 0.0025832
*CONN
*I *620:B1 I *D sky130_fd_sc_hd__a211oi_1
*I *712:Y O *D sky130_fd_sc_hd__nor2_1
*CAP
1 *620:B1 0.000404458
2 *712:Y 0.000404458
3 *620:B1 *711:B 0
4 *620:B1 *872:CLK 0.00162756
5 *871:D *620:B1 0.000146728
6 *872:D *620:B1 0
*RES
1 *712:Y *620:B1 30.2364 
*END

*D_NET *162 0.00675542
*CONN
*I *714:B I *D sky130_fd_sc_hd__xnor2_1
*I *713:Y O *D sky130_fd_sc_hd__xnor2_1
*CAP
1 *714:B 0.00172525
2 *713:Y 0.00172525
3 *714:B *838:CLK 0
4 *714:B *294:30 0.000436398
5 *714:B *360:18 0.00024946
6 *714:A *714:B 0.00023527
7 *871:D *714:B 0.00238379
*RES
1 *713:Y *714:B 32.1455 
*END

*D_NET *163 0.00338016
*CONN
*I *715:B I *D sky130_fd_sc_hd__nor2_1
*I *714:Y O *D sky130_fd_sc_hd__xnor2_1
*CAP
1 *715:B 0.000791426
2 *714:Y 0.000791426
3 *715:B *631:A 0.000100881
4 *715:B *294:28 0.000734239
5 *715:B *331:565 9.08676e-05
6 *715:B *358:8 0
7 *631:C *715:B 0.000871318
8 *838:D *715:B 0
*RES
1 *714:Y *715:B 32.1606 
*END

*D_NET *164 0.0554223
*CONN
*I *621:A1 I *D sky130_fd_sc_hd__a211oi_1
*I *720:A I *D sky130_fd_sc_hd__xnor2_1
*I *716:Y O *D sky130_fd_sc_hd__nand2_1
*CAP
1 *621:A1 0
2 *720:A 0.000946542
3 *716:Y 0.0155659
4 *164:14 0.0165124
5 *720:A *719:A 0.00156847
6 *720:A *720:B 0.00102342
7 *720:A *721:B 0.00182202
8 *720:A *874:A 0.000269987
9 *720:A *331:644 0.000136187
10 *720:A *358:8 0
11 *164:14 *600:A 0.00124944
12 *164:14 *600:B 0.000100881
13 *164:14 *716:B 0.000493199
14 *164:14 *717:A 0.000162691
15 *164:14 *718:A 0.000162691
16 *164:14 *750:B 7.7342e-05
17 *164:14 *752:B 2.77611e-05
18 *164:14 *752:C 0.000585462
19 *164:14 *753:B 0.00023981
20 *164:14 *753:C 0.000677452
21 *164:14 *803:B1 0.000493199
22 *164:14 *804:C 0.000739798
23 *164:14 *832:CLK 0.000871318
24 *164:14 *192:6 0.000154684
25 *164:14 *246:20 0.000100881
26 *164:14 *276:12 0.000287421
27 *164:14 *282:18 0.000543296
28 *164:14 *314:20 0.00021129
29 *164:14 *369:158 0.00351815
30 *164:14 *369:162 0.00162756
31 *164:14 *369:171 0.000466381
32 *164:14 *369:173 0.000493199
33 *164:14 *369:181 0.00238379
34 *908:A *164:14 0.000232026
35 *74:14 *164:14 5.01631e-05
36 *75:14 *164:14 0.00162756
*RES
1 *716:Y *164:14 39.2697 
2 *164:14 *720:A 27.0727 
3 *164:14 *621:A1 9.3 
*END

*D_NET *165 0.000868381
*CONN
*I *621:A2 I *D sky130_fd_sc_hd__a211oi_1
*I *717:Y O *D sky130_fd_sc_hd__nand2_1
*CAP
1 *621:A2 0.00014892
2 *717:Y 0.00014892
3 *621:A2 *717:A 0.000493199
4 *621:A2 *717:B 7.7342e-05
*RES
1 *717:Y *621:A2 19.403 
*END

*D_NET *166 0.0025195
*CONN
*I *621:B1 I *D sky130_fd_sc_hd__a211oi_1
*I *718:Y O *D sky130_fd_sc_hd__nor2_1
*CAP
1 *621:B1 0.000635033
2 *718:Y 0.000635033
3 *621:B1 *717:B 0.00124944
*RES
1 *718:Y *621:B1 19.7515 
*END

*D_NET *167 0.00714745
*CONN
*I *720:B I *D sky130_fd_sc_hd__xnor2_1
*I *719:Y O *D sky130_fd_sc_hd__xnor2_1
*CAP
1 *720:B 0.0020527
2 *719:Y 0.0020527
3 *720:B *874:A 0.00128333
4 *720:B *293:52 0.000502987
5 *720:B *358:8 0.000232318
6 *720:A *720:B 0.00102342
*RES
1 *719:Y *720:B 33.403 
*END

*D_NET *168 0.00594359
*CONN
*I *721:B I *D sky130_fd_sc_hd__nor2_1
*I *720:Y O *D sky130_fd_sc_hd__xnor2_1
*CAP
1 *721:B 0.000917888
2 *720:Y 0.000917888
3 *721:B *721:A 2.65031e-05
4 *721:B *331:595 7.7342e-05
5 *721:B *331:601 0.000287421
6 *721:B *358:8 0
7 *720:A *721:B 0.00182202
8 *837:D *721:B 0.00189453
*RES
1 *720:Y *721:B 32.6909 
*END

*D_NET *169 0.0105862
*CONN
*I *726:A I *D sky130_fd_sc_hd__xnor2_1
*I *622:A1 I *D sky130_fd_sc_hd__a211oi_1
*I *722:Y O *D sky130_fd_sc_hd__nand2_1
*CAP
1 *726:A 6.54914e-05
2 *622:A1 0.000308785
3 *722:Y 0.00343821
4 *169:14 0.00381248
5 *622:A1 *622:B1 6.86205e-05
6 *622:A1 *726:B 0
7 *622:A1 *294:74 0
8 *726:A *622:C1 0
9 *726:A *294:74 0
10 *169:14 *818:CLK 0.000469843
11 *169:14 *312:18 0.000924666
12 *694:C *169:14 0
13 *714:A *169:14 0.000317736
14 *159:12 *169:14 0.00118037
*RES
1 *722:Y *169:14 25.6169 
2 *169:14 *622:A1 15.8379 
3 *169:14 *726:A 14.2924 
*END

*D_NET *170 0.00324051
*CONN
*I *622:A2 I *D sky130_fd_sc_hd__a211oi_1
*I *723:Y O *D sky130_fd_sc_hd__nand2_1
*CAP
1 *622:A2 0.00118358
2 *723:Y 0.00118358
3 *622:A2 *622:B1 0.000189734
4 *622:A2 *723:B 0.000536881
5 *622:A2 *726:B 0
6 *622:A2 *281:12 0.000146728
7 *622:A2 *294:74 0
8 *869:D *622:A2 0
*RES
1 *723:Y *622:A2 32.297 
*END

*D_NET *171 0.00759929
*CONN
*I *622:B1 I *D sky130_fd_sc_hd__a211oi_1
*I *724:Y O *D sky130_fd_sc_hd__nor2_1
*CAP
1 *622:B1 0.00182782
2 *724:Y 0.00182782
3 *622:B1 *726:B 4.30064e-05
4 *622:B1 *294:70 0.00247056
5 *622:B1 *294:74 0
6 *622:A1 *622:B1 6.86205e-05
7 *622:A2 *622:B1 0.000189734
8 *869:D *622:B1 0.00117173
*RES
1 *724:Y *622:B1 32.2364 
*END

*D_NET *172 0.00428011
*CONN
*I *726:B I *D sky130_fd_sc_hd__xnor2_1
*I *725:Y O *D sky130_fd_sc_hd__xnor2_1
*CAP
1 *726:B 0.000627127
2 *725:Y 0.000627127
3 *726:B *622:C1 0.00123468
4 *726:B *724:B 0
5 *726:B *727:A 0.000412151
6 *726:B *727:B 0.000287421
7 *726:B *281:12 0.000146728
8 *622:A1 *726:B 0
9 *622:A2 *726:B 0
10 *622:B1 *726:B 4.30064e-05
11 *837:D *726:B 0
12 *869:D *726:B 0.000901869
*RES
1 *725:Y *726:B 34.2667 
*END

*D_NET *173 0.00274776
*CONN
*I *727:B I *D sky130_fd_sc_hd__nor2_1
*I *726:Y O *D sky130_fd_sc_hd__xnor2_1
*CAP
1 *727:B 0.00106434
2 *726:Y 0.00106434
3 *727:B *727:A 0.000331668
4 *726:B *727:B 0.000287421
*RES
1 *726:Y *727:B 22.5849 
*END

*D_NET *174 0.0696884
*CONN
*I *732:A I *D sky130_fd_sc_hd__xnor2_1
*I *623:A1 I *D sky130_fd_sc_hd__a211oi_1
*I *728:Y O *D sky130_fd_sc_hd__nand2_1
*CAP
1 *732:A 0.000164835
2 *623:A1 0
3 *728:Y 0.00108958
4 *174:24 0.0140971
5 *174:18 0.0150219
6 *732:A *732:B 0
7 *732:A *733:A 0.000301045
8 *174:18 *595:C 0.000368304
9 *174:18 *599:B 0.00162756
10 *174:18 *599:C 0.000211498
11 *174:18 *602:A 0.000287421
12 *174:18 *602:B 0.00314003
13 *174:18 *603:B 0.00351815
14 *174:18 *603:C 0.000208487
15 *174:18 *679:A 0.00156798
16 *174:18 *681:A 0.000158112
17 *174:18 *706:A1 0.000173537
18 *174:18 *706:A2 0.00272903
19 *174:18 *802:A 0
20 *174:18 *289:12 2.15032e-05
21 *174:18 *308:6 0.00264683
22 *174:18 *309:18 0.00209244
23 *174:18 *312:18 0.000318595
24 *174:18 *325:16 5.38032e-05
25 *174:18 *326:27 0.000713512
26 *174:18 *327:34 0.00319436
27 *174:18 *332:20 0.001021
28 *174:18 *364:8 8.67686e-05
29 *174:24 *669:B 0.00024946
30 *174:24 *732:B 0
31 *174:24 *733:A 6.07149e-05
32 *174:24 *753:A 1.43476e-05
33 *174:24 *802:A 0.00124944
34 *174:24 *851:CLK 0.000759553
35 *174:24 *262:12 0.000493199
36 *174:24 *295:33 0.000536881
37 *174:24 *295:50 0.000287421
38 *174:24 *295:90 0.00162363
39 *708:B *174:18 0.000336228
40 *815:D *174:18 0.00383352
41 *851:D *174:24 0.000649841
42 *861:D *174:24 0.000417815
43 *868:D *174:24 0
44 *870:D *174:24 0.000581049
45 *892:A *174:18 0.000871318
46 *893:A *174:18 0.000661611
47 *898:A *174:18 0.001318
48 *16:25 *174:18 0.000285829
49 *33:27 *174:18 0.000645144
*RES
1 *728:Y *174:18 45.6826 
2 *174:18 *174:24 30.2689 
3 *174:24 *623:A1 13.8 
4 *174:24 *732:A 15.7091 
*END

*D_NET *175 0.00318933
*CONN
*I *623:A2 I *D sky130_fd_sc_hd__a211oi_1
*I *729:Y O *D sky130_fd_sc_hd__nand2_1
*CAP
1 *623:A2 0.000976736
2 *729:Y 0.000976736
3 *623:A2 *733:A 0.000493199
4 *623:A2 *295:90 0.000493199
5 *868:D *623:A2 0.00024946
*RES
1 *729:Y *623:A2 23.6 
*END

*D_NET *176 0.00578
*CONN
*I *623:B1 I *D sky130_fd_sc_hd__a211oi_1
*I *730:Y O *D sky130_fd_sc_hd__nor2_1
*CAP
1 *623:B1 0.00135628
2 *730:Y 0.00135628
3 *623:B1 *295:90 0.000493199
4 *868:D *623:B1 0.00257424
*RES
1 *730:Y *623:B1 30.7818 
*END

*D_NET *177 0.00198536
*CONN
*I *732:B I *D sky130_fd_sc_hd__xnor2_1
*I *731:Y O *D sky130_fd_sc_hd__xnor2_1
*CAP
1 *732:B 0.000680647
2 *731:Y 0.000680647
3 *732:B *624:A2 0
4 *732:B *733:B 0.000255565
5 *732:B *295:80 0.000368505
6 *732:A *732:B 0
7 *174:24 *732:B 0
*RES
1 *731:Y *732:B 32.7212 
*END

*D_NET *178 0.00427883
*CONN
*I *733:B I *D sky130_fd_sc_hd__nor2_1
*I *732:Y O *D sky130_fd_sc_hd__xnor2_1
*CAP
1 *733:B 0.00199818
2 *732:Y 0.00199818
3 *732:B *733:B 0.000255565
4 *835:D *733:B 2.69018e-05
*RES
1 *732:Y *733:B 22.4636 
*END

*D_NET *179 0.0206033
*CONN
*I *738:A I *D sky130_fd_sc_hd__xnor2_1
*I *624:A1 I *D sky130_fd_sc_hd__a211oi_1
*I *734:Y O *D sky130_fd_sc_hd__nand2_1
*CAP
1 *738:A 0
2 *624:A1 0.000649522
3 *734:Y 0.00570811
4 *179:16 0.00635763
5 *624:A1 *624:A2 0.000446521
6 *624:A1 *624:B1 3.79613e-05
7 *624:A1 *735:A 0.00140182
8 *624:A1 *738:B 0.00223507
9 *624:A1 *331:646 0.000131145
10 *179:16 *653:A2 0.000104991
11 *179:16 *716:B 0.000402551
12 *179:16 *738:B 0.00023527
13 *179:16 *293:42 0
14 *179:16 *293:124 0.000172567
15 *179:16 *331:79 0.000462845
16 *867:D *624:A1 0.000544746
17 *867:D *179:16 3.40466e-05
18 *888:A *179:16 0.0006933
19 *902:A *179:16 0
20 *150:10 *179:16 0.000985194
*RES
1 *734:Y *179:16 28.5591 
2 *179:16 *624:A1 20.1182 
3 *179:16 *738:A 13.8 
*END

*D_NET *180 0.00286346
*CONN
*I *624:A2 I *D sky130_fd_sc_hd__a211oi_1
*I *735:Y O *D sky130_fd_sc_hd__nand2_1
*CAP
1 *624:A2 0.000312966
2 *735:Y 0.000312966
3 *624:A2 *624:B1 0
4 *624:A2 *735:A 0.000901869
5 *624:A2 *735:B 2.80384e-05
6 *624:A2 *331:646 0.000493199
7 *624:A2 *355:12 0.000367904
8 *624:A1 *624:A2 0.000446521
9 *732:B *624:A2 0
10 *867:D *624:A2 0
*RES
1 *735:Y *624:A2 31.5091 
*END

*D_NET *181 0.0023026
*CONN
*I *624:B1 I *D sky130_fd_sc_hd__a211oi_1
*I *736:Y O *D sky130_fd_sc_hd__nor2_1
*CAP
1 *624:B1 0.000216172
2 *736:Y 0.000216172
3 *624:B1 *295:27 4.30064e-05
4 *624:B1 *295:72 7.7342e-05
5 *624:B1 *295:80 0.00012473
6 *624:B1 *331:644 0.000493199
7 *624:B1 *331:646 0.000493199
8 *624:A1 *624:B1 3.79613e-05
9 *624:A2 *624:B1 0
10 *867:D *624:B1 0.000300411
11 *77:14 *624:B1 0.000300411
*RES
1 *736:Y *624:B1 30.4939 
*END

*D_NET *182 0.00495497
*CONN
*I *738:B I *D sky130_fd_sc_hd__xnor2_1
*I *737:Y O *D sky130_fd_sc_hd__xnor2_1
*CAP
1 *738:B 4.14593e-05
2 *737:Y 4.14593e-05
3 *624:A1 *738:B 0.00223507
4 *867:D *738:B 0.00240172
5 *179:16 *738:B 0.00023527
*RES
1 *737:Y *738:B 31.3121 
*END

*D_NET *183 0.00307402
*CONN
*I *739:B I *D sky130_fd_sc_hd__nor2_1
*I *738:Y O *D sky130_fd_sc_hd__xnor2_1
*CAP
1 *739:B 0.0010715
2 *738:Y 0.0010715
3 *739:B *739:A 0.000562018
4 *834:D *739:B 0.000369003
*RES
1 *738:Y *739:B 22.797 
*END

*D_NET *184 0.0279834
*CONN
*I *744:A I *D sky130_fd_sc_hd__xnor2_1
*I *625:A1 I *D sky130_fd_sc_hd__a211oi_1
*I *740:Y O *D sky130_fd_sc_hd__nand2_1
*CAP
1 *744:A 0.00154823
2 *625:A1 0.00154823
3 *740:Y 0.00169567
4 *184:24 0.00169567
5 *744:A *632:A2 0.000363344
6 *744:A *632:B1 0.00024946
7 *744:A *632:B2 0.00200567
8 *744:A *634:A 6.86205e-05
9 *744:A *744:B 0.00023527
10 *744:A *745:B 0
11 *184:24 *625:C1 0.000493199
12 *184:24 *632:A2 0.000493199
13 *184:24 *689:B2 0.000287421
14 *184:24 *763:A2 0.00183315
15 *184:24 *819:CLK 0.000680933
16 *184:24 *845:CLK 0.00020428
17 *184:24 *884:A 0.00112577
18 *184:24 *920:A 0.00200274
19 *184:24 *298:66 0.00118069
20 *184:24 *298:70 0.000541394
21 *184:24 *309:33 0.00140182
22 *184:24 *322:10 0.00204266
23 *184:24 *347:12 0.000254244
24 *184:24 *369:219 0.00106852
25 *184:24 *369:232 0.000612839
26 *634:B *744:A 0.00038671
27 *812:D *184:24 0.00358643
28 *866:D *744:A 0.000161409
29 *866:D *184:24 8.67686e-05
30 *75:14 *184:24 0.000129019
*RES
1 *740:Y *184:24 42.3152 
2 *184:24 *625:A1 9.3 
3 *625:A1 *744:A 36.3121 
*END

*D_NET *185 0.0106722
*CONN
*I *625:A2 I *D sky130_fd_sc_hd__a211oi_1
*I *741:Y O *D sky130_fd_sc_hd__nand2_1
*CAP
1 *625:A2 0.0022982
2 *741:Y 0.0022982
3 *625:A2 *632:A1 2.80384e-05
4 *625:A2 *633:A 0
5 *625:A2 *741:A 0.000410249
6 *625:A2 *741:B 9.47164e-05
7 *625:A2 *755:B1 0.00106852
8 *625:A2 *831:CLK 0.000118255
9 *625:A2 *298:16 0.000620792
10 *625:A2 *354:12 0.000217081
11 *634:C *625:A2 0.00351815
*RES
1 *741:Y *625:A2 36.797 
*END

*D_NET *186 0.0168581
*CONN
*I *625:B1 I *D sky130_fd_sc_hd__a211oi_1
*I *742:Y O *D sky130_fd_sc_hd__nor2_1
*CAP
1 *625:B1 0.00447153
2 *742:Y 0.00447153
3 *625:B1 *742:A 0.000412151
4 *625:B1 *742:B 7.7342e-05
5 *625:B1 *744:B 3.8858e-05
6 *625:B1 *755:A2 0.000901869
7 *625:B1 *755:B1 0.00020428
8 *625:B1 *757:B 0.00056857
9 *625:B1 *278:14 0.000287421
10 *625:B1 *278:16 0.000162691
11 *625:B1 *351:18 0.00107061
12 *75:14 *625:B1 0.00393326
13 *77:14 *625:B1 0.000258038
*RES
1 *742:Y *625:B1 38.3121 
*END

*D_NET *187 0.00357378
*CONN
*I *744:B I *D sky130_fd_sc_hd__xnor2_1
*I *743:Y O *D sky130_fd_sc_hd__xnor2_1
*CAP
1 *744:B 0.000507215
2 *743:Y 0.000507215
3 *744:B *741:A 0.00106852
4 *744:B *745:B 8.60128e-05
5 *744:B *278:14 0.000167736
6 *744:B *351:18 2.35389e-05
7 *744:B *354:29 0.000939411
8 *625:B1 *744:B 3.8858e-05
9 *744:A *744:B 0.00023527
*RES
1 *743:Y *744:B 31.7818 
*END

*D_NET *188 0.00741627
*CONN
*I *745:B I *D sky130_fd_sc_hd__nor2_1
*I *744:Y O *D sky130_fd_sc_hd__xnor2_1
*CAP
1 *745:B 0.00097645
2 *744:Y 0.00097645
3 *745:B *634:A 0.000493199
4 *745:B *741:A 6.80933e-05
5 *745:B *754:B 0.0013332
6 *745:B *331:363 0.00151248
7 *745:B *351:18 0.00040192
8 *745:B *351:27 0.00149985
9 *745:B *354:29 6.86205e-05
10 *744:A *745:B 0
11 *744:B *745:B 8.60128e-05
*RES
1 *744:Y *745:B 36.9636 
*END

*D_NET *189 0.00578495
*CONN
*I *748:C I *D sky130_fd_sc_hd__and3_1
*I *747:B1 I *D sky130_fd_sc_hd__a21oi_1
*I *746:X O *D sky130_fd_sc_hd__xor2_1
*CAP
1 *748:C 3.41616e-05
2 *747:B1 6.05019e-05
3 *746:X 0.000406122
4 *189:10 0.000500785
5 *747:B1 *322:84 0.00117173
6 *747:B1 *322:99 0
7 *747:B1 *331:355 0.000287421
8 *747:B1 *331:357 3.79613e-05
9 *748:C *626:A2 0.00011508
10 *748:C *313:24 9.7145e-06
11 *189:10 *761:B 0.00058933
12 *189:10 *322:141 0.000100881
13 *189:10 *322:156 0.000167575
14 *830:D *189:10 0
15 *77:14 *747:B1 0.000901869
16 *77:14 *189:10 0.00140182
*RES
1 *746:X *189:10 17.4667 
2 *189:10 *747:B1 15.997 
3 *189:10 *748:C 13.9667 
*END

*D_NET *190 0.00317431
*CONN
*I *749:B I *D sky130_fd_sc_hd__nor3_1
*I *747:Y O *D sky130_fd_sc_hd__a21oi_1
*CAP
1 *749:B 0.000288227
2 *747:Y 0.000288227
3 *749:B *747:A2 0.00127313
4 *749:B *322:76 3.8858e-05
5 *749:B *322:84 5.58584e-05
6 *749:B *331:355 0.00099789
7 *749:B *331:407 9.61317e-05
8 *74:14 *749:B 0.000135986
*RES
1 *747:Y *749:B 31.1758 
*END

*D_NET *191 0.00158234
*CONN
*I *749:C I *D sky130_fd_sc_hd__nor3_1
*I *748:X O *D sky130_fd_sc_hd__and3_1
*CAP
1 *749:C 7.04909e-05
2 *748:X 7.04909e-05
3 *749:C *626:A2 0.000155232
4 *749:C *313:24 0.000792928
5 *749:C *331:349 0.000493199
*RES
1 *748:X *749:C 20.0242 
*END

*D_NET *192 0.00326111
*CONN
*I *751:B1 I *D sky130_fd_sc_hd__a21oi_1
*I *752:C I *D sky130_fd_sc_hd__and3_1
*I *750:X O *D sky130_fd_sc_hd__xor2_1
*CAP
1 *751:B1 6.49561e-05
2 *752:C 7.20128e-05
3 *750:X 0.000104002
4 *192:6 0.000240971
5 *751:B1 *629:A2 0.0003333
6 *751:B1 *752:B 3.79613e-05
7 *751:B1 *312:22 0.00106852
8 *751:B1 *369:193 0.000572784
9 *752:C *752:B 9.7145e-06
10 *752:C *753:C 1.67388e-05
11 *164:14 *752:C 0.000585462
12 *164:14 *192:6 0.000154684
*RES
1 *750:X *192:6 10.103 
2 *192:6 *752:C 10.4364 
3 *192:6 *751:B1 20.9212 
*END

*D_NET *193 0.00567831
*CONN
*I *753:B I *D sky130_fd_sc_hd__nor3_2
*I *751:Y O *D sky130_fd_sc_hd__a21oi_1
*CAP
1 *753:B 0.00157828
2 *751:Y 0.00157828
3 *753:B *629:A2 0
4 *753:B *722:B 0.000412151
5 *753:B *753:A 6.86205e-05
6 *753:B *753:C 0.000493199
7 *753:B *369:181 0.00106754
8 *753:B *369:187 0.000111717
9 *753:B *369:193 0.000128717
10 *164:14 *753:B 0.00023981
*RES
1 *751:Y *753:B 32.2515 
*END

*D_NET *194 0.00219306
*CONN
*I *753:C I *D sky130_fd_sc_hd__nor3_2
*I *752:X O *D sky130_fd_sc_hd__and3_1
*CAP
1 *753:C 0.000421487
2 *752:X 0.000421487
3 *753:C *369:181 0.000162691
4 *752:C *753:C 1.67388e-05
5 *753:B *753:C 0.000493199
6 *164:14 *753:C 0.000677452
*RES
1 *752:X *753:C 21.8576 
*END

*D_NET *195 0.0109302
*CONN
*I *755:B1 I *D sky130_fd_sc_hd__a21oi_1
*I *756:C I *D sky130_fd_sc_hd__and3_1
*I *754:X O *D sky130_fd_sc_hd__xor2_1
*CAP
1 *755:B1 0.000209177
2 *756:C 0.000264999
3 *754:X 6.24491e-05
4 *195:6 0.000536625
5 *755:B1 *632:A1 0.00024033
6 *755:B1 *755:A2 0.00200567
7 *755:B1 *757:B 0.0025564
8 *755:B1 *298:16 0.00314003
9 *755:B1 *322:99 0.00040192
10 *756:C *756:A 0.00011508
11 *195:6 *756:A 0.00012473
12 *625:A2 *755:B1 0.00106852
13 *625:B1 *755:B1 0.00020428
*RES
1 *754:X *195:6 9.75455 
2 *195:6 *756:C 10.997 
3 *195:6 *755:B1 25.6788 
*END

*D_NET *196 0.0105248
*CONN
*I *757:B I *D sky130_fd_sc_hd__nor3_1
*I *755:Y O *D sky130_fd_sc_hd__a21oi_1
*CAP
1 *757:B 0.00157999
2 *755:Y 0.00157999
3 *757:B *755:A2 0.000769759
4 *757:B *311:16 0.000666599
5 *757:B *311:18 0.00190177
6 *757:B *322:99 0.00040856
7 *757:B *331:363 0.000493199
8 *625:B1 *757:B 0.00056857
9 *755:B1 *757:B 0.0025564
*RES
1 *755:Y *757:B 35.8576 
*END

*D_NET *197 0.00477835
*CONN
*I *757:C I *D sky130_fd_sc_hd__nor3_1
*I *756:X O *D sky130_fd_sc_hd__and3_1
*CAP
1 *757:C 0.000427091
2 *756:X 0.000427091
3 *757:C *625:C1 0.000901379
4 *757:C *311:16 0.000818054
5 *757:C *311:18 6.86205e-05
6 *757:C *322:84 0.000162691
7 *757:C *331:357 0.000493199
8 *757:C *331:363 0.00124944
9 *830:D *757:C 0.000162691
10 *77:14 *757:C 6.80933e-05
*RES
1 *756:X *757:C 31.2061 
*END

*D_NET *198 0.00744237
*CONN
*I *760:C I *D sky130_fd_sc_hd__and3_1
*I *759:B1 I *D sky130_fd_sc_hd__a21oi_1
*I *758:X O *D sky130_fd_sc_hd__xor2_1
*CAP
1 *760:C 3.73978e-06
2 *759:B1 3.07174e-05
3 *758:X 0.000430397
4 *198:10 0.000464854
5 *759:B1 *761:B 0.000901379
6 *760:C *635:A2 0.00011508
7 *760:C *310:44 1.34508e-05
8 *760:C *331:407 0.000180839
9 *198:10 *635:B1 0
10 *198:10 *761:B 0.00306832
11 *830:D *759:B1 0.000900889
12 *830:D *198:10 0.00133271
*RES
1 *758:X *198:10 19.3455 
2 *198:10 *759:B1 15.1939 
3 *198:10 *760:C 13.9667 
*END

*D_NET *199 0.00893948
*CONN
*I *761:B I *D sky130_fd_sc_hd__nor3_1
*I *759:Y O *D sky130_fd_sc_hd__a21oi_1
*CAP
1 *761:B 0.000519192
2 *759:Y 0.000519192
3 *761:B *759:A2 0.000640477
4 *761:B *761:C 0.00223507
5 *761:B *299:33 0
6 *759:B1 *761:B 0.000901379
7 *830:D *761:B 0.000272173
8 *77:14 *761:B 0.000194357
9 *189:10 *761:B 0.00058933
10 *198:10 *761:B 0.00306832
*RES
1 *759:Y *761:B 35.9182 
*END

*D_NET *200 0.00317395
*CONN
*I *761:C I *D sky130_fd_sc_hd__nor3_1
*I *760:X O *D sky130_fd_sc_hd__and3_1
*CAP
1 *761:C 8.09106e-05
2 *760:X 8.09106e-05
3 *761:C *299:33 0
4 *761:B *761:C 0.00223507
5 *77:14 *761:C 0.000777064
*RES
1 *760:X *761:C 31.0545 
*END

*D_NET *201 0.00407071
*CONN
*I *764:C I *D sky130_fd_sc_hd__and3_1
*I *763:B1 I *D sky130_fd_sc_hd__a21oi_1
*I *762:X O *D sky130_fd_sc_hd__xor2_1
*CAP
1 *764:C 0.000137969
2 *763:B1 0.000374675
3 *762:X 0
4 *201:4 0.000512645
5 *763:B1 *762:A 9.61317e-05
6 *763:B1 *763:A2 0.00011508
7 *763:B1 *765:B 0.000223434
8 *763:B1 *920:A 0.000833249
9 *763:B1 *331:695 0
10 *763:B1 *344:6 0.000493199
11 *763:B1 *369:232 0.00040192
12 *764:C *765:C 0.000425602
13 *764:C *857:CLK 0
14 *764:C *369:243 0.000456802
*RES
1 *762:X *201:4 9.3 
2 *201:4 *763:B1 21.7091 
3 *201:4 *764:C 11.3455 
*END

*D_NET *202 0.00846102
*CONN
*I *765:B I *D sky130_fd_sc_hd__nor3_1
*I *763:Y O *D sky130_fd_sc_hd__a21oi_1
*CAP
1 *765:B 0.00342471
2 *763:Y 0.00342471
3 *765:B *739:A 0.000178223
4 *765:B *763:A2 2.35389e-05
5 *765:B *825:CLK 0.000224508
6 *765:B *331:695 5.94827e-05
7 *763:B1 *765:B 0.000223434
8 *825:D *765:B 3.11049e-05
9 *828:D *765:B 0.000871318
*RES
1 *763:Y *765:B 25.797 
*END

*D_NET *203 0.00602516
*CONN
*I *765:C I *D sky130_fd_sc_hd__nor3_1
*I *764:X O *D sky130_fd_sc_hd__and3_1
*CAP
1 *765:C 0.00179143
2 *764:X 0.00179143
3 *765:C *762:A 0.000287421
4 *765:C *764:B 0.000493199
5 *765:C *279:16 0
6 *765:C *295:6 0.000493199
7 *765:C *369:243 0.000102002
8 *764:C *765:C 0.000425602
9 *74:14 *765:C 0.000640878
*RES
1 *764:X *765:C 37.4485 
*END

*D_NET *204 0.00506074
*CONN
*I *768:C I *D sky130_fd_sc_hd__and3_1
*I *767:B1 I *D sky130_fd_sc_hd__a21oi_1
*I *766:X O *D sky130_fd_sc_hd__xor2_1
*CAP
1 *768:C 0.000243589
2 *767:B1 0
3 *766:X 0.000290727
4 *204:10 0.000534316
5 *768:C *768:A 0.000739798
6 *768:C *768:B 0.000817478
7 *768:C *769:B 0.000424139
8 *768:C *769:C 0.00011508
9 *768:C *331:298 0
10 *204:10 *271:12 0.00023527
11 *204:10 *271:27 0
12 *204:10 *322:49 0.000258038
13 *204:10 *331:298 0
14 *204:10 *331:320 0.000100881
15 *826:D *768:C 0.000400537
16 *827:D *768:C 0.000900889
*RES
1 *766:X *204:10 16.4212 
2 *204:10 *767:B1 13.8 
3 *204:10 *768:C 19.0121 
*END

*D_NET *205 0.00374389
*CONN
*I *769:B I *D sky130_fd_sc_hd__nor3_1
*I *767:Y O *D sky130_fd_sc_hd__a21oi_1
*CAP
1 *769:B 0.000757142
2 *767:Y 0.000757142
3 *769:B *615:A 0.00023478
4 *769:B *768:A 0.000162691
5 *769:B *313:18 0.000871318
6 *769:B *331:298 0
7 *768:C *769:B 0.000424139
8 *826:D *769:B 0.000100881
9 *827:D *769:B 0.000435797
*RES
1 *767:Y *769:B 32.3121 
*END

*D_NET *206 0.000828783
*CONN
*I *769:C I *D sky130_fd_sc_hd__nor3_1
*I *768:X O *D sky130_fd_sc_hd__and3_1
*CAP
1 *769:C 5.40906e-05
2 *768:X 5.40906e-05
3 *769:C *768:A 0.00012473
4 *768:C *769:C 0.00011508
5 *826:D *769:C 0.000480792
*RES
1 *768:X *769:C 19.6758 
*END

*D_NET *207 0.00425803
*CONN
*I *772:C I *D sky130_fd_sc_hd__and3_1
*I *771:B1 I *D sky130_fd_sc_hd__a21oi_1
*I *770:X O *D sky130_fd_sc_hd__xor2_1
*CAP
1 *772:C 0.000181811
2 *771:B1 0
3 *770:X 7.70673e-05
4 *207:8 0.000258878
5 *772:C *772:A 0.00112577
6 *772:C *773:B 0.00141904
7 *772:C *773:C 5.73903e-05
8 *772:C *322:229 0.000871318
9 *207:8 *322:229 7.7342e-05
10 *826:D *772:C 2.67149e-05
11 *826:D *207:8 0.000162691
*RES
1 *770:X *207:8 10.3758 
2 *207:8 *771:B1 9.3 
3 *207:8 *772:C 12.8455 
*END

*D_NET *208 0.00577273
*CONN
*I *773:B I *D sky130_fd_sc_hd__nor3_1
*I *771:Y O *D sky130_fd_sc_hd__a21oi_1
*CAP
1 *773:B 0.000157611
2 *771:Y 0.000157611
3 *773:B *773:C 0.000493199
4 *772:C *773:B 0.00141904
5 *826:D *773:B 0.00354527
*RES
1 *771:Y *773:B 22.2667 
*END

*D_NET *209 0.000798628
*CONN
*I *773:C I *D sky130_fd_sc_hd__nor3_1
*I *772:X O *D sky130_fd_sc_hd__and3_1
*CAP
1 *773:C 0.00012402
2 *772:X 0.00012402
3 *772:C *773:C 5.73903e-05
4 *773:B *773:C 0.000493199
*RES
1 *772:X *773:C 19.6758 
*END

*D_NET *210 0.00270454
*CONN
*I *775:B1 I *D sky130_fd_sc_hd__a21oi_1
*I *776:C I *D sky130_fd_sc_hd__and3_1
*I *774:X O *D sky130_fd_sc_hd__xor2_1
*CAP
1 *775:B1 0
2 *776:C 0.000195679
3 *774:X 0.000257627
4 *210:10 0.000453306
5 *776:C *322:139 0.00111792
6 *210:10 *293:86 0
7 *210:10 *305:53 0.000533279
8 *210:10 *345:12 0.000146728
*RES
1 *774:X *210:10 21.497 
2 *210:10 *776:C 10.3303 
3 *210:10 *775:B1 9.3 
*END

*D_NET *211 0.00198036
*CONN
*I *777:B I *D sky130_fd_sc_hd__nor3_1
*I *775:Y O *D sky130_fd_sc_hd__a21oi_1
*CAP
1 *777:B 0.000184541
2 *775:Y 0.000184541
3 *777:B *777:C 0.00020428
4 *777:B *313:18 0.000871318
5 *777:B *322:135 0.000300411
6 *825:D *777:B 0.00023527
*RES
1 *775:Y *777:B 29.5394 
*END

*D_NET *212 0.00277716
*CONN
*I *777:C I *D sky130_fd_sc_hd__nor3_1
*I *776:X O *D sky130_fd_sc_hd__and3_1
*CAP
1 *777:C 0.000393301
2 *776:X 0.000393301
3 *777:C *776:B 0.000231312
4 *777:C *293:86 0
5 *777:C *313:18 0.000493199
6 *777:C *331:345 0.000493199
7 *777:B *777:C 0.00020428
8 *825:D *777:C 0.00056857
*RES
1 *776:X *777:C 30.1606 
*END

*D_NET *213 0.00672832
*CONN
*I *779:B1 I *D sky130_fd_sc_hd__a21oi_1
*I *780:C I *D sky130_fd_sc_hd__and3_1
*I *778:X O *D sky130_fd_sc_hd__xor2_1
*CAP
1 *779:B1 0.000115713
2 *780:C 3.36547e-05
3 *778:X 0.000876483
4 *213:10 0.00102585
5 *779:B1 *650:A2 0.0007829
6 *779:B1 *650:B1 4.00549e-05
7 *779:B1 *780:B 0.00122842
8 *779:B1 *369:273 0.00056857
9 *779:B1 *369:282 0.00011367
10 *780:C *857:CLK 0.000180839
11 *213:10 *650:B1 0.000232318
12 *213:10 *780:B 0.00073522
13 *213:10 *781:B 0.00020428
14 *213:10 *268:14 0.000478634
15 *213:10 *331:525 0.000111717
*RES
1 *778:X *213:10 17.2091 
2 *213:10 *780:C 13.9667 
3 *213:10 *779:B1 16.103 
*END

*D_NET *214 0.00362935
*CONN
*I *781:B I *D sky130_fd_sc_hd__nor3_1
*I *779:Y O *D sky130_fd_sc_hd__a21oi_1
*CAP
1 *781:B 0.000439029
2 *779:Y 0.000439029
3 *781:B *780:B 0.00140182
4 *781:B *781:C 0.000897911
5 *781:B *268:14 0
6 *781:B *297:48 0
7 *781:B *343:20 0
8 *781:B *362:10 0
9 *781:B *369:273 4.30064e-05
10 *655:C *781:B 0
11 *824:D *781:B 0.00020428
12 *213:10 *781:B 0.00020428
*RES
1 *779:Y *781:B 32.2818 
*END

*D_NET *215 0.00288387
*CONN
*I *781:C I *D sky130_fd_sc_hd__nor3_1
*I *780:X O *D sky130_fd_sc_hd__and3_1
*CAP
1 *781:C 0.00034356
2 *780:X 0.00034356
3 *781:C *857:CLK 0.000100881
4 *781:C *268:14 0
5 *781:C *297:48 0
6 *781:C *331:79 0.000136187
7 *781:C *331:525 0.000493199
8 *781:B *781:C 0.000897911
9 *824:D *781:C 0.00056857
*RES
1 *780:X *781:C 30.1606 
*END

*D_NET *216 0.00539467
*CONN
*I *783:B1 I *D sky130_fd_sc_hd__a21oi_1
*I *784:C I *D sky130_fd_sc_hd__and3_1
*I *782:X O *D sky130_fd_sc_hd__xor2_1
*CAP
1 *783:B1 7.02205e-05
2 *784:C 0
3 *782:X 8.3138e-05
4 *216:12 0.000153359
5 *783:B1 *785:C 0.000509937
6 *783:B1 *303:25 0.00118482
7 *783:B1 *369:303 0.00144672
8 *783:B1 *369:316 0.000742658
9 *216:12 *653:A2 0.000255565
10 *216:12 *785:C 2.65031e-05
11 *216:12 *303:25 9.7145e-06
12 *216:12 *369:299 0.000493199
13 *216:12 *369:303 0.000418841
*RES
1 *782:X *216:12 11.3455 
2 *216:12 *784:C 9.3 
3 *216:12 *783:B1 12.2545 
*END

*D_NET *217 0.00170215
*CONN
*I *785:B I *D sky130_fd_sc_hd__nor3_1
*I *783:Y O *D sky130_fd_sc_hd__a21oi_1
*CAP
1 *785:B 0.000226357
2 *783:Y 0.000226357
3 *785:B *303:25 0.00124944
*RES
1 *783:Y *785:B 19.7515 
*END

*D_NET *218 0.0010676
*CONN
*I *785:C I *D sky130_fd_sc_hd__nor3_1
*I *784:X O *D sky130_fd_sc_hd__and3_1
*CAP
1 *785:C 5.81747e-05
2 *784:X 5.81747e-05
3 *785:C *303:25 0.000414809
4 *783:B1 *785:C 0.000509937
5 *216:12 *785:C 2.65031e-05
*RES
1 *784:X *785:C 19.6758 
*END

*D_NET *219 0.0052579
*CONN
*I *787:B1 I *D sky130_fd_sc_hd__a21oi_1
*I *788:C I *D sky130_fd_sc_hd__and3_1
*I *786:X O *D sky130_fd_sc_hd__xor2_1
*CAP
1 *787:B1 1.16221e-05
2 *788:C 6.46207e-06
3 *786:X 8.73294e-05
4 *219:10 0.000105414
5 *787:B1 *787:A1 0.000756238
6 *788:C *787:A1 0.000739798
7 *219:10 *855:CLK 0.00123517
8 *219:10 *302:23 0.00056857
9 *219:10 *322:399 0.000136187
10 *219:10 *335:16 0
11 *911:A *787:B1 0.000871318
12 *911:A *788:C 0.000739798
*RES
1 *786:X *219:10 20.2091 
2 *219:10 *788:C 9.98182 
3 *219:10 *787:B1 10.103 
*END

*D_NET *220 0.00747172
*CONN
*I *789:B I *D sky130_fd_sc_hd__nor3_1
*I *787:Y O *D sky130_fd_sc_hd__a21oi_1
*CAP
1 *789:B 0.00108281
2 *787:Y 0.00108281
3 *789:B *787:A2 0.00012473
4 *789:B *789:C 0.00095733
5 *789:B *326:10 0.00223507
6 *822:D *789:B 0.00190177
7 *911:A *789:B 1.43476e-05
8 *914:A *789:B 7.28588e-05
*RES
1 *787:Y *789:B 32.903 
*END

*D_NET *221 0.00543068
*CONN
*I *789:C I *D sky130_fd_sc_hd__nor3_1
*I *788:X O *D sky130_fd_sc_hd__and3_1
*CAP
1 *789:C 0.000403273
2 *788:X 0.000403273
3 *789:C *658:A 0.000493199
4 *789:C *696:A 0.00012473
5 *789:C *787:A2 0.00162756
6 *789:C *855:CLK 0.000275747
7 *789:C *302:23 0
8 *789:B *789:C 0.00095733
9 *822:D *789:C 0.000845158
10 *855:D *789:C 0.000300411
*RES
1 *788:X *789:C 33.6152 
*END

*D_NET *222 0.0162802
*CONN
*I *792:C I *D sky130_fd_sc_hd__and3_1
*I *791:B1 I *D sky130_fd_sc_hd__a21oi_1
*I *790:X O *D sky130_fd_sc_hd__xor2_1
*CAP
1 *792:C 9.29145e-05
2 *791:B1 0.000355092
3 *790:X 0.000760572
4 *222:18 0.00120858
5 *791:B1 *793:C 0.00397019
6 *791:B1 *301:81 0.000136187
7 *791:B1 *310:32 0.000985194
8 *791:B1 *322:422 0.00240172
9 *791:B1 *322:439 0
10 *792:C *797:C 0
11 *792:C *331:269 0
12 *222:18 *662:A2 0
13 *222:18 *822:CLK 0.000493199
14 *222:18 *301:81 0
15 *222:18 *326:10 0.00106852
16 *222:18 *335:16 0.00200567
17 *821:D *791:B1 0.000414367
18 *822:D *222:18 0.000908307
19 *918:A *792:C 6.94962e-06
20 *918:A *222:18 0.000979532
21 *919:A *222:18 0.000493199
*RES
1 *790:X *222:18 25.1636 
2 *222:18 *791:B1 26.5273 
3 *222:18 *792:C 10.0121 
*END

*D_NET *223 0.002281
*CONN
*I *793:B I *D sky130_fd_sc_hd__nor3_1
*I *791:Y O *D sky130_fd_sc_hd__a21oi_1
*CAP
1 *793:B 8.50507e-05
2 *791:Y 8.50507e-05
3 *793:B *793:A 0.000830965
4 *793:B *793:C 0.000996261
5 *793:B *305:36 0.000158944
6 *793:B *310:32 0.00012473
7 *909:A *793:B 0
*RES
1 *791:Y *793:B 20.7212 
*END

*D_NET *224 0.00975496
*CONN
*I *793:C I *D sky130_fd_sc_hd__nor3_1
*I *792:X O *D sky130_fd_sc_hd__and3_1
*CAP
1 *793:C 0.000521426
2 *792:X 0.000521426
3 *793:C *659:B1 0.000151945
4 *793:C *791:A1 0.000612839
5 *793:C *793:A 0.00012473
6 *793:C *301:81 0.00123517
7 *793:C *310:32 0.000871318
8 *793:C *322:439 0.00010214
9 *793:C *335:16 0.000493199
10 *793:C *336:29 0.000154317
11 *791:B1 *793:C 0.00397019
12 *793:B *793:C 0.000996261
*RES
1 *792:X *793:C 35.6 
*END

*D_NET *225 0.00551907
*CONN
*I *795:B1 I *D sky130_fd_sc_hd__a21oi_1
*I *796:C I *D sky130_fd_sc_hd__and3_1
*I *794:X O *D sky130_fd_sc_hd__xor2_1
*CAP
1 *795:B1 0
2 *796:C 5.51526e-05
3 *794:X 0.000481043
4 *225:12 0.000536195
5 *796:C *796:A 0
6 *796:C *796:B 0.000385505
7 *796:C *322:330 0.00111792
8 *225:12 *794:A 0
9 *225:12 *797:B 4.30064e-05
10 *225:12 *797:C 0.00227107
11 *225:12 *331:269 0.000493199
12 *225:12 *331:282 0
13 *225:12 *339:16 0.000135986
*RES
1 *794:X *225:12 23.2394 
2 *225:12 *796:C 10.6939 
3 *225:12 *795:B1 9.3 
*END

*D_NET *226 0.00496591
*CONN
*I *797:B I *D sky130_fd_sc_hd__nor3_1
*I *795:Y O *D sky130_fd_sc_hd__a21oi_1
*CAP
1 *797:B 0.000721176
2 *795:Y 0.000721176
3 *797:B *796:B 0.00024946
4 *797:B *797:C 0.000805026
5 *797:B *335:16 0.000387058
6 *797:B *339:16 0.00056857
7 *797:B *348:18 0.00073522
8 *820:D *797:B 0.00073522
9 *225:12 *797:B 4.30064e-05
*RES
1 *795:Y *797:B 32.2061 
*END

*D_NET *227 0.00609515
*CONN
*I *797:C I *D sky130_fd_sc_hd__nor3_1
*I *796:X O *D sky130_fd_sc_hd__and3_1
*CAP
1 *797:C 0.000300714
2 *796:X 0.000300714
3 *797:C *796:B 0.000871318
4 *797:C *331:269 7.7342e-05
5 *797:C *339:16 0.00073522
6 *792:C *797:C 0
7 *797:B *797:C 0.000805026
8 *820:D *797:C 0.000733749
9 *225:12 *797:C 0.00227107
*RES
1 *796:X *797:C 32.6758 
*END

*D_NET *228 0.00888454
*CONN
*I *799:B1 I *D sky130_fd_sc_hd__a21oi_1
*I *800:C I *D sky130_fd_sc_hd__and3_1
*I *798:X O *D sky130_fd_sc_hd__xor2_1
*CAP
1 *799:B1 0
2 *800:C 7.28049e-05
3 *798:X 0.000670349
4 *228:14 0.000743154
5 *800:C *800:A 0.00111792
6 *800:C *801:C 0.000739798
7 *228:14 *665:B1 0.00012473
8 *228:14 *798:B 0.00124944
9 *228:14 *799:A1 0.000871318
10 *228:14 *800:A 0.000756238
11 *228:14 *800:B 3.8858e-05
12 *228:14 *293:177 0
13 *228:14 *307:14 0.00140182
14 *228:14 *324:24 0.000111717
15 *228:14 *334:22 0.000493199
16 *667:B *228:14 0.000493199
*RES
1 *798:X *228:14 24.1636 
2 *228:14 *800:C 10.3303 
3 *228:14 *799:B1 9.3 
*END

*D_NET *229 0.00292386
*CONN
*I *801:B I *D sky130_fd_sc_hd__nor3_1
*I *799:Y O *D sky130_fd_sc_hd__a21oi_1
*CAP
1 *801:B 0.000343267
2 *799:Y 0.000343267
3 *801:B *800:A 0.000661611
4 *801:B *800:B 0.00124944
5 *801:B *801:C 0.000326279
*RES
1 *799:Y *801:B 21.4939 
*END

*D_NET *230 0.00408539
*CONN
*I *801:C I *D sky130_fd_sc_hd__nor3_1
*I *800:X O *D sky130_fd_sc_hd__and3_1
*CAP
1 *801:C 0.00123306
2 *800:X 0.00123306
3 *801:C *800:A 0.000515231
4 *800:C *801:C 0.000739798
5 *801:B *801:C 0.000326279
6 *819:D *801:C 3.79613e-05
*RES
1 *800:X *801:C 22.2212 
*END

*D_NET *231 0.00325398
*CONN
*I *803:B1 I *D sky130_fd_sc_hd__a21oi_1
*I *804:C I *D sky130_fd_sc_hd__and3_1
*I *802:X O *D sky130_fd_sc_hd__xor2_1
*CAP
1 *803:B1 3.46386e-06
2 *804:C 6.32376e-06
3 *802:X 0.000162835
4 *231:10 0.000172623
5 *803:B1 *369:171 0.000378119
6 *804:C *369:171 0.000739798
7 *231:10 *668:A2 0
8 *1:18 *231:10 0.000557817
9 *164:14 *803:B1 0.000493199
10 *164:14 *804:C 0.000739798
*RES
1 *802:X *231:10 20.2091 
2 *231:10 *804:C 9.98182 
3 *231:10 *803:B1 9.75455 
*END

*D_NET *232 0.00822461
*CONN
*I *805:B I *D sky130_fd_sc_hd__nor3_1
*I *803:Y O *D sky130_fd_sc_hd__a21oi_1
*CAP
1 *805:B 0.000158791
2 *803:Y 0.000158791
3 *805:B *671:B2 0.000154684
4 *805:B *805:A 0.000493199
5 *805:B *805:C 0.00483033
6 *805:B *807:A1 0.000544746
7 *805:B *296:24 0.000412151
8 *805:B *331:561 0.000493199
9 *805:B *367:8 0.000901379
10 *805:B *367:27 7.7342e-05
*RES
1 *803:Y *805:B 33.9485 
*END

*D_NET *233 0.00691961
*CONN
*I *805:C I *D sky130_fd_sc_hd__nor3_1
*I *804:X O *D sky130_fd_sc_hd__and3_1
*CAP
1 *805:C 0.00078859
2 *804:X 0.00078859
3 *805:C *331:559 0
4 *805:C *331:561 0.00012473
5 *805:B *805:C 0.00483033
6 *1:18 *805:C 0.000387373
*RES
1 *804:X *805:C 34.0545 
*END

*D_NET *234 0.00756349
*CONN
*I *807:B1 I *D sky130_fd_sc_hd__a21oi_1
*I *586:C I *D sky130_fd_sc_hd__and3_1
*I *806:X O *D sky130_fd_sc_hd__xor2_1
*CAP
1 *807:B1 4.96771e-05
2 *586:C 0.00074968
3 *806:X 0
4 *234:6 0.000799357
5 *586:C *586:A 0.000937077
6 *586:C *672:A 6.86205e-05
7 *586:C *806:B 2.80384e-05
8 *586:C *292:25 0.000901869
9 *586:C *296:24 0
10 *586:C *333:32 0.000107948
11 *586:C *333:34 0.00023527
12 *807:B1 *806:B 0.000824063
13 *807:B1 *807:A1 0.000162691
14 *807:B1 *296:24 0.000162691
15 *807:B1 *333:34 0.00139986
16 *807:B1 *367:8 0.00056808
17 *817:D *586:C 0.00056857
*RES
1 *806:X *234:6 13.8 
2 *234:6 *586:C 16.6636 
3 *234:6 *807:B1 16.4212 
*END

*D_NET *235 0.00251747
*CONN
*I *587:B I *D sky130_fd_sc_hd__nor3_1
*I *807:Y O *D sky130_fd_sc_hd__a21oi_1
*CAP
1 *587:B 0.000277404
2 *807:Y 0.000277404
3 *587:B *296:24 0.000493199
4 *587:B *329:22 0.000734729
5 *587:B *333:34 0.000734729
*RES
1 *807:Y *587:B 29.1909 
*END

*D_NET *236 0.00408367
*CONN
*I *587:C I *D sky130_fd_sc_hd__nor3_1
*I *586:X O *D sky130_fd_sc_hd__and3_1
*CAP
1 *587:C 0.00044674
2 *586:X 0.00044674
3 *587:C *586:A 0.000287421
4 *587:C *587:A 0.000287421
5 *587:C *671:A2 0.000871318
6 *587:C *674:B1 0.00073522
7 *587:C *674:B2 0.00073522
8 *587:C *675:B 0.000162691
9 *587:C *329:22 4.30064e-05
10 *676:B *587:C 6.7893e-05
*RES
1 *586:X *587:C 31.297 
*END

*D_NET *237 0.00880679
*CONN
*I *589:B1 I *D sky130_fd_sc_hd__a21oi_1
*I *590:C I *D sky130_fd_sc_hd__and3_1
*I *588:X O *D sky130_fd_sc_hd__xor2_1
*CAP
1 *589:B1 0.000128341
2 *590:C 0.000210488
3 *588:X 0.000323588
4 *237:8 0.000662417
5 *589:B1 *589:A2 0.000493199
6 *589:B1 *590:A 0.000493199
7 *589:B1 *591:B 0.000901869
8 *589:B1 *333:32 0.000871318
9 *590:C *590:A 0.000180839
10 *590:C *816:CLK 0
11 *237:8 *816:CLK 0.000493199
12 *237:8 *333:32 0.00389627
13 *816:D *237:8 0.00015207
*RES
1 *588:X *237:8 13.5121 
2 *237:8 *590:C 19.603 
3 *237:8 *589:B1 20.9515 
*END

*D_NET *238 0.0065209
*CONN
*I *591:B I *D sky130_fd_sc_hd__nor3_1
*I *589:Y O *D sky130_fd_sc_hd__a21oi_1
*CAP
1 *591:B 0.000444549
2 *589:Y 0.000444549
3 *591:B *589:A2 0.000164225
4 *591:B *591:A 0.000287421
5 *591:B *591:C 0.00339386
6 *591:B *681:B 0.000162691
7 *591:B *710:B 0.000228534
8 *589:B1 *591:B 0.000901869
9 *682:C *591:B 0.000493199
10 *816:D *591:B 0
*RES
1 *589:Y *591:B 35.1909 
*END

*D_NET *239 0.0117271
*CONN
*I *591:C I *D sky130_fd_sc_hd__nor3_1
*I *590:X O *D sky130_fd_sc_hd__and3_1
*CAP
1 *591:C 0.00251835
2 *590:X 0.00251835
3 *591:C *589:A2 2.52979e-05
4 *591:C *591:A 7.7342e-05
5 *591:C *695:B_N 0.000817119
6 *591:C *848:CLK 0.000364539
7 *591:C *328:16 2.80384e-05
8 *591:C *369:14 0.000734729
9 *591:B *591:C 0.00339386
10 *682:C *591:C 0.00124944
*RES
1 *590:X *591:C 37.3121 
*END

*D_NET *240 0.0143447
*CONN
*I *593:B1 I *D sky130_fd_sc_hd__a21oi_1
*I *594:C I *D sky130_fd_sc_hd__and3_1
*I *592:X O *D sky130_fd_sc_hd__xor2_1
*CAP
1 *593:B1 0.000378646
2 *594:C 0.00145129
3 *592:X 0.000998708
4 *240:10 0.00282865
5 *593:B1 *695:B_N 0
6 *593:B1 *327:40 0.000619672
7 *593:B1 *369:10 0
8 *593:B1 *369:59 0
9 *594:C *728:A 0.000937077
10 *594:C *369:36 0.000871318
11 *594:C *369:43 0.00124944
12 *240:10 *592:A 0.000178223
13 *240:10 *677:B1 0.000748826
14 *240:10 *677:B2 0.00290167
15 *240:10 *678:A 0.000232318
16 *240:10 *678:B 6.86205e-05
17 *240:10 *695:B_N 0
18 *240:10 *290:10 0.000340466
19 *240:10 *327:40 8.58863e-05
20 *240:10 *333:32 5.19727e-05
21 *240:10 *365:21 0.00040192
*RES
1 *592:X *240:10 20.8152 
2 *240:10 *594:C 16.4061 
3 *240:10 *593:B1 17.5121 
*END

*D_NET *241 0.00708849
*CONN
*I *595:B I *D sky130_fd_sc_hd__nor3_1
*I *593:Y O *D sky130_fd_sc_hd__a21oi_1
*CAP
1 *595:B 0.000714846
2 *593:Y 0.000714846
3 *595:B *596:A 0.000287421
4 *595:B *243:20 0.000541394
5 *595:B *331:116 0.000871318
6 *595:B *369:74 6.23969e-05
7 *898:A *595:B 0.00389627
*RES
1 *593:Y *595:B 25.7818 
*END

*D_NET *242 0.00132129
*CONN
*I *595:C I *D sky130_fd_sc_hd__nor3_1
*I *594:X O *D sky130_fd_sc_hd__and3_1
*CAP
1 *595:C 2.58018e-05
2 *594:X 2.58018e-05
3 *595:C *681:A 0.000901379
4 *174:18 *595:C 0.000368304
*RES
1 *594:X *595:C 28.9939 
*END

*D_NET *243 0.0094406
*CONN
*I *598:C I *D sky130_fd_sc_hd__and3_1
*I *597:B1 I *D sky130_fd_sc_hd__a21oi_1
*I *596:X O *D sky130_fd_sc_hd__xor2_1
*CAP
1 *598:C 0.000128755
2 *597:B1 0
3 *596:X 0.000832235
4 *243:20 0.00096099
5 *598:C *599:B 0.000666599
6 *598:C *599:C 0.000180839
7 *598:C *328:16 0.000734729
8 *243:20 *596:A 0.000871318
9 *243:20 *599:B 0.000151945
10 *243:20 *327:34 6.18848e-05
11 *243:20 *328:16 0.000151945
12 *243:20 *329:18 0.000591093
13 *243:20 *369:74 0.000493199
14 *595:B *243:20 0.000541394
15 *901:A *243:20 0.00237406
16 *908:A *243:20 0.000699612
*RES
1 *596:X *243:20 25.5803 
2 *243:20 *597:B1 13.8 
3 *243:20 *598:C 15.103 
*END

*D_NET *244 0.0054756
*CONN
*I *599:B I *D sky130_fd_sc_hd__nor3_1
*I *597:Y O *D sky130_fd_sc_hd__a21oi_1
*CAP
1 *599:B 0.000239085
2 *597:Y 0.000239085
3 *599:B *598:A 0.000318105
4 *599:B *599:C 0.000944507
5 *599:B *722:B 6.86205e-05
6 *599:B *327:34 6.86205e-05
7 *599:B *328:16 0.000533911
8 *599:B *331:107 0.000132814
9 *598:C *599:B 0.000666599
10 *901:A *599:B 0.000484755
11 *174:18 *599:B 0.00162756
12 *243:20 *599:B 0.000151945
*RES
1 *597:Y *599:B 32.3424 
*END

*D_NET *245 0.00459762
*CONN
*I *599:C I *D sky130_fd_sc_hd__nor3_1
*I *598:X O *D sky130_fd_sc_hd__and3_1
*CAP
1 *599:C 0.00119768
2 *598:X 0.00119768
3 *599:C *706:A1 0.000105514
4 *599:C *327:34 0.00075991
5 *598:C *599:C 0.000180839
6 *599:B *599:C 0.000944507
7 *174:18 *599:C 0.000211498
*RES
1 *598:X *599:C 23.2667 
*END

*D_NET *246 0.00663266
*CONN
*I *601:B1 I *D sky130_fd_sc_hd__a21oi_1
*I *602:C I *D sky130_fd_sc_hd__and3_1
*I *600:X O *D sky130_fd_sc_hd__xor2_1
*CAP
1 *601:B1 0
2 *602:C 0.000133008
3 *600:X 0.000632777
4 *246:20 0.000765785
5 *602:C *602:B 0.00149604
6 *602:C *603:C 0.000739798
7 *246:20 *601:A1 0.000151455
8 *246:20 *293:154 0
9 *246:20 *314:20 0.000493199
10 *246:20 *325:16 0.000985194
11 *246:20 *329:18 0.000543432
12 *246:20 *369:106 0
13 *246:20 *369:112 0
14 *33:27 *246:20 0.000591093
15 *164:14 *246:20 0.000100881
*RES
1 *600:X *246:20 28.1578 
2 *246:20 *602:C 10.6788 
3 *246:20 *601:B1 9.3 
*END

*D_NET *247 0.0056562
*CONN
*I *603:B I *D sky130_fd_sc_hd__nor3_1
*I *601:Y O *D sky130_fd_sc_hd__a21oi_1
*CAP
1 *603:B 0.000386766
2 *601:Y 0.000386766
3 *603:B *602:B 0.000493199
4 *603:B *309:18 0.000871318
5 *174:18 *603:B 0.00351815
*RES
1 *601:Y *603:B 21.8424 
*END

*D_NET *248 0.00535693
*CONN
*I *603:C I *D sky130_fd_sc_hd__nor3_1
*I *602:X O *D sky130_fd_sc_hd__and3_1
*CAP
1 *603:C 0.00168461
2 *602:X 0.00168461
3 *603:C *602:A 0.000871318
4 *603:C *602:B 0.000168114
5 *602:C *603:C 0.000739798
6 *174:18 *603:C 0.000208487
*RES
1 *602:X *603:C 22.1152 
*END

*D_NET *249 0.00421574
*CONN
*I *605:B1 I *D sky130_fd_sc_hd__a21oi_1
*I *606:C I *D sky130_fd_sc_hd__and3_1
*I *604:X O *D sky130_fd_sc_hd__xor2_1
*CAP
1 *605:B1 0
2 *606:C 7.09189e-05
3 *604:X 0.000399122
4 *249:10 0.000470041
5 *606:C *606:A 0.00111792
6 *606:C *607:C 0.000739798
7 *249:10 *686:A1 0.000777064
8 *249:10 *852:CLK 0
9 *249:10 *331:298 0
10 *688:B *249:10 0.000640878
11 *812:D *249:10 0
*RES
1 *604:X *249:10 23.0424 
2 *249:10 *606:C 10.3303 
3 *249:10 *605:B1 9.3 
*END

*D_NET *250 0.00504826
*CONN
*I *607:B I *D sky130_fd_sc_hd__nor3_1
*I *605:Y O *D sky130_fd_sc_hd__a21oi_1
*CAP
1 *607:B 0.000329395
2 *605:Y 0.000329395
3 *607:B *606:B 0.00124944
4 *607:B *331:290 0.00226871
5 *607:B *331:320 0.000871318
*RES
1 *605:Y *607:B 21.4939 
*END

*D_NET *251 0.00501892
*CONN
*I *607:C I *D sky130_fd_sc_hd__nor3_1
*I *606:X O *D sky130_fd_sc_hd__and3_1
*CAP
1 *607:C 0.00163673
2 *606:X 0.00163673
3 *607:C *606:A 0.000292844
4 *607:C *331:290 7.7342e-05
5 *607:C *331:320 0.000635476
6 *606:C *607:C 0.000739798
*RES
1 *606:X *607:C 22.1152 
*END

*D_NET *252 0.00349799
*CONN
*I *609:B1 I *D sky130_fd_sc_hd__a21oi_1
*I *610:C I *D sky130_fd_sc_hd__and3_1
*I *608:X O *D sky130_fd_sc_hd__xor2_1
*CAP
1 *609:B1 9.61037e-06
2 *610:C 5.08715e-06
3 *608:X 0.000172417
4 *252:12 0.000187115
5 *609:B1 *322:68 0.000756238
6 *609:B1 *331:341 0.000871318
7 *610:C *322:68 0.000361679
8 *610:C *331:341 0.000361679
9 *252:12 *286:10 6.07149e-05
10 *252:12 *322:76 0.000189734
11 *252:12 *322:135 1.77085e-05
12 *252:12 *323:31 0.000504691
13 *825:D *252:12 0
*RES
1 *608:X *252:12 20.6636 
2 *252:12 *610:C 9.63333 
3 *252:12 *609:B1 10.103 
*END

*D_NET *253 0.0010705
*CONN
*I *611:B I *D sky130_fd_sc_hd__nor3_1
*I *609:Y O *D sky130_fd_sc_hd__a21oi_1
*CAP
1 *611:B 1.7433e-05
2 *609:Y 1.7433e-05
3 *611:B *611:C 0.00073522
4 *611:B *331:441 0.000300411
*RES
1 *609:Y *611:B 28.7364 
*END

*D_NET *254 0.00116007
*CONN
*I *611:C I *D sky130_fd_sc_hd__nor3_1
*I *610:X O *D sky130_fd_sc_hd__and3_1
*CAP
1 *611:C 0.000128836
2 *610:X 0.000128836
3 *611:C *610:B 2.80384e-05
4 *611:C *305:53 1.77085e-05
5 *611:C *322:135 0
6 *611:C *331:441 2.52979e-05
7 *611:C *331:449 9.61317e-05
8 *611:B *611:C 0.00073522
*RES
1 *610:X *611:C 29.2515 
*END

*D_NET *255 0.00424155
*CONN
*I *613:B1 I *D sky130_fd_sc_hd__a21oi_1
*I *614:C I *D sky130_fd_sc_hd__and3_1
*I *612:X O *D sky130_fd_sc_hd__xor2_1
*CAP
1 *613:B1 0.000145151
2 *614:C 7.79715e-05
3 *612:X 0.000442599
4 *255:8 0.000665721
5 *613:B1 *614:B 0.000151945
6 *613:B1 *283:10 0
7 *613:B1 *319:22 0.000374513
8 *614:C *612:B 0.000103595
9 *614:C *614:B 6.86205e-05
10 *614:C *615:B 8.60128e-05
11 *614:C *703:A2 0.000695145
12 *614:C *322:276 0.000558958
13 *255:8 *305:38 0.000871318
*RES
1 *612:X *255:8 14.603 
2 *255:8 *614:C 15.4515 
3 *255:8 *613:B1 15.4515 
*END

*D_NET *256 0.00592063
*CONN
*I *615:B I *D sky130_fd_sc_hd__nor3_1
*I *613:Y O *D sky130_fd_sc_hd__a21oi_1
*CAP
1 *615:B 0.000905478
2 *613:Y 0.000905478
3 *615:B *615:C 0.00073522
4 *615:B *703:A2 0.000485245
5 *615:B *310:32 0.00124944
6 *615:B *319:22 0.000485245
7 *615:B *322:276 0.00106852
8 *615:B *346:18 0
9 *614:C *615:B 8.60128e-05
10 *646:B *615:B 0
11 *646:C *615:B 0
*RES
1 *613:Y *615:B 32.2061 
*END

*D_NET *257 0.00249685
*CONN
*I *615:C I *D sky130_fd_sc_hd__nor3_1
*I *614:X O *D sky130_fd_sc_hd__and3_1
*CAP
1 *615:C 0.000549084
2 *614:X 0.000549084
3 *615:C *645:A 0
4 *615:C *645:B 0
5 *615:C *322:276 0.000493199
6 *615:B *615:C 0.00073522
7 *646:B *615:C 0
8 *646:C *615:C 0.000146728
9 *810:D *615:C 2.35389e-05
*RES
1 *614:X *615:C 30.3576 
*END

*D_NET *258 0.00484222
*CONN
*I *618:C I *D sky130_fd_sc_hd__and3_1
*I *617:B1 I *D sky130_fd_sc_hd__a21oi_1
*I *616:X O *D sky130_fd_sc_hd__xor2_1
*CAP
1 *618:C 0
2 *617:B1 0.000282085
3 *616:X 0.000282031
4 *258:8 0.000564116
5 *617:B1 *617:A1 2.80384e-05
6 *617:B1 *619:A 0.000151455
7 *617:B1 *619:B 0.000812562
8 *617:B1 *619:C 0.000493199
9 *617:B1 *809:CLK 0.00024033
10 *617:B1 *302:10 0.000238126
11 *617:B1 *328:16 0.000257659
12 *258:8 *616:A 0.000871318
13 *258:8 *619:C 0.000128103
14 *809:D *617:B1 0.000493199
*RES
1 *616:X *258:8 11.247 
2 *258:8 *617:B1 22.3076 
3 *258:8 *618:C 9.3 
*END

*D_NET *259 0.0020632
*CONN
*I *619:B I *D sky130_fd_sc_hd__nor3_1
*I *617:Y O *D sky130_fd_sc_hd__a21oi_1
*CAP
1 *619:B 0.000374787
2 *617:Y 0.000374787
3 *619:B *617:A2 0.000162691
4 *619:B *619:C 3.79613e-05
5 *619:B *328:16 0.000300411
6 *617:B1 *619:B 0.000812562
*RES
1 *617:Y *619:B 29.6455 
*END

*D_NET *260 0.000860378
*CONN
*I *619:C I *D sky130_fd_sc_hd__nor3_1
*I *618:X O *D sky130_fd_sc_hd__and3_1
*CAP
1 *619:C 0.000100557
2 *618:X 0.000100557
3 *617:B1 *619:C 0.000493199
4 *619:B *619:C 3.79613e-05
5 *258:8 *619:C 0.000128103
*RES
1 *618:X *619:C 19.6758 
*END

*D_NET *261 0.00941956
*CONN
*I *699:A I *D sky130_fd_sc_hd__xnor2_1
*I *698:A I *D sky130_fd_sc_hd__nor2_1
*I *697:A I *D sky130_fd_sc_hd__nand2_1
*I *841:Q O *D sky130_fd_sc_hd__dfxtp_1
*CAP
1 *699:A 0.000121025
2 *698:A 0
3 *697:A 8.77346e-05
4 *841:Q 0.000114413
5 *261:10 0.000445971
6 *261:8 0.000593674
7 *697:A *682:A 6.2085e-05
8 *697:A *323:16 0.000566145
9 *697:A *332:20 0.00148471
10 *697:A *337:12 2.80384e-05
11 *261:10 *323:16 0.000108148
12 *700:B *699:A 0.000536881
13 *709:B1 *261:8 0.000833249
14 *709:B1 *261:10 0.00240172
15 *887:A *699:A 0.00078634
16 *900:A *697:A 0.00124944
17 *906:A *697:A 0
18 *906:A *261:10 0
*RES
1 *841:Q *261:8 15.1939 
2 *261:8 *261:10 4.22727 
3 *261:10 *697:A 25.1939 
4 *261:10 *698:A 13.8 
5 *261:8 *699:A 15.997 
*END

*D_NET *262 0.00913125
*CONN
*I *802:A I *D sky130_fd_sc_hd__xor2_1
*I *668:B1 I *D sky130_fd_sc_hd__a22oi_1
*I *669:A I *D sky130_fd_sc_hd__nor2_1
*I *851:Q O *D sky130_fd_sc_hd__dfxtp_1
*CAP
1 *802:A 0.000125472
2 *668:B1 8.59078e-05
3 *669:A 4.7674e-05
4 *851:Q 0
5 *262:12 0.00018415
6 *262:4 0.00017604
7 *668:B1 *668:A1 0.000493199
8 *668:B1 *314:20 0.00162756
9 *669:A *669:B 0.000222387
10 *669:A *314:20 0.000131145
11 *802:A *669:B 0.000378119
12 *802:A *802:B 0.000493199
13 *262:12 *669:B 0.00089575
14 *262:12 *331:538 0.00106852
15 *670:B *668:B1 0.000154684
16 *670:B *669:A 0.000493199
17 *670:C *668:B1 9.08676e-05
18 *670:C *669:A 0.000227554
19 *851:D *669:A 0.000493199
20 *174:18 *802:A 0
21 *174:24 *802:A 0.00124944
22 *174:24 *262:12 0.000493199
*RES
1 *851:Q *262:4 9.3 
2 *262:4 *262:12 11.1061 
3 *262:12 *669:A 10.8152 
4 *262:12 *668:B1 11.4212 
5 *262:4 *802:A 11.0727 
*END

*D_NET *263 0.00853385
*CONN
*I *666:A I *D sky130_fd_sc_hd__nor2_1
*I *665:B1 I *D sky130_fd_sc_hd__a22oi_1
*I *798:A I *D sky130_fd_sc_hd__xor2_1
*I *852:Q O *D sky130_fd_sc_hd__dfxtp_1
*CAP
1 *666:A 0.00123291
2 *665:B1 5.7785e-05
3 *798:A 0
4 *852:Q 0
5 *263:12 0.000395174
6 *263:4 0.0015703
7 *665:B1 *798:B 0.00162756
8 *665:B1 *324:24 0.00091107
9 *665:B1 *334:22 0.000493199
10 *666:A *657:A 0
11 *666:A *657:B 1.67388e-05
12 *666:A *667:A 0.000536881
13 *263:12 *665:B2 0
14 *263:12 *667:A 0.000162691
15 *263:12 *307:14 0.00106852
16 *263:12 *339:20 0
17 *667:B *263:12 0.000146728
18 *667:C *666:A 0.000189571
19 *228:14 *665:B1 0.00012473
*RES
1 *852:Q *263:4 9.3 
2 *263:4 *263:12 11.1061 
3 *263:12 *798:A 9.3 
4 *263:12 *665:B1 11.8455 
5 *263:4 *666:A 12.9364 
*END

*D_NET *264 0.00959926
*CONN
*I *662:B1 I *D sky130_fd_sc_hd__a22oi_1
*I *663:A I *D sky130_fd_sc_hd__nor2_1
*I *794:A I *D sky130_fd_sc_hd__xor2_1
*I *853:Q O *D sky130_fd_sc_hd__dfxtp_1
*CAP
1 *662:B1 0.000661102
2 *663:A 0.000150445
3 *794:A 0.000373406
4 *853:Q 0
5 *264:8 0.00156631
6 *264:4 0.00170357
7 *662:B1 *662:B2 0.000493199
8 *662:B1 *305:36 1.70004e-05
9 *662:B1 *322:439 0
10 *663:A *662:B2 0
11 *663:A *663:B 0.000748826
12 *663:A *331:241 0
13 *663:A *331:261 0
14 *794:A *662:B2 0
15 *794:A *663:B 0.000572784
16 *794:A *794:B 0.000861703
17 *794:A *313:12 4.30064e-05
18 *794:A *331:261 0
19 *794:A *331:269 0.000871318
20 *264:8 *305:36 0.000223434
21 *664:B *662:B1 1.43476e-05
22 *664:B *663:A 6.80933e-05
23 *853:D *663:A 0.00106803
24 *853:D *264:8 0.000162691
25 *903:A *663:A 0
26 *225:12 *794:A 0
*RES
1 *853:Q *264:4 9.3 
2 *264:4 *264:8 6.34849 
3 *264:8 *794:A 18.3152 
4 *264:8 *663:A 16.7394 
5 *264:4 *662:B1 10.8152 
*END

*D_NET *265 0.00884791
*CONN
*I *660:A I *D sky130_fd_sc_hd__nor2_1
*I *659:B1 I *D sky130_fd_sc_hd__a22oi_1
*I *790:A I *D sky130_fd_sc_hd__xor2_1
*I *854:Q O *D sky130_fd_sc_hd__dfxtp_1
*CAP
1 *660:A 2.42156e-05
2 *659:B1 0.000458904
3 *790:A 0
4 *854:Q 0.000580965
5 *265:16 0.000890084
6 *265:10 0.00103636
7 *659:B1 *659:B2 0.000470645
8 *659:B1 *322:439 0.000151945
9 *659:B1 *326:10 0
10 *659:B1 *331:220 0.000669194
11 *660:A *660:B 2.65031e-05
12 *265:10 *341:12 8.67686e-05
13 *265:16 *660:B 0
14 *265:16 *341:12 0.000287421
15 *265:16 *341:14 0.00102089
16 *661:C *265:10 0.000493199
17 *661:C *265:16 0.000493199
18 *793:C *659:B1 0.000151945
19 *907:A *265:10 0.00200567
20 *919:A *265:16 0
*RES
1 *854:Q *265:10 13.0879 
2 *265:10 *265:16 3.04167 
3 *265:16 *790:A 9.3 
4 *265:16 *659:B1 27.5855 
5 *265:10 *660:A 9.66364 
*END

*D_NET *266 0.0118574
*CONN
*I *786:A I *D sky130_fd_sc_hd__xor2_1
*I *656:B1 I *D sky130_fd_sc_hd__a22oi_1
*I *657:A I *D sky130_fd_sc_hd__nor2_1
*I *855:Q O *D sky130_fd_sc_hd__dfxtp_1
*CAP
1 *786:A 0
2 *656:B1 0
3 *657:A 0.000325285
4 *855:Q 0.00379574
5 *266:20 0.00041672
6 *266:12 0.00388718
7 *657:A *657:B 2.65031e-05
8 *657:A *322:343 0.0003333
9 *657:A *322:351 6.86205e-05
10 *657:A *342:10 0.000164025
11 *657:A *342:19 2.80384e-05
12 *266:12 *796:B 0
13 *266:12 *322:339 5.58584e-05
14 *266:20 *786:B 0.000300411
15 *266:20 *796:B 0
16 *266:20 *322:339 0.000493199
17 *266:20 *322:341 0.000833249
18 *266:20 *322:343 6.86205e-05
19 *266:20 *322:399 0.00016665
20 *266:20 *342:19 0.000136187
21 *658:B *657:A 0.000493199
22 *658:C *657:A 0.000154684
23 *666:A *657:A 0
24 *855:D *266:12 0.000109895
*RES
1 *855:Q *266:12 17.4667 
2 *266:12 *266:20 6.9697 
3 *266:20 *657:A 16.1939 
4 *266:20 *656:B1 13.8 
5 *266:12 *786:A 9.3 
*END

*D_NET *267 0.00813908
*CONN
*I *782:A I *D sky130_fd_sc_hd__xor2_1
*I *653:B1 I *D sky130_fd_sc_hd__a22oi_1
*I *654:A I *D sky130_fd_sc_hd__nor2_1
*I *856:Q O *D sky130_fd_sc_hd__dfxtp_1
*CAP
1 *782:A 0.000399287
2 *653:B1 0
3 *654:A 1.36817e-05
4 *856:Q 0
5 *267:16 0.0011236
6 *267:4 0.0015092
7 *654:A *654:B 0.000871318
8 *654:A *304:14 0.00024946
9 *654:A *369:295 0.00024946
10 *782:A *653:A2 0.000410541
11 *782:A *782:B 0.00023527
12 *782:A *293:148 0
13 *782:A *300:18 0.000100881
14 *782:A *369:299 0.000871318
15 *267:16 *654:B 0
16 *267:16 *293:148 0.000368505
17 *267:16 *300:18 0.000410249
18 *267:16 *369:295 0.00102884
19 *267:16 *369:299 6.48629e-05
20 *655:C *267:16 0.000232614
*RES
1 *856:Q *267:4 9.3 
2 *267:4 *267:16 13.4091 
3 *267:16 *654:A 10.8 
4 *267:16 *653:B1 9.3 
5 *267:4 *782:A 21.2091 
*END

*D_NET *268 0.0123443
*CONN
*I *650:B1 I *D sky130_fd_sc_hd__a22oi_1
*I *778:A I *D sky130_fd_sc_hd__xor2_1
*I *651:A I *D sky130_fd_sc_hd__nor2_1
*I *857:Q O *D sky130_fd_sc_hd__dfxtp_1
*CAP
1 *650:B1 6.84835e-05
2 *778:A 0
3 *651:A 9.0719e-05
4 *857:Q 0.000225966
5 *268:14 0.000287799
6 *268:8 0.000491529
7 *650:B1 *362:10 0.000544746
8 *650:B1 *369:273 0.00073522
9 *651:A *652:A 0.000493199
10 *651:A *778:B 7.7342e-05
11 *651:A *309:18 0.00108282
12 *651:A *331:525 0.00162756
13 *268:8 *857:CLK 0.000317375
14 *268:14 *778:B 0.000100881
15 *268:14 *331:525 0.00226871
16 *268:14 *362:10 0.000504691
17 *652:B *651:A 0.00238379
18 *652:C *651:A 0.000292417
19 *779:B1 *650:B1 4.00549e-05
20 *781:B *268:14 0
21 *781:C *268:14 0
22 *213:10 *650:B1 0.000232318
23 *213:10 *268:14 0.000478634
*RES
1 *857:Q *268:8 14.9515 
2 *268:8 *268:14 8.60606 
3 *268:14 *651:A 13.3758 
4 *268:14 *778:A 9.3 
5 *268:8 *650:B1 15.9667 
*END

*D_NET *269 0.00856054
*CONN
*I *647:B1 I *D sky130_fd_sc_hd__a22oi_1
*I *774:A I *D sky130_fd_sc_hd__xor2_1
*I *648:A I *D sky130_fd_sc_hd__nor2_1
*I *858:Q O *D sky130_fd_sc_hd__dfxtp_1
*CAP
1 *647:B1 0
2 *774:A 0.000111775
3 *648:A 0
4 *858:Q 0.000764181
5 *269:21 0.00035361
6 *269:10 0.00100602
7 *774:A *647:A1 0.00040192
8 *774:A *305:53 0
9 *774:A *310:42 0.00123517
10 *269:10 *648:B 0.000493199
11 *269:10 *843:CLK 0.000422997
12 *269:21 *647:A1 6.86205e-05
13 *269:21 *648:B 0.00020428
14 *269:21 *843:CLK 0.000493199
15 *269:21 *305:53 0
16 *269:21 *310:42 0.000999899
17 *843:D *269:21 0
18 *858:D *269:10 0.00200567
*RES
1 *858:Q *269:10 13.6182 
2 *269:10 *648:A 9.3 
3 *269:10 *269:21 7.37879 
4 *269:21 *774:A 15.7091 
5 *269:21 *647:B1 13.8 
*END

*D_NET *270 0.0141393
*CONN
*I *644:B1 I *D sky130_fd_sc_hd__a22oi_1
*I *645:A I *D sky130_fd_sc_hd__nor2_1
*I *770:A I *D sky130_fd_sc_hd__xor2_1
*I *859:Q O *D sky130_fd_sc_hd__dfxtp_1
*CAP
1 *644:B1 0
2 *645:A 0.000260349
3 *770:A 8.92471e-05
4 *859:Q 0.00179803
5 *270:23 0.000260349
6 *270:10 0.00188728
7 *645:A *644:A2 0
8 *645:A *645:B 0.000254057
9 *770:A *615:A 0
10 *770:A *768:A 0.000162691
11 *770:A *770:B 0.000378119
12 *770:A *322:229 0.000412151
13 *770:A *322:242 0.00156847
14 *770:A *322:255 0.00016665
15 *770:A *346:18 0.00134797
16 *270:10 *859:CLK 0.00351815
17 *270:10 *322:255 0.00073522
18 *615:C *645:A 0
19 *646:B *770:A 0.00040192
20 *646:B *270:10 0.000666599
21 *810:D *645:A 0.000154684
22 *826:D *770:A 7.7342e-05
*RES
1 *859:Q *270:10 18.1788 
2 *270:10 *770:A 17.9818 
3 *270:10 *270:23 4.5 
4 *270:23 *645:A 10.8152 
5 *270:23 *644:B1 9.3 
*END

*D_NET *271 0.00519314
*CONN
*I *641:B1 I *D sky130_fd_sc_hd__a22oi_1
*I *642:A I *D sky130_fd_sc_hd__nor2_1
*I *766:A I *D sky130_fd_sc_hd__xor2_1
*I *860:Q O *D sky130_fd_sc_hd__dfxtp_1
*CAP
1 *641:B1 0
2 *642:A 2.24921e-05
3 *766:A 0
4 *860:Q 0.000203905
5 *271:27 0.000153345
6 *271:12 0.000334758
7 *642:A *641:B2 0.000493199
8 *642:A *313:18 0.000412151
9 *642:A *322:64 0.00024946
10 *271:12 *322:49 0.000436598
11 *271:12 *331:320 0.00024946
12 *271:27 *641:B2 0.000901379
13 *271:27 *766:B 3.79613e-05
14 *271:27 *322:49 0.000901869
15 *271:27 *331:320 0.000493199
16 *643:B *271:27 6.80933e-05
17 *812:D *271:12 0
18 *204:10 *271:12 0.00023527
19 *204:10 *271:27 0
*RES
1 *860:Q *271:12 20.7545 
2 *271:12 *766:A 9.3 
3 *271:12 *271:27 11.4697 
4 *271:27 *642:A 10.4515 
5 *271:27 *641:B1 9.3 
*END

*D_NET *272 0.0143593
*CONN
*I *616:A I *D sky130_fd_sc_hd__xor2_1
*I *707:A I *D sky130_fd_sc_hd__nor2_1
*I *706:B1 I *D sky130_fd_sc_hd__a22oi_1
*I *842:Q O *D sky130_fd_sc_hd__dfxtp_1
*CAP
1 *616:A 0.000303402
2 *707:A 0.000202429
3 *706:B1 0.00167702
4 *842:Q 0
5 *272:21 0.000514407
6 *272:4 0.0016856
7 *616:A *616:B 0.00162756
8 *616:A *618:B 0.00116655
9 *616:A *297:14 0.00140182
10 *616:A *308:25 0.00123517
11 *616:A *328:16 7.41015e-05
12 *616:A *331:69 0.000318105
13 *616:A *331:101 0.000966257
14 *616:A *348:26 0.00010214
15 *706:B1 *706:B2 0.000436598
16 *706:B1 *707:B 3.8858e-05
17 *706:B1 *297:14 0.000564933
18 *707:A *707:B 0.000189194
19 *272:21 *308:25 0.00040192
20 *272:21 *331:101 0.000164225
21 *708:C *707:A 7.7342e-05
22 *16:25 *706:B1 0.000275494
23 *35:23 *707:A 6.48629e-05
24 *258:8 *616:A 0.000871318
*RES
1 *842:Q *272:4 9.3 
2 *272:4 *706:B1 22.8455 
3 *272:4 *272:21 5.12121 
4 *272:21 *707:A 15.3152 
5 *272:21 *616:A 20.4818 
*END

*D_NET *273 0.00940275
*CONN
*I *762:A I *D sky130_fd_sc_hd__xor2_1
*I *639:A I *D sky130_fd_sc_hd__nor2_1
*I *638:B1 I *D sky130_fd_sc_hd__a22oi_1
*I *861:Q O *D sky130_fd_sc_hd__dfxtp_1
*CAP
1 *762:A 0.00021678
2 *639:A 0.000416412
3 *638:B1 0
4 *861:Q 0.000327464
5 *273:10 0.000416412
6 *273:8 0.000544245
7 *639:A *638:A1 6.48629e-05
8 *639:A *638:A2 6.43646e-05
9 *639:A *638:B2 0.000493199
10 *639:A *639:B 0.000222387
11 *639:A *640:A 0.000493199
12 *762:A *762:B 0.00149985
13 *762:A *331:695 0
14 *762:A *369:219 0
15 *762:A *369:232 0.000301045
16 *273:8 *762:B 6.86205e-05
17 *273:8 *276:18 0.00123517
18 *273:8 *331:678 0
19 *273:8 *349:27 0.00073522
20 *273:8 *369:202 0
21 *273:8 *369:204 0
22 *273:8 *369:219 0
23 *640:B *639:A 0.00162756
24 *640:C *639:A 0.000292417
25 *763:B1 *762:A 9.61317e-05
26 *765:C *762:A 0.000287421
*RES
1 *861:Q *273:8 17.2545 
2 *273:8 *273:10 4.5 
3 *273:10 *638:B1 9.3 
4 *273:10 *639:A 13.3909 
5 *273:8 *762:A 17.2848 
*END

*D_NET *274 0.00578126
*CONN
*I *636:A I *D sky130_fd_sc_hd__nor2_1
*I *635:B1 I *D sky130_fd_sc_hd__a22oi_1
*I *758:A I *D sky130_fd_sc_hd__xor2_1
*I *862:Q O *D sky130_fd_sc_hd__dfxtp_1
*CAP
1 *636:A 0.000592222
2 *635:B1 0.000852314
3 *758:A 0
4 *862:Q 0.00134244
5 *274:8 0.00160253
6 *635:B1 *627:A 1.67388e-05
7 *635:B1 *635:A1 0.000162691
8 *635:B1 *635:A2 0
9 *635:B1 *331:407 7.7342e-05
10 *635:B1 *350:28 0
11 *636:A *636:B 0.000436598
12 *636:A *758:B 0.000287421
13 *274:8 *758:B 0.000178223
14 *830:D *635:B1 0.000232741
15 *198:10 *635:B1 0
*RES
1 *862:Q *274:8 11.0727 
2 *274:8 *758:A 9.3 
3 *274:8 *635:B1 24.3455 
4 *862:Q *636:A 30.0545 
*END

*D_NET *275 0.00852756
*CONN
*I *754:A I *D sky130_fd_sc_hd__xor2_1
*I *632:B1 I *D sky130_fd_sc_hd__a22oi_1
*I *633:A I *D sky130_fd_sc_hd__nor2_1
*I *863:Q O *D sky130_fd_sc_hd__dfxtp_1
*CAP
1 *754:A 0.000254992
2 *632:B1 4.72916e-05
3 *633:A 7.47561e-05
4 *863:Q 0
5 *275:10 0.000728908
6 *275:4 0.000861853
7 *632:B1 *632:A2 7.47267e-05
8 *632:B1 *632:B2 0.00124944
9 *633:A *351:18 2.80384e-05
10 *633:A *351:27 0.000572784
11 *754:A *754:B 0.000871318
12 *275:10 *632:A1 0
13 *275:10 *754:B 0.000523189
14 *275:10 *351:27 6.80933e-05
15 *625:A2 *633:A 0
16 *634:B *632:B1 0.00124944
17 *744:A *632:B1 0.00024946
18 *866:D *632:B1 0.000604755
19 *866:D *633:A 0.00106852
*RES
1 *863:Q *275:4 9.3 
2 *275:4 *275:10 6.95455 
3 *275:10 *633:A 15.9667 
4 *275:10 *632:B1 16.0121 
5 *275:4 *754:A 11.0727 
*END

*D_NET *276 0.00704635
*CONN
*I *750:A I *D sky130_fd_sc_hd__xor2_1
*I *630:A I *D sky130_fd_sc_hd__nor2_1
*I *629:B1 I *D sky130_fd_sc_hd__a22oi_1
*I *864:Q O *D sky130_fd_sc_hd__dfxtp_1
*CAP
1 *750:A 0
2 *630:A 0.000122792
3 *629:B1 0
4 *864:Q 0.00017655
5 *276:18 0.000390483
6 *276:12 0.00044424
7 *630:A *629:A2 2.35389e-05
8 *630:A *629:B2 0.000205933
9 *630:A *630:B 0.000313924
10 *630:A *314:20 0
11 *630:A *349:27 0.00200567
12 *276:12 *750:B 0.000493199
13 *276:12 *331:585 2.80384e-05
14 *276:12 *331:678 0.000272373
15 *276:12 *352:10 0.00040192
16 *276:12 *369:193 0
17 *276:18 *331:678 0
18 *276:18 *352:10 0.000645096
19 *276:18 *369:193 0
20 *276:18 *369:202 0
21 *164:14 *276:12 0.000287421
22 *273:8 *276:18 0.00123517
*RES
1 *864:Q *276:12 20.7545 
2 *276:12 *276:18 13.2273 
3 *276:18 *629:B1 9.3 
4 *276:18 *630:A 11.8758 
5 *276:12 *750:A 9.3 
*END

*D_NET *277 0.00791645
*CONN
*I *746:A I *D sky130_fd_sc_hd__xor2_1
*I *627:A I *D sky130_fd_sc_hd__nor2_1
*I *626:B1 I *D sky130_fd_sc_hd__a22oi_1
*I *865:Q O *D sky130_fd_sc_hd__dfxtp_1
*CAP
1 *746:A 0.000289301
2 *627:A 0.000163519
3 *626:B1 0.000531793
4 *865:Q 0
5 *277:8 0.000950074
6 *277:4 0.000544064
7 *626:B1 *626:B2 0.000871318
8 *626:B1 *627:B 0.00056808
9 *626:B1 *353:24 0.00123072
10 *627:A *627:B 0.000665619
11 *627:A *331:407 0.000509937
12 *746:A *746:B 0.00124944
13 *277:8 *746:B 7.7342e-05
14 *628:B *626:B1 0.000154684
15 *628:C *627:A 3.79613e-05
16 *635:B1 *627:A 1.67388e-05
17 *637:B *627:A 5.58584e-05
*RES
1 *865:Q *277:4 9.3 
2 *277:4 *277:8 4.95455 
3 *277:8 *626:B1 18.5879 
4 *277:8 *627:A 15.7545 
5 *277:4 *746:A 11.4212 
*END

*D_NET *278 0.0110484
*CONN
*I *741:A I *D sky130_fd_sc_hd__nand2_1
*I *743:A I *D sky130_fd_sc_hd__xnor2_1
*I *742:A I *D sky130_fd_sc_hd__nor2_1
*I *866:Q O *D sky130_fd_sc_hd__dfxtp_1
*CAP
1 *741:A 7.95314e-05
2 *743:A 0
3 *742:A 1.03387e-05
4 *866:Q 0.00128074
5 *278:16 1.77971e-05
6 *278:14 0.00136772
7 *741:A *741:B 0.00209654
8 *741:A *354:12 0
9 *741:A *354:29 0.000901869
10 *742:A *742:B 0.000871318
11 *742:A *354:29 0.000493199
12 *278:14 *831:CLK 2.80384e-05
13 *278:14 *354:29 0.000613389
14 *278:16 *354:29 0.000378119
15 *625:A2 *741:A 0.000410249
16 *625:B1 *742:A 0.000412151
17 *625:B1 *278:14 0.000287421
18 *625:B1 *278:16 0.000162691
19 *744:B *741:A 0.00106852
20 *744:B *278:14 0.000167736
21 *745:B *741:A 6.80933e-05
22 *866:D *278:14 0.000332907
*RES
1 *866:Q *278:14 22.603 
2 *278:14 *278:16 0.454546 
3 *278:16 *742:A 10.4515 
4 *278:16 *743:A 9.3 
5 *278:14 *741:A 22.1636 
*END

*D_NET *279 0.0106351
*CONN
*I *735:A I *D sky130_fd_sc_hd__nand2_1
*I *737:A I *D sky130_fd_sc_hd__xnor2_1
*I *736:A I *D sky130_fd_sc_hd__nor2_1
*I *867:Q O *D sky130_fd_sc_hd__dfxtp_1
*CAP
1 *735:A 2.94656e-05
2 *737:A 8.6519e-05
3 *736:A 0
4 *867:Q 0.00181755
5 *279:25 0.000470715
6 *279:16 0.00217228
7 *735:A *735:B 0.000128893
8 *737:A *736:B 0.000385078
9 *279:16 *825:CLK 0
10 *279:16 *882:A 0.00124944
11 *279:16 *331:695 0
12 *279:25 *736:B 0.000525423
13 *624:A1 *735:A 0.00140182
14 *624:A2 *735:A 0.000901869
15 *765:C *279:16 0
16 *825:D *279:16 0.000318627
17 *828:D *279:16 0.00114737
18 *74:14 *279:16 0
*RES
1 *867:Q *279:16 30.2242 
2 *279:16 *736:A 9.3 
3 *279:16 *279:25 2.56061 
4 *279:25 *737:A 10.1182 
5 *279:25 *735:A 20.4667 
*END

*D_NET *280 0.00715588
*CONN
*I *731:A I *D sky130_fd_sc_hd__xnor2_1
*I *729:A I *D sky130_fd_sc_hd__nand2_1
*I *730:A I *D sky130_fd_sc_hd__nor2_1
*I *868:Q O *D sky130_fd_sc_hd__dfxtp_1
*CAP
1 *731:A 0
2 *729:A 5.65803e-05
3 *730:A 0
4 *868:Q 0.00171497
5 *280:14 6.65649e-05
6 *280:12 0.00172495
7 *729:A *729:B 0.000189194
8 *729:A *730:B 9.13659e-05
9 *729:A *731:B 0
10 *729:A *295:90 0.00124944
11 *729:A *356:16 0.00024946
12 *280:12 *356:14 0.000189734
13 *280:14 *295:90 0.00037419
14 *280:14 *356:16 0.00124944
15 *868:D *280:12 0
*RES
1 *868:Q *280:12 22.2394 
2 *280:12 *280:14 1.15152 
3 *280:14 *730:A 9.3 
4 *280:14 *729:A 11.1788 
5 *280:12 *731:A 9.3 
*END

*D_NET *281 0.00778731
*CONN
*I *724:A I *D sky130_fd_sc_hd__nor2_1
*I *725:A I *D sky130_fd_sc_hd__xnor2_1
*I *723:A I *D sky130_fd_sc_hd__nand2_1
*I *869:Q O *D sky130_fd_sc_hd__dfxtp_1
*CAP
1 *724:A 0.000236565
2 *725:A 0
3 *723:A 0.000260301
4 *869:Q 0
5 *281:12 0.00183596
6 *281:4 0.00181222
7 *723:A *723:B 0.00238379
8 *724:A *294:57 2.65031e-05
9 *724:A *294:70 0.000476515
10 *281:12 *724:B 0
11 *281:12 *294:70 0.000461998
12 *622:A2 *281:12 0.000146728
13 *726:B *281:12 0.000146728
*RES
1 *869:Q *281:4 9.3 
2 *281:4 *281:12 13.197 
3 *281:12 *723:A 11.497 
4 *281:12 *725:A 9.3 
5 *281:4 *724:A 11.4364 
*END

*D_NET *282 0.00709954
*CONN
*I *718:A I *D sky130_fd_sc_hd__nor2_1
*I *719:A I *D sky130_fd_sc_hd__xnor2_1
*I *717:A I *D sky130_fd_sc_hd__nand2_1
*I *870:Q O *D sky130_fd_sc_hd__dfxtp_1
*CAP
1 *718:A 3.57286e-05
2 *719:A 0.000163752
3 *717:A 4.52472e-05
4 *870:Q 4.18973e-05
5 *282:18 0.000280637
6 *282:10 0.000149264
7 *717:A *717:B 0.000412151
8 *719:A *719:B 0.000493199
9 *719:A *331:634 0.000340466
10 *719:A *331:644 0.00023527
11 *719:A *358:19 0
12 *282:10 *718:B 6.86205e-05
13 *282:10 *293:52 0.000368505
14 *282:10 *331:644 0
15 *282:18 *717:B 0.00120755
16 *282:18 *832:CLK 2.65031e-05
17 *621:A2 *717:A 0.000493199
18 *720:A *719:A 0.00156847
19 *870:D *282:10 0.000300411
20 *164:14 *717:A 0.000162691
21 *164:14 *718:A 0.000162691
22 *164:14 *282:18 0.000543296
*RES
1 *870:Q *282:10 19.6939 
2 *282:10 *282:18 2.68182 
3 *282:18 *717:A 10.4515 
4 *282:18 *719:A 21.1788 
5 *282:10 *718:A 9.75455 
*END

*D_NET *283 0.00695196
*CONN
*I *612:A I *D sky130_fd_sc_hd__xor2_1
*I *703:B1 I *D sky130_fd_sc_hd__a22oi_1
*I *704:A I *D sky130_fd_sc_hd__nor2_1
*I *843:Q O *D sky130_fd_sc_hd__dfxtp_1
*CAP
1 *612:A 9.92417e-06
2 *703:B1 7.27441e-05
3 *704:A 0.000406188
4 *843:Q 0.000535127
5 *283:23 8.26683e-05
6 *283:10 0.000941314
7 *612:A *703:A2 0.000871318
8 *612:A *305:38 0.00024946
9 *703:B1 *647:A1 0.000100881
10 *703:B1 *703:A2 0.000596108
11 *703:B1 *305:38 0.00162756
12 *703:B1 *322:278 9.41555e-05
13 *704:A *331:449 0
14 *704:A *359:14 0.000871318
15 *283:10 *310:32 0.000493199
16 *613:B1 *283:10 0
17 *705:C *704:A 0
18 *843:D *283:10 0
*RES
1 *843:Q *283:10 15.9061 
2 *283:10 *704:A 16.5121 
3 *283:10 *283:23 4.5 
4 *283:23 *703:B1 11.5273 
5 *283:23 *612:A 10.103 
*END

*D_NET *284 0.00618422
*CONN
*I *713:A I *D sky130_fd_sc_hd__xnor2_1
*I *712:A I *D sky130_fd_sc_hd__nor2_1
*I *711:A I *D sky130_fd_sc_hd__nand2_1
*I *871:Q O *D sky130_fd_sc_hd__dfxtp_1
*CAP
1 *713:A 0
2 *712:A 0.000391327
3 *711:A 0.000141625
4 *871:Q 0
5 *284:21 0.000490601
6 *284:6 0.000240899
7 *711:A *872:CLK 0.000498947
8 *712:A *713:B 0.000558061
9 *712:A *360:18 0.00162756
10 *284:21 *713:B 0.00012473
11 *284:21 *838:CLK 0
12 *284:21 *872:CLK 0.00023527
13 *284:21 *294:30 0.0003333
14 *284:21 *294:53 0.000162691
15 *620:A1 *711:A 4.30064e-05
16 *871:D *712:A 8.67686e-05
17 *871:D *284:21 0.00124944
*RES
1 *871:Q *284:6 13.8 
2 *284:6 *711:A 15.4515 
3 *284:6 *284:21 6.5303 
4 *284:21 *712:A 12.5727 
5 *284:21 *713:A 9.3 
*END

*D_NET *285 0.00405152
*CONN
*I *693:B1 I *D sky130_fd_sc_hd__a21oi_1
*I *692:C I *D sky130_fd_sc_hd__and3_1
*I *872:Q O *D sky130_fd_sc_hd__dfxtp_1
*CAP
1 *693:B1 0
2 *692:C 0.000200831
3 *872:Q 0.000745279
4 *285:16 0.00094611
5 *692:C *692:A 0.00111792
6 *285:16 *702:A 0
7 *285:16 *331:782 7.28588e-05
8 *673:B *285:16 0
9 *694:B *285:16 0.00023478
10 *702:B_N *285:16 0.000733749
*RES
1 *872:Q *285:16 22.5121 
2 *285:16 *692:C 10.3303 
3 *285:16 *693:B1 9.3 
*END

*D_NET *286 0.00622718
*CONN
*I *689:B1 I *D sky130_fd_sc_hd__a22oi_1
*I *608:A I *D sky130_fd_sc_hd__xor2_1
*I *690:A I *D sky130_fd_sc_hd__nor2_1
*I *844:Q O *D sky130_fd_sc_hd__dfxtp_1
*CAP
1 *689:B1 0.000313951
2 *608:A 0
3 *690:A 1.88382e-05
4 *844:Q 0
5 *286:10 8.88986e-05
6 *286:4 0.000384011
7 *689:B1 *689:A2 3.40466e-05
8 *689:B1 *755:A1 6.86205e-05
9 *689:B1 *323:31 0.000578793
10 *690:A *690:B 0.000871318
11 *690:A *322:76 0.000412151
12 *286:10 *323:31 0
13 *286:10 *361:23 0.00106803
14 *691:B *689:B1 0.00123517
15 *691:C *689:B1 0.000136187
16 *691:C *690:A 7.7342e-05
17 *691:C *286:10 0.00073522
18 *825:D *286:10 4.30064e-05
19 *844:D *689:B1 0.000100881
20 *252:12 *286:10 6.07149e-05
*RES
1 *844:Q *286:4 9.3 
2 *286:4 *286:10 10.9091 
3 *286:10 *690:A 10.4515 
4 *286:10 *608:A 9.3 
5 *286:4 *689:B1 21.8758 
*END

*D_NET *287 0.00897723
*CONN
*I *686:B1 I *D sky130_fd_sc_hd__a22oi_1
*I *687:A I *D sky130_fd_sc_hd__nor2_1
*I *604:A I *D sky130_fd_sc_hd__xor2_1
*I *845:Q O *D sky130_fd_sc_hd__dfxtp_1
*CAP
1 *686:B1 0.00024944
2 *687:A 0.000575411
3 *604:A 0
4 *845:Q 0.000699641
5 *287:12 0.000575411
6 *287:10 0.000949081
7 *686:B1 *686:B2 0.00123072
8 *687:A *687:B 0.00169242
9 *287:10 *686:B2 0.00016665
10 *287:10 *362:10 0.00173512
11 *812:D *686:B1 0
12 *819:D *687:A 0.000232026
13 *819:D *287:10 0
14 *845:D *287:10 0.000871318
*RES
1 *845:Q *287:10 17.5424 
2 *287:10 *287:12 4.5 
3 *287:12 *604:A 9.3 
4 *287:12 *687:A 12.5727 
5 *287:10 *686:B1 15.9061 
*END

*D_NET *288 0.0108301
*CONN
*I *600:A I *D sky130_fd_sc_hd__xor2_1
*I *684:A I *D sky130_fd_sc_hd__nor2_1
*I *683:B1 I *D sky130_fd_sc_hd__a22oi_1
*I *846:Q O *D sky130_fd_sc_hd__dfxtp_1
*CAP
1 *600:A 0.000151091
2 *684:A 0.000112078
3 *683:B1 0
4 *846:Q 0.000333517
5 *288:12 0.000112078
6 *288:10 0.000484608
7 *600:A *683:A2 0.00040856
8 *600:A *840:CLK 0
9 *600:A *293:154 0.000748625
10 *600:A *314:20 0.000255565
11 *600:A *325:16 0.00073473
12 *600:A *369:122 6.86205e-05
13 *684:A *683:B2 4.32419e-05
14 *684:A *684:B 0.00171842
15 *684:A *685:A 0.000493199
16 *684:A *722:B 0.000193542
17 *684:A *363:12 0.000287421
18 *684:A *363:14 0.000326578
19 *288:10 *840:CLK 0
20 *288:10 *293:154 0.000300411
21 *288:10 *296:16 0.000162691
22 *288:10 *369:122 0.000318595
23 *685:B *684:A 0.00124944
24 *685:C *684:A 0.00107765
25 *908:A *600:A 0
26 *164:14 *600:A 0.00124944
*RES
1 *846:Q *288:10 15.3909 
2 *288:10 *288:12 4.5 
3 *288:12 *683:B1 9.3 
4 *288:12 *684:A 13.7394 
5 *288:10 *600:A 18.2545 
*END

*D_NET *289 0.0313209
*CONN
*I *680:B1 I *D sky130_fd_sc_hd__a22oi_1
*I *596:A I *D sky130_fd_sc_hd__xor2_1
*I *681:A I *D sky130_fd_sc_hd__nor2_1
*I *847:Q O *D sky130_fd_sc_hd__dfxtp_1
*CAP
1 *680:B1 0.000411522
2 *596:A 1.84442e-05
3 *681:A 0.00033313
4 *847:Q 0.00090054
5 *289:12 0.00060498
6 *289:10 0.00156547
7 *680:B1 *680:A1 0.000151945
8 *680:B1 *682:A 0
9 *680:B1 *716:B 3.92117e-05
10 *681:A *678:B 0.000493199
11 *681:A *681:B 0.00114907
12 *681:A *312:18 0.000805662
13 *681:A *321:18 0.00231839
14 *289:10 *682:A 0.00056857
15 *289:10 *728:B 7.41015e-05
16 *289:10 *323:16 0.000232318
17 *289:10 *332:20 0
18 *289:12 *728:B 3.38464e-05
19 *289:12 *332:20 0
20 *595:B *596:A 0.000287421
21 *595:C *681:A 0.000901379
22 *682:C *681:A 0.0119762
23 *682:C *289:12 0.00266591
24 *815:D *681:A 0.00106852
25 *815:D *289:12 0.00106803
26 *896:A *681:A 0.000232026
27 *16:25 *289:10 0.00162756
28 *28:17 *681:A 0.000493199
29 *33:27 *680:B1 0.00021522
30 *33:27 *289:12 3.40466e-05
31 *174:18 *681:A 0.000158112
32 *174:18 *289:12 2.15032e-05
33 *243:20 *596:A 0.000871318
*RES
1 *847:Q *289:10 16.5652 
2 *289:10 *289:12 4.35606 
3 *289:12 *681:A 29.9061 
4 *289:12 *596:A 14.603 
5 *289:10 *680:B1 21.3052 
*END

*D_NET *290 0.0116108
*CONN
*I *677:B1 I *D sky130_fd_sc_hd__a22oi_1
*I *592:A I *D sky130_fd_sc_hd__xor2_1
*I *678:A I *D sky130_fd_sc_hd__nor2_1
*I *848:Q O *D sky130_fd_sc_hd__dfxtp_1
*CAP
1 *677:B1 0.00013594
2 *592:A 1.55904e-05
3 *678:A 5.26985e-05
4 *848:Q 0.00218005
5 *290:10 9.44425e-05
6 *290:8 0.00234215
7 *592:A *333:32 0.000287421
8 *677:B1 *681:B 0.000956244
9 *677:B1 *327:40 6.86205e-05
10 *678:A *678:B 0.000258038
11 *678:A *681:B 0.00156847
12 *290:10 *681:B 0.000901869
13 *848:D *290:8 0.00124944
14 *240:10 *592:A 0.000178223
15 *240:10 *677:B1 0.000748826
16 *240:10 *678:A 0.000232318
17 *240:10 *290:10 0.000340466
*RES
1 *848:Q *290:8 17.3909 
2 *290:8 *290:10 1.39394 
3 *290:10 *678:A 16.2242 
4 *290:10 *592:A 14.603 
5 *290:8 *677:B1 17.1939 
*END

*D_NET *291 0.0123723
*CONN
*I *588:A I *D sky130_fd_sc_hd__xor2_1
*I *674:B1 I *D sky130_fd_sc_hd__a22oi_1
*I *675:A I *D sky130_fd_sc_hd__nor2_1
*I *849:Q O *D sky130_fd_sc_hd__dfxtp_1
*CAP
1 *588:A 8.61972e-05
2 *674:B1 9.13832e-05
3 *675:A 0
4 *849:Q 0.0016084
5 *291:18 0.000700919
6 *291:10 0.00230413
7 *588:A *816:CLK 0
8 *588:A *331:774 0
9 *674:B1 *674:B2 0.000105935
10 *674:B1 *333:32 0.000226047
11 *291:10 *591:A 0.000408009
12 *291:10 *331:774 0
13 *291:18 *588:B 0.00276191
14 *291:18 *674:B2 1.77085e-05
15 *291:18 *333:32 0.00104569
16 *291:18 *366:14 0.000103721
17 *587:C *674:B1 0.00073522
18 *676:B *674:B1 0.00073522
19 *676:B *291:18 7.7342e-05
20 *676:C *291:18 0.000493199
21 *816:D *588:A 0
22 *816:D *291:10 0
23 *849:D *291:18 0.000871318
*RES
1 *849:Q *291:10 17.4818 
2 *291:10 *291:18 13.9091 
3 *291:18 *675:A 13.8 
4 *291:18 *674:B1 16.0121 
5 *291:10 *588:A 14.4212 
*END

*D_NET *292 0.008763
*CONN
*I *671:B1 I *D sky130_fd_sc_hd__a22oi_1
*I *806:A I *D sky130_fd_sc_hd__xor2_1
*I *672:A I *D sky130_fd_sc_hd__nor2_1
*I *850:Q O *D sky130_fd_sc_hd__dfxtp_1
*CAP
1 *671:B1 0.000386269
2 *806:A 0
3 *672:A 0.000392105
4 *850:Q 0
5 *292:25 0.000569952
6 *292:6 0.000575788
7 *671:B1 *671:A1 0.000162691
8 *671:B1 *671:A2 0.000499528
9 *672:A *672:B 0
10 *672:A *817:CLK 0
11 *672:A *849:CLK 0.000162111
12 *672:A *296:24 0
13 *672:A *296:26 0
14 *672:A *331:780 0.00202241
15 *292:25 *671:A2 0.00124944
16 *292:25 *806:B 0.000493199
17 *292:25 *296:24 0
18 *586:C *672:A 6.86205e-05
19 *586:C *292:25 0.000901869
20 *673:C *672:A 0
21 *817:D *672:A 0.00127901
*RES
1 *850:Q *292:6 13.8 
2 *292:6 *672:A 19.2091 
3 *292:6 *292:25 7.04546 
4 *292:25 *806:A 9.3 
5 *292:25 *671:B1 12.2242 
*END

*D_NET *1 0.0252464
*CONN
*P clk I
*I *873:A I *D sky130_fd_sc_hd__clkbuf_16
*CAP
1 clk 0.00419537
2 *873:A 0.000103577
3 *1:18 0.00429895
4 *873:A *293:23 4.06728e-05
5 *873:A *300:31 0.000414862
6 *1:18 *652:B 0.00123517
7 *1:18 *668:A1 0.000704231
8 *1:18 *668:A2 0
9 *1:18 *805:C 0.000387373
10 *1:18 *807:A1 0
11 *1:18 *819:D 0
12 *1:18 *908:A 0.0031422
13 *1:18 *36:19 0.000422049
14 *1:18 *231:10 0.000557817
15 *1:18 *293:6 0.000376304
16 *1:18 *293:23 0.00116414
17 *1:18 *300:31 0.00149561
18 *1:18 *312:18 0.00298362
19 *1:18 *329:18 0.00129493
20 *1:18 *331:559 7.04386e-05
21 *1:18 *338:10 6.11891e-05
22 *1:18 *362:10 0.00162873
23 *1:18 *369:122 0.000669194
*RES
1 clk *1:18 32.1485 
2 *1:18 *873:A 10.6258 
*END

*D_NET *293 0.0535035
*CONN
*I *881:A I *D sky130_fd_sc_hd__clkbuf_16
*I *877:A I *D sky130_fd_sc_hd__clkbuf_16
*I *876:A I *D sky130_fd_sc_hd__clkbuf_16
*I *880:A I *D sky130_fd_sc_hd__clkbuf_16
*I *878:A I *D sky130_fd_sc_hd__clkbuf_16
*I *879:A I *D sky130_fd_sc_hd__clkbuf_16
*I *875:A I *D sky130_fd_sc_hd__clkbuf_16
*I *874:A I *D sky130_fd_sc_hd__clkbuf_16
*I *873:X O *D sky130_fd_sc_hd__clkbuf_16
*CAP
1 *881:A 4.60911e-05
2 *877:A 0
3 *876:A 0.000123724
4 *880:A 0
5 *878:A 0
6 *879:A 0.000169588
7 *875:A 0.000267123
8 *874:A 8.37175e-05
9 *873:X 0.00093464
10 *293:177 0.00225445
11 *293:154 0.00126693
12 *293:148 0.00231136
13 *293:139 0.00344581
14 *293:130 0.000222613
15 *293:124 0.00053439
16 *293:111 0.00110926
17 *293:86 0.00265234
18 *293:70 0.000483509
19 *293:52 0.00104109
20 *293:42 0.00167401
21 *293:29 0.002983
22 *293:27 1.09735e-05
23 *293:23 0.00172138
24 *293:6 0.00191686
25 *875:A *867:CLK 6.72539e-05
26 *876:A *674:A2 0.000294236
27 *876:A *369:128 0.000162691
28 *881:A *301:14 0.000287421
29 *293:6 *300:31 4.61439e-05
30 *293:23 *755:A1 0.00134762
31 *293:23 *845:CLK 0.000536881
32 *293:23 *298:6 0.00078634
33 *293:23 *298:16 0.000561284
34 *293:23 *347:12 0.00060623
35 *293:27 *755:A1 0.000474516
36 *293:27 *298:16 0.000474516
37 *293:52 *718:B 4.68011e-05
38 *293:52 *832:CLK 0.000504691
39 *293:52 *864:CLK 0.000368505
40 *293:52 *295:25 0.000504691
41 *293:52 *295:27 0.000640878
42 *293:52 *295:33 0.000368505
43 *293:52 *331:644 0
44 *293:52 *358:8 0.000504691
45 *293:52 *358:19 0.000470645
46 *293:70 *867:CLK 0.000188311
47 *293:70 *295:6 0.000178223
48 *293:86 *776:B 0
49 *293:86 *844:CLK 0.000708971
50 *293:86 *299:10 0
51 *293:86 *310:42 0.000215032
52 *293:86 *331:407 0
53 *293:86 *345:18 9.61317e-05
54 *293:111 *300:18 0.000250499
55 *293:111 *300:31 0.000200615
56 *293:124 *300:63 6.2085e-05
57 *293:124 *323:16 0
58 *293:130 *331:32 0.000287421
59 *293:139 *331:32 0.000162691
60 *293:148 *653:A2 0.000232318
61 *293:148 *782:B 0
62 *293:148 *297:48 0
63 *293:148 *300:12 0
64 *293:148 *304:14 0
65 *293:148 *343:10 0
66 *293:148 *343:20 0.000368505
67 *293:154 *600:B 8.60128e-05
68 *293:154 *601:A1 0
69 *293:154 *674:A2 0.000139552
70 *293:154 *706:B2 0
71 *293:154 *816:CLK 0
72 *293:154 *840:CLK 0
73 *293:154 *296:12 0
74 *293:154 *325:16 0.000172026
75 *293:154 *331:764 0.000504491
76 *293:154 *331:766 0.00104884
77 *293:154 *369:154 0
78 *293:177 *605:A2 0
79 *293:177 *801:A 0
80 *293:177 *852:CLK 0
81 *293:177 *301:14 0.000164225
82 *293:177 *301:33 0
83 *293:177 *306:10 0.000154317
84 *293:177 *306:27 0.00036138
85 *293:177 *307:14 0
86 *293:177 *313:12 0
87 *293:177 *322:227 0
88 *293:177 *331:282 0
89 *600:A *293:154 0.000748625
90 *631:B *293:52 0
91 *655:B *293:177 0
92 *655:C *293:124 0.000266165
93 *655:C *293:148 0
94 *655:C *293:177 0
95 *708:B *293:148 4.30064e-05
96 *708:B *293:154 0.000344051
97 *708:C *293:154 0.000300411
98 *720:A *874:A 0.000269987
99 *720:B *874:A 0.00128333
100 *720:B *293:52 0.000502987
101 *777:C *293:86 0
102 *782:A *293:148 0
103 *819:D *293:23 0
104 *821:D *881:A 0.000439266
105 *821:D *293:177 0.000135576
106 *825:D *293:86 0
107 *830:D *879:A 0.000474516
108 *830:D *293:86 0.000311825
109 *856:D *293:124 3.92117e-05
110 *870:D *293:52 0
111 *873:A *293:23 4.06728e-05
112 *1:18 *293:6 0.000376304
113 *1:18 *293:23 0.00116414
114 *16:25 *293:154 0
115 *33:27 *293:154 6.2085e-05
116 *74:14 *293:42 0.00104724
117 *74:14 *293:52 0.00107516
118 *74:14 *293:86 0.00238326
119 *77:14 *293:42 0.000967644
120 *77:14 *293:52 0.000129019
121 *77:14 *293:86 0
122 *179:16 *293:42 0
123 *179:16 *293:124 0.000172567
124 *210:10 *293:86 0
125 *228:14 *293:177 0
126 *246:20 *293:154 0
127 *267:16 *293:148 0.000368505
128 *282:10 *293:52 0.000368505
129 *288:10 *293:154 0.000300411
*RES
1 *873:X *293:6 10.478 
2 *293:6 *293:23 23.1477 
3 *293:23 *293:27 1.32576 
4 *293:27 *293:29 4.5 
5 *293:29 *293:42 13.289 
6 *293:42 *293:52 19.9811 
7 *293:52 *874:A 11.0159 
8 *293:42 *293:70 6.15152 
9 *293:70 *875:A 10.6485 
10 *293:29 *293:86 24.7955 
11 *293:86 *879:A 10.6258 
12 *293:27 *878:A 9.3 
13 *873:X *293:111 15.3152 
14 *293:111 *293:124 8.51279 
15 *293:124 *293:130 5.30303 
16 *293:130 *880:A 9.3 
17 *293:130 *293:139 4.95455 
18 *293:139 *293:148 9.60606 
19 *293:148 *293:154 17.3409 
20 *293:154 *876:A 10.6258 
21 *293:148 *877:A 13.8 
22 *293:139 *293:177 19.9242 
23 *293:177 *881:A 10.5273 
*END

*D_NET *294 0.0369141
*CONN
*I *839:CLK I *D sky130_fd_sc_hd__dfxtp_1
*I *838:CLK I *D sky130_fd_sc_hd__dfxtp_1
*I *837:CLK I *D sky130_fd_sc_hd__dfxtp_1
*I *869:CLK I *D sky130_fd_sc_hd__dfxtp_1
*I *868:CLK I *D sky130_fd_sc_hd__dfxtp_1
*I *836:CLK I *D sky130_fd_sc_hd__dfxtp_1
*I *871:CLK I *D sky130_fd_sc_hd__dfxtp_1
*I *872:CLK I *D sky130_fd_sc_hd__dfxtp_1
*I *864:CLK I *D sky130_fd_sc_hd__dfxtp_1
*I *874:X O *D sky130_fd_sc_hd__clkbuf_16
*CAP
1 *839:CLK 0.00010653
2 *838:CLK 0.000929083
3 *837:CLK 0.00266497
4 *869:CLK 0
5 *868:CLK 0.000312596
6 *836:CLK 0
7 *871:CLK 0
8 *872:CLK 0.000271072
9 *864:CLK 0.000461633
10 *874:X 0.000576875
11 *294:101 0.00369844
12 *294:74 0.00113645
13 *294:70 0.00158672
14 *294:57 0.00230951
15 *294:53 0.00267681
16 *294:30 0.00136447
17 *294:28 0.000289383
18 *837:CLK *357:6 0.000136078
19 *837:CLK *357:23 0.000178223
20 *864:CLK *331:589 0.000100881
21 *872:CLK *620:C1 0.000536881
22 *872:CLK *711:B 0.000178223
23 *294:53 *713:B 0
24 *620:A1 *872:CLK 0.000880102
25 *620:A1 *294:28 6.18848e-05
26 *620:A1 *294:30 0.000708771
27 *620:B1 *872:CLK 0.00162756
28 *622:A1 *294:74 0
29 *622:A2 *294:74 0
30 *622:B1 *294:70 0.00247056
31 *622:B1 *294:74 0
32 *631:B *864:CLK 0
33 *711:A *872:CLK 0.000498947
34 *714:A *294:28 2.15032e-05
35 *714:B *838:CLK 0
36 *714:B *294:30 0.000436398
37 *715:B *294:28 0.000734239
38 *724:A *294:57 2.65031e-05
39 *724:A *294:70 0.000476515
40 *726:A *294:74 0
41 *836:D *294:74 0.000189734
42 *837:D *837:CLK 0.000263131
43 *837:D *838:CLK 0
44 *838:D *838:CLK 0.00355514
45 *838:D *839:CLK 0.000287421
46 *864:D *864:CLK 0
47 *869:D *294:70 0.0027989
48 *871:D *294:53 0.000554285
49 *871:D *294:57 0.000245898
50 *281:12 *294:70 0.000461998
51 *284:21 *838:CLK 0
52 *284:21 *872:CLK 0.00023527
53 *284:21 *294:30 0.0003333
54 *284:21 *294:53 0.000162691
55 *293:52 *864:CLK 0.000368505
*RES
1 *874:X *864:CLK 29.903 
2 *874:X *294:28 15.1939 
3 *294:28 *294:30 2.68182 
4 *294:30 *872:CLK 18.5576 
5 *294:30 *294:53 8.21212 
6 *294:53 *294:57 3.16667 
7 *294:57 *871:CLK 9.3 
8 *294:57 *294:70 8.16667 
9 *294:70 *294:74 10.5303 
10 *294:74 *836:CLK 13.8 
11 *294:74 *868:CLK 15.9667 
12 *294:70 *869:CLK 9.3 
13 *294:53 *294:101 5.18939 
14 *294:101 *837:CLK 19.4591 
15 *294:101 *838:CLK 20.8985 
16 *294:28 *839:CLK 14.603 
*END

*D_NET *295 0.0427106
*CONN
*I *882:A I *D sky130_fd_sc_hd__clkbuf_4
*I *829:CLK I *D sky130_fd_sc_hd__dfxtp_1
*I *870:CLK I *D sky130_fd_sc_hd__dfxtp_1
*I *866:CLK I *D sky130_fd_sc_hd__dfxtp_1
*I *835:CLK I *D sky130_fd_sc_hd__dfxtp_1
*I *861:CLK I *D sky130_fd_sc_hd__dfxtp_1
*I *851:CLK I *D sky130_fd_sc_hd__dfxtp_1
*I *832:CLK I *D sky130_fd_sc_hd__dfxtp_1
*I *867:CLK I *D sky130_fd_sc_hd__dfxtp_1
*I *875:X O *D sky130_fd_sc_hd__clkbuf_16
*CAP
1 *882:A 0.000222331
2 *829:CLK 5.31772e-05
3 *870:CLK 0
4 *866:CLK 0.000283823
5 *835:CLK 0.000237697
6 *861:CLK 0
7 *851:CLK 0.0014279
8 *832:CLK 0.000138453
9 *867:CLK 0.000786523
10 *875:X 0.00164851
11 *295:90 0.00190648
12 *295:80 0.00228723
13 *295:72 0.00189048
14 *295:50 0.00149279
15 *295:33 0.000483909
16 *295:27 0.0012978
17 *295:25 0.00033547
18 *295:6 0.00246597
19 *867:CLK *351:18 0.000493199
20 *295:27 *331:644 0
21 *295:33 *331:644 0
22 *295:80 *331:644 0.000378119
23 *295:80 *331:646 0.00351815
24 *295:90 *729:B 0.000154684
25 *295:90 *731:B 0.000558061
26 *295:90 *733:A 0
27 *295:90 *356:14 9.17644e-05
28 *295:90 *356:16 5.38032e-05
29 *623:A2 *295:90 0.000493199
30 *623:B1 *295:90 0.000493199
31 *624:B1 *295:27 4.30064e-05
32 *624:B1 *295:72 7.7342e-05
33 *624:B1 *295:80 0.00012473
34 *729:A *295:90 0.00124944
35 *732:B *295:80 0.000368505
36 *765:C *295:6 0.000493199
37 *835:D *295:90 0
38 *861:D *851:CLK 0.00204266
39 *867:D *867:CLK 0.00212503
40 *868:D *295:90 0.000232741
41 *875:A *867:CLK 6.72539e-05
42 *74:14 *832:CLK 0.00123517
43 *77:14 *867:CLK 0.00125372
44 *77:14 *295:25 0.00116655
45 *77:14 *295:27 0.000901869
46 *77:14 *295:72 2.24648e-05
47 *164:14 *832:CLK 0.000871318
48 *174:24 *851:CLK 0.000759553
49 *174:24 *295:33 0.000536881
50 *174:24 *295:50 0.000287421
51 *174:24 *295:90 0.00162363
52 *279:16 *882:A 0.00124944
53 *280:14 *295:90 0.00037419
54 *282:18 *832:CLK 2.65031e-05
55 *293:52 *832:CLK 0.000504691
56 *293:52 *295:25 0.000504691
57 *293:52 *295:27 0.000640878
58 *293:52 *295:33 0.000368505
59 *293:70 *867:CLK 0.000188311
60 *293:70 *295:6 0.000178223
*RES
1 *875:X *295:6 12.1939 
2 *295:6 *867:CLK 24.997 
3 *295:6 *295:25 6.40909 
4 *295:25 *295:27 2.42424 
5 *295:27 *295:33 7.39394 
6 *295:33 *832:CLK 21.3758 
7 *295:33 *295:50 0.803031 
8 *295:50 *851:CLK 17.0121 
9 *295:50 *861:CLK 9.3 
10 *295:27 *295:72 6.36364 
11 *295:72 *295:80 14.5909 
12 *295:80 *295:90 15.9849 
13 *295:90 *835:CLK 14.9515 
14 *295:90 *866:CLK 15.7091 
15 *295:80 *870:CLK 9.3 
16 *295:72 *829:CLK 9.66364 
17 *295:25 *882:A 14.9515 
*END

*D_NET *296 0.0375597
*CONN
*I *848:CLK I *D sky130_fd_sc_hd__dfxtp_1
*I *840:CLK I *D sky130_fd_sc_hd__dfxtp_4
*I *816:CLK I *D sky130_fd_sc_hd__dfxtp_1
*I *814:CLK I *D sky130_fd_sc_hd__dfxtp_1
*I *846:CLK I *D sky130_fd_sc_hd__dfxtp_1
*I *850:CLK I *D sky130_fd_sc_hd__dfxtp_1
*I *818:CLK I *D sky130_fd_sc_hd__dfxtp_1
*I *849:CLK I *D sky130_fd_sc_hd__dfxtp_1
*I *817:CLK I *D sky130_fd_sc_hd__dfxtp_1
*I *876:X O *D sky130_fd_sc_hd__clkbuf_16
*CAP
1 *848:CLK 0.000370751
2 *840:CLK 0.000420997
3 *816:CLK 0.00054761
4 *814:CLK 0
5 *846:CLK 0
6 *850:CLK 0
7 *818:CLK 0.000489657
8 *849:CLK 0.00348336
9 *817:CLK 4.89128e-05
10 *876:X 0.000370751
11 *296:82 0.00100037
12 *296:52 0.00148333
13 *296:26 0.00369751
14 *296:24 0.00197882
15 *296:16 0.0021383
16 *296:12 0.00165369
17 *296:4 0.000367056
18 *816:CLK *589:A2 0
19 *817:CLK *672:B 0.000340098
20 *818:CLK *710:B 0.00123321
21 *818:CLK *321:18 0.000151455
22 *818:CLK *369:181 0.00023478
23 *818:CLK *369:386 0.000929874
24 *840:CLK *328:16 0
25 *840:CLK *369:112 0.00023478
26 *840:CLK *369:122 0
27 *848:CLK *589:A2 0.0014989
28 *848:CLK *590:A 0.00037419
29 *848:CLK *674:A2 0.000412151
30 *848:CLK *328:31 0.00012473
31 *849:CLK *588:B 0.000493199
32 *849:CLK *331:780 0.000117471
33 *849:CLK *366:14 0.00162756
34 *296:12 *674:A2 0.00124944
35 *296:24 *672:B 0.00199833
36 *296:24 *806:B 3.90852e-05
37 *296:24 *807:A1 0.000111717
38 *296:24 *367:27 0.00162756
39 *296:26 *672:B 0.00116606
40 *296:82 *674:A2 0.000493199
41 *586:C *296:24 0
42 *587:B *296:24 0.000493199
43 *588:A *816:CLK 0
44 *590:C *816:CLK 0
45 *591:C *848:CLK 0.000364539
46 *600:A *840:CLK 0
47 *672:A *817:CLK 0
48 *672:A *849:CLK 0.000162111
49 *672:A *296:24 0
50 *672:A *296:26 0
51 *694:B *818:CLK 0
52 *805:B *296:24 0.000412151
53 *807:B1 *296:24 0.000162691
54 *814:D *840:CLK 0.000408159
55 *816:D *816:CLK 6.86205e-05
56 *817:D *849:CLK 0.000263131
57 *846:D *296:16 0.00015207
58 *850:D *296:52 0.00128643
59 *159:12 *818:CLK 0.000151945
60 *169:14 *818:CLK 0.000469843
61 *237:8 *816:CLK 0.000493199
62 *288:10 *840:CLK 0
63 *288:10 *296:16 0.000162691
64 *292:25 *296:24 0
65 *293:154 *816:CLK 0
66 *293:154 *840:CLK 0
67 *293:154 *296:12 0
*RES
1 *876:X *296:4 9.3 
2 *296:4 *296:12 12.0606 
3 *296:12 *296:16 6.74243 
4 *296:16 *296:24 11.9091 
5 *296:24 *296:26 1.90909 
6 *296:26 *817:CLK 14.4212 
7 *296:26 *849:CLK 20.4515 
8 *296:24 *296:52 8.80303 
9 *296:52 *818:CLK 24.3303 
10 *296:52 *850:CLK 9.3 
11 *296:16 *846:CLK 9.3 
12 *296:12 *814:CLK 9.3 
13 *296:4 *296:82 4.95455 
14 *296:82 *816:CLK 17.1333 
15 *296:82 *840:CLK 17.5121 
16 *876:X *848:CLK 23.0242 
*END

*D_NET *297 0.0411694
*CONN
*I *847:CLK I *D sky130_fd_sc_hd__dfxtp_1
*I *815:CLK I *D sky130_fd_sc_hd__dfxtp_1
*I *809:CLK I *D sky130_fd_sc_hd__dfxtp_1
*I *842:CLK I *D sky130_fd_sc_hd__dfxtp_1
*I *824:CLK I *D sky130_fd_sc_hd__dfxtp_1
*I *857:CLK I *D sky130_fd_sc_hd__dfxtp_1
*I *883:A I *D sky130_fd_sc_hd__clkinv_1
*I *813:CLK I *D sky130_fd_sc_hd__dfxtp_1
*I *877:X O *D sky130_fd_sc_hd__clkbuf_16
*CAP
1 *847:CLK 0
2 *815:CLK 7.74777e-05
3 *809:CLK 0.000208532
4 *842:CLK 0
5 *824:CLK 0
6 *857:CLK 0.000743696
7 *883:A 6.42728e-06
8 *813:CLK 0.000470308
9 *877:X 0.000546286
10 *297:82 0.000286009
11 *297:80 8.80125e-05
12 *297:48 0.00136104
13 *297:31 0.000721137
14 *297:18 0.00082816
15 *297:14 0.000718762
16 *809:CLK *617:A1 6.86205e-05
17 *809:CLK *716:B 0.00261817
18 *809:CLK *302:10 0.00173414
19 *813:CLK *314:20 0.000871318
20 *813:CLK *362:10 0.000424402
21 *815:CLK *617:A1 0.000652894
22 *815:CLK *716:B 0.00273502
23 *857:CLK *780:A 6.48629e-05
24 *857:CLK *780:B 0.000100881
25 *857:CLK *369:258 0.00666783
26 *857:CLK *369:273 0.00012473
27 *883:A *708:A 0.000493199
28 *883:A *309:18 0.000162691
29 *297:14 *617:A2 0.000162691
30 *297:14 *706:B2 0.00276191
31 *297:14 *707:B 0.000756238
32 *297:14 *331:101 0.00140182
33 *297:18 *362:10 0.000564933
34 *297:31 *309:18 0.00073522
35 *297:31 *331:732 0.000232741
36 *297:48 *780:A 0
37 *297:48 *331:79 0.000470645
38 *297:48 *343:20 1.77085e-05
39 *297:80 *617:A2 0.000601744
40 *616:A *297:14 0.00140182
41 *617:B1 *809:CLK 0.00024033
42 *706:B1 *297:14 0.000564933
43 *708:B *297:31 0
44 *708:C *297:14 0.000253527
45 *764:C *857:CLK 0
46 *780:C *857:CLK 0.000180839
47 *781:B *297:48 0
48 *781:C *857:CLK 0.000100881
49 *781:C *297:48 0
50 *809:D *809:CLK 0.000493199
51 *813:D *813:CLK 0.00015207
52 *824:D *297:48 0.000853627
53 *842:D *297:14 0.00112203
54 *842:D *297:18 0.00162756
55 *857:D *857:CLK 0.00015207
56 *892:A *815:CLK 0.00106852
57 *16:25 *297:14 0.000154684
58 *16:25 *297:80 0.00200567
59 *268:8 *857:CLK 0.000317375
60 *293:148 *297:48 0
*RES
1 *877:X *297:14 26.603 
2 *297:14 *297:18 3.25758 
3 *297:18 *813:CLK 12.5576 
4 *297:18 *297:31 6.15152 
5 *297:31 *883:A 14.2545 
6 *297:31 *297:48 9.04546 
7 *297:48 *857:CLK 18.2545 
8 *297:48 *824:CLK 9.3 
9 *297:14 *842:CLK 9.3 
10 *877:X *297:80 11.5121 
11 *297:80 *297:82 4.5 
12 *297:82 *809:CLK 18.9364 
13 *297:82 *815:CLK 18.0273 
14 *297:80 *847:CLK 9.3 
*END

*D_NET *298 0.0430936
*CONN
*I *860:CLK I *D sky130_fd_sc_hd__dfxtp_1
*I *844:CLK I *D sky130_fd_sc_hd__dfxtp_1
*I *812:CLK I *D sky130_fd_sc_hd__dfxtp_1
*I *884:A I *D sky130_fd_sc_hd__clkinv_1
*I *828:CLK I *D sky130_fd_sc_hd__dfxtp_1
*I *825:CLK I *D sky130_fd_sc_hd__dfxtp_1
*I *834:CLK I *D sky130_fd_sc_hd__dfxtp_1
*I *831:CLK I *D sky130_fd_sc_hd__dfxtp_1
*I *878:X O *D sky130_fd_sc_hd__clkbuf_16
*CAP
1 *860:CLK 0.000168952
2 *844:CLK 0.000597525
3 *812:CLK 0
4 *884:A 0.000157299
5 *828:CLK 0
6 *825:CLK 0.000286868
7 *834:CLK 0
8 *831:CLK 8.51917e-05
9 *878:X 0.00131789
10 *298:70 0.00164504
11 *298:66 0.00343025
12 *298:40 0.000433403
13 *298:38 0.00149152
14 *298:16 0.00254363
15 *298:6 0.00360738
16 *825:CLK *920:A 0
17 *825:CLK *331:695 0.00169242
18 *831:CLK *351:18 0.000901869
19 *831:CLK *354:12 0.000888056
20 *831:CLK *354:29 2.52979e-05
21 *860:CLK *689:A2 0.000151945
22 *860:CLK *691:A 0.00023527
23 *860:CLK *755:A1 0.00040856
24 *860:CLK *920:A 0.00106852
25 *860:CLK *323:31 0.00115184
26 *860:CLK *347:12 0
27 *884:A *632:A2 0
28 *298:16 *755:A1 9.47164e-05
29 *298:16 *755:A2 0.00037419
30 *298:16 *354:12 0.00355083
31 *298:40 *920:A 0
32 *298:66 *755:A1 0
33 *298:66 *920:A 0
34 *625:A2 *831:CLK 0.000118255
35 *625:A2 *298:16 0.000620792
36 *755:B1 *298:16 0.00314003
37 *765:B *825:CLK 0.000224508
38 *825:D *825:CLK 0.00155389
39 *825:D *844:CLK 0
40 *825:D *298:40 0.000999899
41 *825:D *298:66 0.0013332
42 *834:D *298:16 0.00128643
43 *844:D *844:CLK 0.00166455
44 *866:D *831:CLK 0.000436598
45 *866:D *298:70 0
46 *184:24 *884:A 0.00112577
47 *184:24 *298:66 0.00118069
48 *184:24 *298:70 0.000541394
49 *278:14 *831:CLK 2.80384e-05
50 *279:16 *825:CLK 0
51 *293:23 *298:6 0.00078634
52 *293:23 *298:16 0.000561284
53 *293:27 *298:16 0.000474516
54 *293:86 *844:CLK 0.000708971
*RES
1 *878:X *298:6 11.497 
2 *298:6 *298:16 11.5 
3 *298:16 *831:CLK 21.1182 
4 *298:16 *834:CLK 9.3 
5 *298:6 *298:38 4.5 
6 *298:38 *298:40 1.65152 
7 *298:40 *825:CLK 18.0879 
8 *298:40 *828:CLK 13.8 
9 *298:38 *298:66 8.86364 
10 *298:66 *298:70 3.16667 
11 *298:70 *884:A 10.8152 
12 *298:70 *812:CLK 9.3 
13 *298:66 *844:CLK 23.5273 
14 *878:X *860:CLK 31.0545 
*END

*D_NET *299 0.0285127
*CONN
*I *843:CLK I *D sky130_fd_sc_hd__dfxtp_1
*I *858:CLK I *D sky130_fd_sc_hd__dfxtp_1
*I *862:CLK I *D sky130_fd_sc_hd__dfxtp_1
*I *830:CLK I *D sky130_fd_sc_hd__dfxtp_1
*I *865:CLK I *D sky130_fd_sc_hd__dfxtp_1
*I *833:CLK I *D sky130_fd_sc_hd__dfxtp_1
*I *863:CLK I *D sky130_fd_sc_hd__dfxtp_1
*I *811:CLK I *D sky130_fd_sc_hd__dfxtp_1
*I *826:CLK I *D sky130_fd_sc_hd__dfxtp_1
*I *879:X O *D sky130_fd_sc_hd__clkbuf_16
*CAP
1 *843:CLK 0.000279303
2 *858:CLK 0
3 *862:CLK 0
4 *830:CLK 0
5 *865:CLK 0
6 *833:CLK 0
7 *863:CLK 0.000610762
8 *811:CLK 0.000273289
9 *826:CLK 0
10 *879:X 0.000523472
11 *299:63 0.000923358
12 *299:61 0.000982116
13 *299:59 0.000947072
14 *299:57 0.00175237
15 *299:45 0.00276704
16 *299:33 0.00194446
17 *299:10 0.000423824
18 *811:CLK *310:42 0.000642275
19 *811:CLK *345:12 0.000410249
20 *843:CLK *648:B 0.000493199
21 *843:CLK *310:32 0.000412151
22 *863:CLK *634:A 0
23 *299:33 *648:B 0
24 *299:33 *345:18 0
25 *299:57 *637:A 0.000493199
26 *299:61 *637:A 0
27 *628:B *299:61 0
28 *628:B *299:63 0
29 *637:B *299:57 0
30 *637:B *299:59 0
31 *637:B *299:61 0
32 *637:C *299:45 0
33 *637:C *299:57 0.000371178
34 *649:C *843:CLK 0.000162691
35 *649:C *299:33 0.000129019
36 *761:B *299:33 0
37 *761:C *299:33 0
38 *826:D *811:CLK 0.00506762
39 *833:D *863:CLK 0
40 *858:D *843:CLK 0.000493199
41 *858:D *299:33 0.000901869
42 *858:D *299:45 0.00631705
43 *862:D *299:57 0
44 *862:D *299:59 0
45 *77:14 *299:10 0.000275747
46 *77:14 *299:33 0
47 *269:10 *843:CLK 0.000422997
48 *269:21 *843:CLK 0.000493199
49 *293:86 *299:10 0
*RES
1 *879:X *299:10 19.9515 
2 *299:10 *826:CLK 9.3 
3 *299:10 *811:CLK 14.9818 
4 *879:X *299:33 21.7545 
5 *299:33 *299:45 16.8182 
6 *299:45 *299:57 12.2273 
7 *299:57 *299:59 1.90909 
8 *299:59 *299:61 4.22727 
9 *299:61 *299:63 2.16667 
10 *299:63 *863:CLK 18.0273 
11 *299:63 *833:CLK 13.8 
12 *299:61 *865:CLK 13.8 
13 *299:59 *830:CLK 13.8 
14 *299:57 *862:CLK 13.8 
15 *299:45 *858:CLK 9.3 
16 *299:33 *843:CLK 12.5424 
*END

*D_NET *300 0.0437135
*CONN
*I *808:CLK I *D sky130_fd_sc_hd__dfxtp_1
*I *841:CLK I *D sky130_fd_sc_hd__dfxtp_1
*I *823:CLK I *D sky130_fd_sc_hd__dfxtp_1
*I *852:CLK I *D sky130_fd_sc_hd__dfxtp_1
*I *885:A I *D sky130_fd_sc_hd__clkinv_1
*I *845:CLK I *D sky130_fd_sc_hd__dfxtp_1
*I *819:CLK I *D sky130_fd_sc_hd__dfxtp_1
*I *856:CLK I *D sky130_fd_sc_hd__dfxtp_1
*I *880:X O *D sky130_fd_sc_hd__clkbuf_16
*CAP
1 *808:CLK 0.000217292
2 *841:CLK 2.1941e-05
3 *823:CLK 0.00029755
4 *852:CLK 0.00118656
5 *885:A 0
6 *845:CLK 0.00137854
7 *819:CLK 0.000234702
8 *856:CLK 0
9 *880:X 0.00248494
10 *300:101 0.000713272
11 *300:63 0.00190375
12 *300:31 0.00611937
13 *300:18 0.0060655
14 *300:12 0.00315064
15 *808:CLK *696:A 0
16 *808:CLK *302:10 0.000953306
17 *819:CLK *650:B2 0.00024946
18 *819:CLK *763:A2 0.000939938
19 *819:CLK *347:12 6.80933e-05
20 *841:CLK *302:10 3.40466e-05
21 *845:CLK *347:12 0.000232318
22 *852:CLK *605:A2 0.000164025
23 *852:CLK *686:A1 4.30064e-05
24 *852:CLK *688:A 0.000128717
25 *852:CLK *801:A 0.000275747
26 *852:CLK *324:35 0.000436598
27 *852:CLK *331:290 0.000493199
28 *852:CLK *362:10 0
29 *300:12 *331:32 0.00351815
30 *300:63 *688:A 7.28588e-05
31 *300:63 *362:10 0
32 *300:101 *331:26 0.000154684
33 *300:101 *331:32 0.000100881
34 *655:B *852:CLK 0.00020428
35 *655:B *300:63 0
36 *688:B *852:CLK 0
37 *688:C *852:CLK 0
38 *688:C *300:63 3.79613e-05
39 *700:A *808:CLK 0.000318753
40 *700:A *841:CLK 0.000103721
41 *709:A2 *300:101 0.00240053
42 *709:B1 *300:101 0.00124944
43 *782:A *300:18 0.000100881
44 *856:D *852:CLK 6.86205e-05
45 *856:D *300:18 0.000908307
46 *856:D *300:63 0
47 *873:A *300:31 0.000414862
48 *902:A *841:CLK 0.000318595
49 *1:18 *300:31 0.00149561
50 *75:14 *819:CLK 0.00156798
51 *75:14 *300:31 0.000493199
52 *184:24 *819:CLK 0.000680933
53 *184:24 *845:CLK 0.00020428
54 *249:10 *852:CLK 0
55 *267:16 *300:18 0.000410249
56 *293:6 *300:31 4.61439e-05
57 *293:23 *845:CLK 0.000536881
58 *293:111 *300:18 0.000250499
59 *293:111 *300:31 0.000200615
60 *293:124 *300:63 6.2085e-05
61 *293:148 *300:12 0
62 *293:177 *852:CLK 0
*RES
1 *880:X *300:12 22.9364 
2 *300:12 *300:18 6.15152 
3 *300:18 *856:CLK 9.3 
4 *300:18 *300:31 13.9545 
5 *300:31 *819:CLK 17.9818 
6 *300:31 *845:CLK 17.497 
7 *300:18 *300:63 11.4545 
8 *300:63 *885:A 9.3 
9 *300:63 *852:CLK 26.3606 
10 *300:12 *823:CLK 10.8 
11 *880:X *300:101 17.4061 
12 *300:101 *841:CLK 14.4212 
13 *300:101 *808:CLK 17.5121 
*END

*D_NET *301 0.0363777
*CONN
*I *854:CLK I *D sky130_fd_sc_hd__dfxtp_1
*I *855:CLK I *D sky130_fd_sc_hd__dfxtp_1
*I *822:CLK I *D sky130_fd_sc_hd__dfxtp_1
*I *853:CLK I *D sky130_fd_sc_hd__dfxtp_1
*I *821:CLK I *D sky130_fd_sc_hd__dfxtp_1
*I *820:CLK I *D sky130_fd_sc_hd__dfxtp_1
*I *810:CLK I *D sky130_fd_sc_hd__dfxtp_1
*I *827:CLK I *D sky130_fd_sc_hd__dfxtp_1
*I *859:CLK I *D sky130_fd_sc_hd__dfxtp_1
*I *881:X O *D sky130_fd_sc_hd__clkbuf_16
*CAP
1 *854:CLK 0.000125774
2 *855:CLK 0.000250532
3 *822:CLK 0.000126436
4 *853:CLK 4.75222e-05
5 *821:CLK 0.000171061
6 *820:CLK 0.000266807
7 *810:CLK 0
8 *827:CLK 0.00113539
9 *859:CLK 0.000534226
10 *881:X 0.000680547
11 *301:81 0.000712561
12 *301:75 0.000461367
13 *301:35 0.0015029
14 *301:33 0.000982761
15 *301:29 0.000733708
16 *301:16 0.00101556
17 *301:14 0.000995197
18 *820:CLK *644:A2 0.000287421
19 *820:CLK *306:27 0.000873109
20 *820:CLK *348:18 0.000100881
21 *821:CLK *644:A2 0.000287421
22 *822:CLK *326:10 0
23 *854:CLK *659:B2 0.00106852
24 *854:CLK *662:A2 0.00148471
25 *854:CLK *791:A2 2.80384e-05
26 *854:CLK *792:B 5.58584e-05
27 *854:CLK *336:29 0.000340466
28 *855:CLK *302:23 0.000136187
29 *859:CLK *305:36 0.000720695
30 *859:CLK *322:276 0.000222387
31 *301:14 *662:A2 2.35389e-05
32 *301:14 *662:B2 0.00351815
33 *301:14 *305:36 0.000162111
34 *301:14 *306:10 0.00140182
35 *301:14 *340:6 0.00124944
36 *301:16 *305:36 0.000240434
37 *301:29 *644:A2 0
38 *301:29 *322:255 0
39 *301:33 *644:A2 0.000555162
40 *301:33 *771:A2 0.000135986
41 *301:33 *322:227 0.000900889
42 *301:35 *644:A2 0.000412151
43 *301:81 *662:A2 0.000129019
44 *301:81 *322:409 0.000168231
45 *301:81 *322:422 8.60128e-05
46 *301:81 *336:29 0.000300411
47 *789:C *855:CLK 0.000275747
48 *791:B1 *301:81 0.000136187
49 *793:C *301:81 0.00123517
50 *810:D *821:CLK 0.000192645
51 *810:D *301:35 0.00015207
52 *821:D *821:CLK 0.000526259
53 *821:D *301:14 0.000765017
54 *822:D *822:CLK 0
55 *827:D *827:CLK 0.000530189
56 *853:D *301:14 0.000530189
57 *859:D *859:CLK 0.00128643
58 *881:A *301:14 0.000287421
59 *918:A *822:CLK 0.000162691
60 *919:A *854:CLK 0.000255565
61 *219:10 *855:CLK 0.00123517
62 *222:18 *822:CLK 0.000493199
63 *222:18 *301:81 0
64 *270:10 *859:CLK 0.00351815
65 *293:177 *301:14 0.000164225
66 *293:177 *301:33 0
*RES
1 *881:X *301:14 27.6485 
2 *301:14 *301:16 1.5 
3 *301:16 *859:CLK 15.3455 
4 *301:16 *301:29 6.15152 
5 *301:29 *301:33 8.72727 
6 *301:33 *301:35 2.54546 
7 *301:35 *827:CLK 14.9818 
8 *301:35 *810:CLK 9.3 
9 *301:33 *820:CLK 12.5424 
10 *301:29 *821:CLK 15.997 
11 *301:14 *853:CLK 9.66364 
12 *881:X *301:75 9.3 
13 *301:75 *301:81 9.49243 
14 *301:81 *822:CLK 15.5197 
15 *301:81 *855:CLK 17.0652 
16 *301:75 *854:CLK 21.4515 
*END

*D_NET *302 0.0224054
*CONN
*I *787:A2 I *D sky130_fd_sc_hd__a21oi_1
*I *788:B I *D sky130_fd_sc_hd__and3_1
*I *656:A2 I *D sky130_fd_sc_hd__a22oi_1
*I *886:X O *D sky130_fd_sc_hd__buf_1
*CAP
1 *787:A2 0.000169397
2 *788:B 0.000257338
3 *656:A2 2.56778e-06
4 *886:X 0.00176997
5 *302:23 0.000549392
6 *302:10 0.0018952
7 *787:A2 *787:A1 0.00200567
8 *787:A2 *322:399 6.48629e-05
9 *788:B *787:A1 5.38032e-05
10 *788:B *322:403 2.35389e-05
11 *302:10 *619:A 0.000189417
12 *302:10 *696:A 0
13 *302:10 *716:B 0.000584801
14 *302:10 *734:A 0.000111311
15 *302:10 *303:12 0.000436398
16 *302:10 *322:341 6.86205e-05
17 *302:10 *322:343 0.00040192
18 *302:10 *322:351 0.00140182
19 *302:10 *326:10 0
20 *302:10 *328:16 0
21 *302:10 *331:22 0.00190177
22 *302:10 *342:10 0
23 *302:23 *322:341 0.000833249
24 *302:23 *322:399 0.00140182
25 *617:B1 *302:10 0.000238126
26 *658:B *656:A2 0.00013563
27 *658:C *656:A2 0.00013563
28 *789:B *787:A2 0.00012473
29 *789:C *787:A2 0.00162756
30 *789:C *302:23 0
31 *808:CLK *302:10 0.000953306
32 *809:CLK *302:10 0.00173414
33 *809:D *302:10 0.00073522
34 *841:CLK *302:10 3.40466e-05
35 *855:CLK *302:23 0.000136187
36 *855:D *302:23 0.000189734
37 *886:A *302:10 0.000100881
38 *902:A *302:10 0.00148514
39 *911:A *787:A2 7.7342e-05
40 *150:10 *302:10 6.27708e-06
41 *219:10 *302:23 0.00056857
*RES
1 *886:X *302:10 28.8909 
2 *302:10 *656:A2 13.925 
3 *302:10 *302:23 7.95455 
4 *302:23 *788:B 9.75455 
5 *302:23 *787:A2 12.4818 
*END

*D_NET *303 0.0175196
*CONN
*I *784:B I *D sky130_fd_sc_hd__and3_1
*I *653:A2 I *D sky130_fd_sc_hd__a22oi_1
*I *783:A2 I *D sky130_fd_sc_hd__a21oi_1
*I *887:X O *D sky130_fd_sc_hd__buf_1
*CAP
1 *784:B 0
2 *653:A2 0.00221343
3 *783:A2 0
4 *887:X 0.00204679
5 *303:25 0.0031714
6 *303:12 0.00300475
7 *653:A2 *369:299 0.000433743
8 *303:12 *734:A 0.0019791
9 *303:12 *734:B 3.8858e-05
10 *303:25 *369:316 0.000154684
11 *782:A *653:A2 0.000410541
12 *783:B1 *303:25 0.00118482
13 *785:B *303:25 0.00124944
14 *785:C *303:25 0.000414809
15 *887:A *303:12 0.000178223
16 *179:16 *653:A2 0.000104991
17 *216:12 *653:A2 0.000255565
18 *216:12 *303:25 9.7145e-06
19 *293:148 *653:A2 0.000232318
20 *302:10 *303:12 0.000436398
*RES
1 *887:X *303:12 23.5424 
2 *303:12 *783:A2 9.3 
3 *303:12 *303:25 4.68182 
4 *303:25 *653:A2 23.2432 
5 *303:25 *784:B 9.3 
*END

*D_NET *304 0.0186563
*CONN
*I *779:A2 I *D sky130_fd_sc_hd__a21oi_1
*I *650:A2 I *D sky130_fd_sc_hd__a22oi_1
*I *780:B I *D sky130_fd_sc_hd__and3_1
*I *888:X O *D sky130_fd_sc_hd__buf_1
*CAP
1 *779:A2 1.79828e-05
2 *650:A2 2.88339e-05
3 *780:B 0.000715413
4 *888:X 0.00259413
5 *304:16 0.00114655
6 *304:14 0.00301441
7 *650:A2 *779:A1 5.6354e-05
8 *650:A2 *369:282 0.00106804
9 *779:A2 *654:B 0.000222387
10 *779:A2 *779:A1 6.48629e-05
11 *304:14 *654:B 0.00162756
12 *304:14 *782:B 0.000666599
13 *304:14 *343:10 0.00106128
14 *304:14 *343:20 0.000100881
15 *304:14 *369:295 9.47164e-05
16 *304:14 *369:299 0.00124944
17 *304:16 *369:282 8.49081e-05
18 *304:16 *369:295 5.58584e-05
19 *654:A *304:14 0.00024946
20 *779:B1 *650:A2 0.0007829
21 *779:B1 *780:B 0.00122842
22 *781:B *780:B 0.00140182
23 *857:CLK *780:B 0.000100881
24 *888:A *304:14 0.000287421
25 *213:10 *780:B 0.00073522
26 *293:148 *304:14 0
*RES
1 *888:X *304:14 25.997 
2 *304:14 *304:16 0.837121 
3 *304:16 *780:B 21.6902 
4 *304:16 *650:A2 10.9023 
5 *304:14 *779:A2 9.92121 
*END

*D_NET *305 0.047787
*CONN
*I *775:A2 I *D sky130_fd_sc_hd__a21oi_1
*I *776:B I *D sky130_fd_sc_hd__and3_1
*I *647:A2 I *D sky130_fd_sc_hd__a22oi_1
*I *889:X O *D sky130_fd_sc_hd__buf_1
*CAP
1 *775:A2 0
2 *776:B 0.000393177
3 *647:A2 0.000408269
4 *889:X 0.00898392
5 *305:53 0.00101612
6 *305:38 0.00227939
7 *305:36 0.0102321
8 *647:A2 *331:455 0.000403356
9 *776:B *322:135 0
10 *776:B *322:139 0.00200567
11 *305:36 *646:A 0.000127395
12 *305:36 *664:A 0.000493199
13 *305:36 *791:A1 0.000162691
14 *305:36 *793:A 0.00251817
15 *305:36 *310:32 0.000164922
16 *305:36 *319:16 0.000871318
17 *305:36 *322:276 0.000111717
18 *305:36 *326:10 0.00162756
19 *305:36 *331:241 0.000651895
20 *305:36 *331:261 0
21 *305:38 *612:B 0.000871318
22 *305:38 *647:A1 3.8858e-05
23 *305:38 *703:A2 0.000677453
24 *305:38 *703:B2 7.7342e-05
25 *305:38 *331:455 0.000131145
26 *305:53 *647:A1 0
27 *305:53 *310:42 0
28 *305:53 *322:135 6.86205e-05
29 *305:53 *331:449 0
30 *305:53 *345:12 0
31 *611:C *305:53 1.77085e-05
32 *612:A *305:38 0.00024946
33 *661:C *305:36 0.00112078
34 *662:B1 *305:36 1.70004e-05
35 *664:B *305:36 0.00143904
36 *703:B1 *305:38 0.00162756
37 *705:B *305:38 0.00124944
38 *705:C *305:53 0.000901869
39 *774:A *305:53 0
40 *777:C *776:B 0.000231312
41 *793:B *305:36 0.000158944
42 *811:D *305:53 0.000189355
43 *853:D *305:36 0.000711651
44 *859:CLK *305:36 0.000720695
45 *859:D *305:36 0.000263131
46 *889:A *305:36 0.000287421
47 *894:A *305:36 0.000131145
48 *909:A *305:36 0.00212434
49 *210:10 *305:53 0.000533279
50 *255:8 *305:38 0.000871318
51 *264:8 *305:36 0.000223434
52 *269:21 *305:53 0
53 *293:86 *776:B 0
54 *301:14 *305:36 0.000162111
55 *301:16 *305:36 0.000240434
*RES
1 *889:X *305:36 45.9667 
2 *305:36 *305:38 7.42424 
3 *305:38 *647:A2 11.6561 
4 *305:38 *305:53 15.5455 
5 *305:53 *776:B 21.4818 
6 *305:53 *775:A2 9.3 
*END

*D_NET *306 0.0202862
*CONN
*I *771:A2 I *D sky130_fd_sc_hd__a21oi_1
*I *644:A2 I *D sky130_fd_sc_hd__a22oi_1
*I *772:B I *D sky130_fd_sc_hd__and3_1
*I *890:X O *D sky130_fd_sc_hd__buf_1
*CAP
1 *771:A2 0.000147212
2 *644:A2 0.00224042
3 *772:B 0.000516886
4 *890:X 0.000696306
5 *306:27 0.00386991
6 *306:10 0.00269547
7 *644:A2 *645:B 0
8 *644:A2 *322:242 0
9 *644:A2 *322:255 0
10 *771:A2 *322:227 0.00056857
11 *306:10 *313:12 0.00132181
12 *306:10 *319:16 0.000287421
13 *306:27 *313:12 0.000572384
14 *645:A *644:A2 0
15 *810:D *644:A2 0.00202973
16 *820:CLK *644:A2 0.000287421
17 *820:CLK *306:27 0.000873109
18 *821:CLK *644:A2 0.000287421
19 *821:D *644:A2 0
20 *826:D *772:B 0.000871318
21 *293:177 *306:10 0.000154317
22 *293:177 *306:27 0.00036138
23 *301:14 *306:10 0.00140182
24 *301:29 *644:A2 0
25 *301:33 *644:A2 0.000555162
26 *301:33 *771:A2 0.000135986
27 *301:35 *644:A2 0.000412151
*RES
1 *890:X *306:10 19.603 
2 *306:10 *772:B 15.0576 
3 *306:10 *306:27 9.21212 
4 *306:27 *644:A2 27.0992 
5 *306:27 *771:A2 19.6939 
*END

*D_NET *307 0.0323834
*CONN
*I *641:A2 I *D sky130_fd_sc_hd__a22oi_1
*I *768:B I *D sky130_fd_sc_hd__and3_1
*I *767:A2 I *D sky130_fd_sc_hd__a21oi_1
*I *891:X O *D sky130_fd_sc_hd__buf_1
*CAP
1 *641:A2 0
2 *768:B 0.000502806
3 *767:A2 0
4 *891:X 0.00762261
5 *307:27 0.000568865
6 *307:14 0.00768866
7 *768:B *615:A 0
8 *768:B *313:18 0.00016947
9 *768:B *322:62 0.000456209
10 *768:B *322:190 1.89806e-05
11 *768:B *359:10 2.80384e-05
12 *307:14 *665:B2 0
13 *307:14 *799:A1 2.06247e-05
14 *307:14 *313:18 0.00336771
15 *307:14 *322:197 0.00140999
16 *307:14 *322:221 0.00078634
17 *307:14 *322:321 0.00140999
18 *307:14 *331:22 0.000206247
19 *307:14 *331:282 0.00140182
20 *307:14 *334:22 0.000436031
21 *307:27 *313:18 0.00177029
22 *307:27 *322:190 0.000345341
23 *307:27 *322:197 7.7342e-05
24 *643:B *768:B 1.77085e-05
25 *667:B *307:14 0
26 *701:B *307:14 0.000661611
27 *768:C *768:B 0.000817478
28 *827:D *768:B 0.000128893
29 *228:14 *307:14 0.00140182
30 *263:12 *307:14 0.00106852
31 *293:177 *307:14 0
*RES
1 *891:X *307:14 46.5727 
2 *307:14 *767:A2 9.3 
3 *307:14 *307:27 2.66288 
4 *307:27 *768:B 23.8795 
5 *307:27 *641:A2 9.3 
*END

*D_NET *308 0.0203258
*CONN
*I *618:B I *D sky130_fd_sc_hd__and3_1
*I *617:A2 I *D sky130_fd_sc_hd__a21oi_1
*I *706:A2 I *D sky130_fd_sc_hd__a22oi_1
*I *892:X O *D sky130_fd_sc_hd__buf_1
*CAP
1 *618:B 2.19508e-05
2 *617:A2 0.000309782
3 *706:A2 4.91508e-05
4 *892:X 8.82473e-05
5 *308:25 0.000420791
6 *308:6 0.000226456
7 *618:B *328:16 0.00123517
8 *706:A2 *706:A1 0.000723358
9 *706:A2 *327:34 0.00200567
10 *706:A2 *331:101 0.000164225
11 *308:6 *598:B 0.00124944
12 *308:6 *326:27 0.000756238
13 *308:6 *327:34 0.000493199
14 *308:25 *327:34 0.00023527
15 *308:25 *328:16 0.0017416
16 *308:25 *331:101 0.000172026
17 *616:A *618:B 0.00116655
18 *616:A *308:25 0.00123517
19 *619:B *617:A2 0.000162691
20 *16:25 *617:A2 0.000925121
21 *16:25 *706:A2 0.00040143
22 *174:18 *706:A2 0.00272903
23 *174:18 *308:6 0.00264683
24 *272:21 *308:25 0.00040192
25 *297:14 *617:A2 0.000162691
26 *297:80 *617:A2 0.000601744
*RES
1 *892:X *308:6 11.8455 
2 *308:6 *706:A2 21.4364 
3 *308:6 *308:25 7.95455 
4 *308:25 *617:A2 17.4364 
5 *308:25 *618:B 15.7091 
*END

*D_NET *309 0.041004
*CONN
*I *763:A2 I *D sky130_fd_sc_hd__a21oi_1
*I *764:B I *D sky130_fd_sc_hd__and3_1
*I *638:A2 I *D sky130_fd_sc_hd__a22oi_1
*I *893:X O *D sky130_fd_sc_hd__buf_1
*CAP
1 *763:A2 0.000154189
2 *764:B 0.000255937
3 *638:A2 0.000960541
4 *893:X 0.0074319
5 *309:33 0.000434957
6 *309:18 0.00841727
7 *638:A2 *638:A1 0.000166443
8 *763:A2 *650:B2 0.000871318
9 *763:A2 *344:6 8.67686e-05
10 *763:A2 *344:14 0.00140182
11 *309:18 *602:B 1.77085e-05
12 *309:18 *652:A 0.000493199
13 *309:18 *708:A 0.000131145
14 *309:18 *331:523 0.000378119
15 *309:18 *331:525 0.0060499
16 *309:18 *331:732 0
17 *309:18 *344:14 0.000661611
18 *309:33 *344:14 0.00106852
19 *603:B *309:18 0.000871318
20 *639:A *638:A2 6.43646e-05
21 *651:A *309:18 0.00108282
22 *652:C *309:18 7.7342e-05
23 *708:B *309:18 0.00162756
24 *763:B1 *763:A2 0.00011508
25 *765:B *763:A2 2.35389e-05
26 *765:C *764:B 0.000493199
27 *819:CLK *763:A2 0.000939938
28 *842:D *309:18 0.000189734
29 *883:A *309:18 0.000162691
30 *75:14 *763:A2 0.000176241
31 *75:14 *309:33 0.000136187
32 *174:18 *309:18 0.00209244
33 *184:24 *763:A2 0.00183315
34 *184:24 *309:33 0.00140182
35 *297:31 *309:18 0.00073522
*RES
1 *893:X *309:18 36.2091 
2 *309:18 *638:A2 11.4629 
3 *309:18 *309:33 6.66667 
4 *309:33 *764:B 14.2545 
5 *309:33 *763:A2 18.2545 
*END

*D_NET *310 0.0496927
*CONN
*I *759:A2 I *D sky130_fd_sc_hd__a21oi_1
*I *760:B I *D sky130_fd_sc_hd__and3_1
*I *635:A2 I *D sky130_fd_sc_hd__a22oi_1
*I *894:X O *D sky130_fd_sc_hd__buf_1
*CAP
1 *759:A2 6.36688e-05
2 *760:B 1.90479e-05
3 *635:A2 0.000207358
4 *894:X 0.00877652
5 *310:44 0.000440881
6 *310:42 0.00284031
7 *310:32 0.0113387
8 *635:A2 *635:A1 0.000723358
9 *635:A2 *331:407 0.000211498
10 *310:32 *646:A 0.00648
11 *310:32 *791:A1 0.000162691
12 *310:32 *319:16 0.000561792
13 *310:32 *319:22 0.000162691
14 *310:32 *322:255 0.000318595
15 *310:32 *331:220 0.000813963
16 *310:32 *331:222 0.000813963
17 *310:32 *331:241 0
18 *310:42 *648:B 0.00123517
19 *310:42 *331:407 6.18741e-05
20 *310:42 *345:12 0.000368505
21 *310:42 *345:18 0.00123517
22 *310:44 *331:407 0.000157861
23 *615:B *310:32 0.00124944
24 *635:B1 *635:A2 0
25 *646:B *310:32 0.000871318
26 *646:C *310:32 0.00112078
27 *760:C *635:A2 0.00011508
28 *760:C *310:44 1.34508e-05
29 *761:B *759:A2 0.000640477
30 *774:A *310:42 0.00123517
31 *791:B1 *310:32 0.000985194
32 *793:B *310:32 0.00012473
33 *793:C *310:32 0.000871318
34 *811:CLK *310:42 0.000642275
35 *821:D *310:32 0.000151455
36 *843:CLK *310:32 0.000412151
37 *843:D *310:32 0.000263131
38 *894:A *310:32 0.000162691
39 *909:A *310:32 0.000400909
40 *20:19 *310:32 0
41 *77:14 *759:A2 0.00156651
42 *269:21 *310:42 0.000999899
43 *283:10 *310:32 0.000493199
44 *293:86 *310:42 0.000215032
45 *305:36 *310:32 0.000164922
46 *305:53 *310:42 0
*RES
1 *894:X *310:32 49.1595 
2 *310:32 *310:42 18.6515 
3 *310:42 *310:44 1.15152 
4 *310:44 *635:A2 11.2848 
5 *310:44 *760:B 9.66364 
6 *310:42 *759:A2 20.7242 
*END

*D_NET *311 0.0269633
*CONN
*I *756:B I *D sky130_fd_sc_hd__and3_1
*I *755:A2 I *D sky130_fd_sc_hd__a21oi_1
*I *632:A2 I *D sky130_fd_sc_hd__a22oi_1
*I *895:X O *D sky130_fd_sc_hd__buf_2
*CAP
1 *756:B 0
2 *755:A2 0.000268553
3 *632:A2 7.89489e-05
4 *895:X 0.00681502
5 *311:18 0.000401795
6 *311:16 0.00686931
7 *755:A2 *625:C1 6.86205e-05
8 *755:A2 *755:A1 0.000493199
9 *311:16 *322:99 2.15032e-05
10 *311:16 *323:16 0
11 *311:16 *324:18 0.000151945
12 *311:18 *625:C1 0.000720987
13 p *311:16 0.000151945
14 *625:B1 *755:A2 0.000901869
15 *632:B1 *632:A2 7.47267e-05
16 *744:A *632:A2 0.000363344
17 *755:B1 *755:A2 0.00200567
18 *757:B *755:A2 0.000769759
19 *757:B *311:16 0.000666599
20 *757:B *311:18 0.00190177
21 *757:C *311:16 0.000818054
22 *757:C *311:18 6.86205e-05
23 *866:D *632:A2 0.00185771
24 *884:A *632:A2 0
25 *891:A *311:16 0.000149321
26 *77:14 *755:A2 0.000476653
27 *184:24 *632:A2 0.000493199
28 *298:16 *755:A2 0.00037419
*RES
1 *895:X *311:16 28.5736 
2 *311:16 *311:18 2.93939 
3 *311:18 *632:A2 15.8758 
4 *311:18 *755:A2 19.4212 
5 *311:16 *756:B 13.8 
*END

*D_NET *312 0.0272582
*CONN
*I *751:A2 I *D sky130_fd_sc_hd__a21oi_1
*I *629:A2 I *D sky130_fd_sc_hd__a22oi_1
*I *752:B I *D sky130_fd_sc_hd__and3_1
*I *896:X O *D sky130_fd_sc_hd__buf_1
*CAP
1 *751:A2 0
2 *629:A2 0.000516657
3 *752:B 0.000265715
4 *896:X 0.00393326
5 *312:22 0.00105389
6 *312:18 0.00420477
7 *629:A2 *629:A1 0.000260306
8 *629:A2 *629:B2 0
9 *629:A2 *740:A 0.000493199
10 *629:A2 *753:A 0
11 *629:A2 *314:20 0.000267506
12 *629:A2 *369:193 8.60128e-05
13 *629:A2 *369:202 0.000619798
14 *312:18 *679:A 0.000953306
15 *312:18 *321:18 0.00406298
16 *312:18 *332:20 0.000301045
17 *312:18 *369:122 0.000669194
18 *312:18 *369:193 0
19 *312:22 *369:181 0
20 *630:A *629:A2 2.35389e-05
21 *681:A *312:18 0.000805662
22 *682:C *312:18 0.000493199
23 *751:B1 *629:A2 0.0003333
24 *751:B1 *752:B 3.79613e-05
25 *751:B1 *312:22 0.00106852
26 *752:C *752:B 9.7145e-06
27 *753:B *629:A2 0
28 *1:18 *312:18 0.00298362
29 *28:17 *312:18 0.000216494
30 *75:14 *629:A2 0.00223507
31 *159:12 *312:18 9.244e-05
32 *164:14 *752:B 2.77611e-05
33 *169:14 *312:18 0.000924666
34 *174:18 *312:18 0.000318595
*RES
1 *896:X *312:18 34.1955 
2 *312:18 *312:22 2.45455 
3 *312:22 *752:B 14.2545 
4 *312:22 *629:A2 21.0273 
5 *312:18 *751:A2 13.8 
*END

*D_NET *313 0.0452465
*CONN
*I *747:A2 I *D sky130_fd_sc_hd__a21oi_1
*I *748:B I *D sky130_fd_sc_hd__and3_1
*I *626:A2 I *D sky130_fd_sc_hd__a22oi_1
*I *897:X O *D sky130_fd_sc_hd__buf_1
*CAP
1 *747:A2 7.20539e-05
2 *748:B 0
3 *626:A2 0.000316514
4 *897:X 0.00304498
5 *313:24 0.00116198
6 *313:18 0.00472135
7 *313:12 0.00684881
8 *626:A2 *626:A1 0.000345239
9 *626:A2 *322:86 0.00124944
10 *747:A2 *322:76 0.000162691
11 *747:A2 *331:407 4.30064e-05
12 *313:12 *663:B 0.00316635
13 *313:12 *664:A 0.000178223
14 *313:12 *793:A 0.000332907
15 *313:12 *794:B 0.000901869
16 *313:12 *319:16 0.000323716
17 *313:12 *331:282 0.00091285
18 *313:18 *609:A2 0.00124944
19 *313:18 *610:B 0.00124944
20 *313:18 *322:62 2.52202e-06
21 *313:18 *322:64 0.000170611
22 *313:18 *331:341 0.000829427
23 *313:18 *331:345 0.00108461
24 *313:18 *331:349 0.00012473
25 *313:24 *331:349 0.00024946
26 *642:A *313:18 0.000412151
27 *643:C *313:18 0.00162756
28 *664:C *313:12 0.000871318
29 *748:C *626:A2 0.00011508
30 *748:C *313:24 9.7145e-06
31 *749:B *747:A2 0.00127313
32 *749:C *626:A2 0.000155232
33 *749:C *313:24 0.000792928
34 *768:B *313:18 0.00016947
35 *769:B *313:18 0.000871318
36 *777:B *313:18 0.000871318
37 *777:C *313:18 0.000493199
38 *794:A *313:12 4.30064e-05
39 *903:A *313:12 0
40 *13:17 *313:12 0.000164225
41 *74:14 *747:A2 0.00140182
42 *74:14 *313:18 0.000162691
43 *74:14 *313:24 3.79613e-05
44 *293:177 *313:12 0
45 *306:10 *313:12 0.00132181
46 *306:27 *313:12 0.000572384
47 *307:14 *313:18 0.00336771
48 *307:27 *313:18 0.00177029
*RES
1 *897:X *313:12 33.603 
2 *313:12 *313:18 23.2273 
3 *313:18 *313:24 2.92424 
4 *313:24 *626:A2 12.2394 
5 *313:24 *748:B 9.3 
6 *313:18 *747:A2 20.9212 
*END

*D_NET *314 0.0308759
*CONN
*I *740:B I *D sky130_fd_sc_hd__nand2_1
*I *898:X O *D sky130_fd_sc_hd__buf_1
*CAP
1 *740:B 0
2 *898:X 0.00575737
3 *314:20 0.00575737
4 *314:20 *600:B 0.000493199
5 *314:20 *602:A 0.000901869
6 *314:20 *668:A1 0.00012473
7 *314:20 *668:A2 0.0016927
8 *314:20 *669:B 0.000201848
9 *314:20 *716:B 0.000131145
10 *314:20 *740:A 0.000493199
11 *314:20 *325:8 0.00200567
12 *314:20 *329:18 0.000151945
13 *314:20 *331:732 0.000197324
14 *314:20 *331:743 0.000132814
15 *314:20 *331:764 0.00351815
16 *314:20 *333:34 2.80384e-05
17 *314:20 *333:47 0.000164225
18 *314:20 *362:10 1.43476e-05
19 *314:20 *369:158 0.000696078
20 *314:20 *369:162 0.000100881
21 *600:A *314:20 0.000255565
22 *629:A2 *314:20 0.000267506
23 *630:A *314:20 0
24 *668:B1 *314:20 0.00162756
25 *669:A *314:20 0.000131145
26 *670:C *314:20 0.000888056
27 *813:CLK *314:20 0.000871318
28 *813:D *314:20 0.00106852
29 *898:A *314:20 0.000871318
30 *908:A *314:20 0.00162756
31 *164:14 *314:20 0.00021129
32 *246:20 *314:20 0.000493199
*RES
1 *898:X *314:20 44.1182 
2 *314:20 *740:B 9.3 
*END

*D_NET *315 0.0125559
*CONN
*I *734:B I *D sky130_fd_sc_hd__nand2_1
*I *899:X O *D sky130_fd_sc_hd__buf_1
*CAP
1 *734:B 0.00122413
2 *899:X 0.00122413
3 *734:B *658:A 3.79613e-05
4 *734:B *734:A 0.000682791
5 *734:B *323:16 0
6 *734:B *326:10 0.00473481
7 *734:B *331:14 0.000777064
8 *734:B *331:202 0.00024946
9 *700:B *734:B 0.00162756
10 *709:A2 *734:B 0.000275747
11 *887:A *734:B 0.00162756
12 *891:A *734:B 0
13 *899:A *734:B 5.58584e-05
14 *303:12 *734:B 3.8858e-05
*RES
1 *899:X *734:B 39.0849 
*END

*D_NET *316 0.0165957
*CONN
*I *728:B I *D sky130_fd_sc_hd__nand2_1
*I *900:X O *D sky130_fd_sc_hd__buf_1
*CAP
1 *728:B 0.000353329
2 *900:X 0.000353329
3 *728:B *594:B 0.000162691
4 *728:B *680:B2 0.00156847
5 *728:B *681:B 0.00256788
6 *728:B *682:A 0.00190177
7 *728:B *728:A 0.00162756
8 *728:B *326:10 0.000612839
9 *728:B *326:27 0.000136187
10 *728:B *364:10 0.00106803
11 *682:C *728:B 0.00540043
12 *847:D *728:B 0.00073522
13 *289:10 *728:B 7.41015e-05
14 *289:12 *728:B 3.38464e-05
*RES
1 *900:X *728:B 40.797 
*END

*D_NET *317 0.0238806
*CONN
*I *722:B I *D sky130_fd_sc_hd__nand2_1
*I *901:X O *D sky130_fd_sc_hd__buf_1
*CAP
1 *722:B 0.00887015
2 *901:X 0.00887015
3 *722:B *683:A2 2.77423e-05
4 *722:B *722:A 5.468e-05
5 *722:B *328:16 0.000204079
6 *722:B *331:107 0.000146601
7 *722:B *363:12 4.93199e-05
8 *722:B *369:112 0.000443831
9 *722:B *369:185 0.000389327
10 *722:B *369:187 0.000287421
11 *599:B *722:B 6.86205e-05
12 *684:A *722:B 0.000193542
13 *685:B *722:B 0.000412151
14 *753:B *722:B 0.000412151
15 *818:D *722:B 0.000908307
16 *840:D *722:B 0.000536881
17 *846:D *722:B 0.00200567
*RES
1 *901:X *722:B 48.8727 
*END

*D_NET *318 0.0186053
*CONN
*I *716:B I *D sky130_fd_sc_hd__nand2_1
*I *902:X O *D sky130_fd_sc_hd__buf_1
*CAP
1 *716:B 0.00338883
2 *902:X 0.00338883
3 *716:B *597:A1 0.000871318
4 *716:B *617:A1 0.000107263
5 *716:B *680:A1 0
6 *716:B *734:A 7.7342e-05
7 *716:B *326:10 0
8 *716:B *369:74 0.00124944
9 *716:B *369:92 0.000125098
10 *680:B1 *716:B 3.92117e-05
11 *809:CLK *716:B 0.00261817
12 *815:CLK *716:B 0.00273502
13 *886:A *716:B 0.000368505
14 *898:A *716:B 0.000607287
15 *901:A *716:B 0.000493199
16 *902:A *716:B 0.000439881
17 *908:A *716:B 0.00017943
18 *35:23 *716:B 0
19 *150:10 *716:B 0.00030484
20 *164:14 *716:B 0.000493199
21 *179:16 *716:B 0.000402551
22 *302:10 *716:B 0.000584801
23 *314:20 *716:B 0.000131145
*RES
1 *902:X *716:B 47.6 
*END

*D_NET *319 0.0219379
*CONN
*I *613:A2 I *D sky130_fd_sc_hd__a21oi_1
*I *703:A2 I *D sky130_fd_sc_hd__a22oi_1
*I *614:B I *D sky130_fd_sc_hd__and3_1
*I *903:X O *D sky130_fd_sc_hd__buf_1
*CAP
1 *613:A2 0
2 *703:A2 0.000163281
3 *614:B 8.16288e-05
4 *903:X 0.00270867
5 *319:22 0.00028393
6 *319:16 0.00274769
7 *703:A2 *612:B 0.000871318
8 *703:A2 *703:A1 2.65031e-05
9 *703:A2 *322:276 0.000331389
10 *703:A2 *322:278 0.00222409
11 *319:16 *613:A1 0.000493199
12 *319:16 *664:A 0.00012473
13 *319:16 *322:255 0.00302495
14 *319:22 *613:A1 0.00012473
15 *319:22 *322:276 0.00020428
16 *612:A *703:A2 0.000871318
17 *613:B1 *614:B 0.000151945
18 *613:B1 *319:22 0.000374513
19 *614:C *614:B 6.86205e-05
20 *614:C *703:A2 0.000695145
21 *615:B *703:A2 0.000485245
22 *615:B *319:22 0.000485245
23 *646:C *319:16 0.00162756
24 *664:C *319:16 0.000287421
25 *703:B1 *703:A2 0.000596108
26 *305:36 *319:16 0.000871318
27 *305:38 *703:A2 0.000677453
28 *306:10 *319:16 0.000287421
29 *310:32 *319:16 0.000561792
30 *310:32 *319:22 0.000162691
31 *313:12 *319:16 0.000323716
*RES
1 *903:X *319:16 24.8152 
2 *319:16 *319:22 6.47727 
3 *319:22 *614:B 14.4894 
4 *319:22 *703:A2 20.0652 
5 *319:16 *613:A2 9.3 
*END

*D_NET *320 0.0103175
*CONN
*I *710:B I *D sky130_fd_sc_hd__nand2_1
*I *904:X O *D sky130_fd_sc_hd__buf_1
*CAP
1 *710:B 0.003483
2 *904:X 0.003483
3 *710:B *321:18 0.00132794
4 *710:B *369:386 6.86205e-05
5 *710:B *369:390 0.000493199
6 *591:B *710:B 0.000228534
7 *673:B *710:B 0
8 *816:D *710:B 0
9 *818:CLK *710:B 0.00123321
*RES
1 *904:X *710:B 42.2345 
*END

*D_NET *321 0.0179134
*CONN
*I *692:B I *D sky130_fd_sc_hd__and3_1
*I *693:A2 I *D sky130_fd_sc_hd__a21oi_1
*I *905:X O *D sky130_fd_sc_hd__buf_1
*CAP
1 *692:B 0.000399412
2 *693:A2 0
3 *905:X 0.00348568
4 *321:18 0.00388509
5 *692:B *692:A 0.000726473
6 *692:B *369:388 1.67388e-05
7 *692:B *369:390 7.7342e-05
8 *681:A *321:18 0.00231839
9 *694:C *692:B 0.000871318
10 *710:B *321:18 0.00132794
11 *818:CLK *321:18 0.000151455
12 *159:12 *321:18 0.000590608
13 *312:18 *321:18 0.00406298
*RES
1 *905:X *321:18 33.0964 
2 *321:18 *693:A2 9.3 
3 *321:18 *692:B 12.4818 
*END

*D_NET *322 0.202333
*CONN
*I *800:A I *D sky130_fd_sc_hd__and3_1
*I *606:A I *D sky130_fd_sc_hd__and3_1
*I *787:A1 I *D sky130_fd_sc_hd__a21oi_1
*I *788:A I *D sky130_fd_sc_hd__and3_1
*I *791:A1 I *D sky130_fd_sc_hd__a21oi_1
*I *659:A1 I *D sky130_fd_sc_hd__a22oi_1
*I *662:A1 I *D sky130_fd_sc_hd__a22oi_1
*I *792:A I *D sky130_fd_sc_hd__and3_1
*I *656:A1 I *D sky130_fd_sc_hd__a22oi_1
*I *696:A I *D sky130_fd_sc_hd__nand2_1
*I *665:A1 I *D sky130_fd_sc_hd__a22oi_1
*I *799:A1 I *D sky130_fd_sc_hd__a21oi_1
*I *795:A1 I *D sky130_fd_sc_hd__a21oi_1
*I *796:A I *D sky130_fd_sc_hd__and3_1
*I *772:A I *D sky130_fd_sc_hd__and3_1
*I *771:A1 I *D sky130_fd_sc_hd__a21oi_1
*I *614:A I *D sky130_fd_sc_hd__and3_1
*I *703:A1 I *D sky130_fd_sc_hd__a22oi_1
*I *647:A1 I *D sky130_fd_sc_hd__a22oi_1
*I *613:A1 I *D sky130_fd_sc_hd__a21oi_1
*I *644:A1 I *D sky130_fd_sc_hd__a22oi_1
*I *768:A I *D sky130_fd_sc_hd__and3_1
*I *605:A1 I *D sky130_fd_sc_hd__a21oi_1
*I *686:A1 I *D sky130_fd_sc_hd__a22oi_1
*I *767:A1 I *D sky130_fd_sc_hd__a21oi_1
*I *609:A1 I *D sky130_fd_sc_hd__a21oi_1
*I *610:A I *D sky130_fd_sc_hd__and3_1
*I *775:A1 I *D sky130_fd_sc_hd__a21oi_1
*I *776:A I *D sky130_fd_sc_hd__and3_1
*I *760:A I *D sky130_fd_sc_hd__and3_1
*I *635:A1 I *D sky130_fd_sc_hd__a22oi_1
*I *759:A1 I *D sky130_fd_sc_hd__a21oi_1
*I *747:A1 I *D sky130_fd_sc_hd__a21oi_1
*I *748:A I *D sky130_fd_sc_hd__and3_1
*I *756:A I *D sky130_fd_sc_hd__and3_1
*I *632:A1 I *D sky130_fd_sc_hd__a22oi_1
*I *626:A1 I *D sky130_fd_sc_hd__a22oi_1
*I *641:A1 I *D sky130_fd_sc_hd__a22oi_1
*I *755:A1 I *D sky130_fd_sc_hd__a21oi_1
*I *689:A1 I *D sky130_fd_sc_hd__a22oi_1
*I *920:X O *D sky130_fd_sc_hd__buf_4
*CAP
1 *800:A 5.03873e-05
2 *606:A 0.000148328
3 *787:A1 2.44076e-05
4 *788:A 0
5 *791:A1 9.44903e-05
6 *659:A1 1.40988e-05
7 *662:A1 0.000289001
8 *792:A 9.41562e-05
9 *656:A1 0
10 *696:A 0.001166
11 *665:A1 0
12 *799:A1 0.0023415
13 *795:A1 0
14 *796:A 4.75222e-05
15 *772:A 0.000619925
16 *771:A1 0
17 *614:A 2.6469e-05
18 *703:A1 4.10464e-05
19 *647:A1 0.00280621
20 *613:A1 0.000445195
21 *644:A1 0
22 *768:A 0.00304685
23 *605:A1 0.000148328
24 *686:A1 0.00044333
25 *767:A1 0
26 *609:A1 0
27 *610:A 0
28 *775:A1 0
29 *776:A 0
30 *760:A 0
31 *635:A1 1.48226e-05
32 *759:A1 0
33 *747:A1 0
34 *748:A 0
35 *756:A 9.05043e-05
36 *632:A1 0.000325675
37 *626:A1 0.000182995
38 *641:A1 0
39 *755:A1 0.00137613
40 *689:A1 0
41 *920:X 0.00108492
42 *322:439 0.000906573
43 *322:422 0.00117439
44 *322:409 0.000268555
45 *322:403 0.000172259
46 *322:399 0.000316481
47 *322:351 0.00298738
48 *322:343 0.0018764
49 *322:341 3.545e-05
50 *322:339 0.00203951
51 *322:330 0.00320999
52 *322:321 0.00399499
53 *322:278 0.00477273
54 *322:276 0.00272744
55 *322:255 0.003193
56 *322:242 0.00220342
57 *322:229 0.00527686
58 *322:227 0.00312046
59 *322:221 0.00420156
60 *322:201 0.000576601
61 *322:197 0.00358624
62 *322:190 0.00309252
63 *322:156 0.00106197
64 *322:141 0.00220067
65 *322:139 0.00144739
66 *322:135 0.000539481
67 *322:99 0.000856683
68 *322:86 0.000827643
69 *322:84 0.00145812
70 *322:76 0.00443203
71 *322:70 0.00342366
72 *322:68 0.0014538
73 *322:64 0.00396564
74 *322:62 0.00335409
75 *322:49 0.000704879
76 *322:10 0.0018078
77 *606:A *331:290 0.00276191
78 *632:A1 *754:B 0
79 *635:A1 *331:407 0.00124944
80 *647:A1 *703:B2 0.000493199
81 *647:A1 *331:455 0.00389627
82 *659:A1 *659:B2 3.9317e-05
83 *662:A1 *662:A2 0.00013563
84 *686:A1 *605:A2 0.000499459
85 *686:A1 *686:A2 0.00110148
86 *686:A1 *324:35 0.00106852
87 *686:A1 *331:298 0
88 *696:A *658:A 0.000871318
89 *696:A *326:10 0.00773402
90 *755:A1 *689:A2 6.86205e-05
91 *755:A1 *920:A 4.30064e-05
92 *768:A *331:298 0.00124944
93 *768:A *346:18 0.000154684
94 *791:A1 *791:A2 0.00149985
95 *791:A1 *336:29 6.86205e-05
96 *792:A *335:16 0.000100881
97 *799:A1 *324:18 0.00023478
98 *799:A1 *334:22 0.00279957
99 *799:A1 *348:18 0.000300411
100 *800:A *800:B 0.000154684
101 *322:10 *689:A2 0.00013563
102 *322:10 *920:A 0.00314003
103 *322:49 *641:B2 0.000136187
104 *322:49 *347:12 0
105 *322:64 *609:A2 7.7342e-05
106 *322:64 *641:B2 0.000493199
107 *322:64 *642:B 0.000162691
108 *322:64 *331:341 3.79613e-05
109 *322:68 *331:341 0.000542304
110 *322:68 *331:345 2.65031e-05
111 *322:76 *690:B 0.000154684
112 *322:84 *331:355 7.7342e-05
113 *322:84 *331:357 5.38032e-05
114 *322:99 *626:B2 0
115 *322:135 *610:B 0.000164225
116 *322:135 *323:31 0
117 *322:242 *346:10 0.00056759
118 *322:255 *646:A 0.00020428
119 *322:330 *796:B 0.000181586
120 *322:339 *796:B 7.7342e-05
121 *322:339 *335:16 0.000412151
122 *322:351 *665:A2 0.00013563
123 *322:351 *334:8 0.000537191
124 *322:351 *334:22 0.00012473
125 *322:351 *342:10 0.000344051
126 *322:399 *786:B 8.60128e-05
127 *322:399 *328:16 0
128 *322:399 *335:16 0
129 *322:409 *328:16 7.28588e-05
130 *322:409 *335:16 0.000901869
131 *322:422 *662:A2 6.80933e-05
132 *322:422 *792:B 0.000554076
133 *322:422 *331:261 0.000179615
134 *322:422 *335:16 0.000499949
135 *322:439 *659:B2 0.000128717
136 *322:439 *336:29 0.00040143
137 *606:C *606:A 0.00111792
138 *607:C *606:A 0.000292844
139 *609:B1 *322:68 0.000756238
140 *610:C *322:68 0.000361679
141 *611:C *322:135 0
142 *614:C *322:276 0.000558958
143 *615:B *322:276 0.00106852
144 *615:C *322:276 0.000493199
145 *625:A2 *632:A1 2.80384e-05
146 *626:A2 *626:A1 0.000345239
147 *626:A2 *322:86 0.00124944
148 *635:A2 *635:A1 0.000723358
149 *635:B1 *635:A1 0.000162691
150 *642:A *322:64 0.00024946
151 *643:C *322:64 0.000232026
152 *644:A2 *322:242 0
153 *644:A2 *322:255 0
154 *646:B *322:255 0.000176241
155 *646:C *322:255 0
156 *646:C *322:276 0.000404766
157 *657:A *322:343 0.0003333
158 *657:A *322:351 6.86205e-05
159 *658:B *696:A 0.00200567
160 *659:B1 *322:439 0.000151945
161 *662:B1 *322:439 0
162 *689:B1 *755:A1 6.86205e-05
163 *690:A *322:76 0.000412151
164 *691:B *755:A1 6.80933e-05
165 *700:A *696:A 4.30064e-05
166 *700:B *696:A 0.000913251
167 *703:A2 *703:A1 2.65031e-05
168 *703:A2 *322:276 0.000331389
169 *703:A2 *322:278 0.00222409
170 *703:B1 *647:A1 0.000100881
171 *703:B1 *322:278 9.41555e-05
172 *705:B *647:A1 5.38032e-05
173 *747:A2 *322:76 0.000162691
174 *747:B1 *322:84 0.00117173
175 *747:B1 *322:99 0
176 *749:B *322:76 3.8858e-05
177 *749:B *322:84 5.58584e-05
178 *755:A2 *755:A1 0.000493199
179 *755:B1 *632:A1 0.00024033
180 *755:B1 *322:99 0.00040192
181 *756:C *756:A 0.00011508
182 *757:B *322:99 0.00040856
183 *757:C *322:84 0.000162691
184 *768:B *322:62 0.000456209
185 *768:B *322:190 1.89806e-05
186 *768:C *768:A 0.000739798
187 *769:B *768:A 0.000162691
188 *769:C *768:A 0.00012473
189 *770:A *768:A 0.000162691
190 *770:A *322:229 0.000412151
191 *770:A *322:242 0.00156847
192 *770:A *322:255 0.00016665
193 *771:A2 *322:227 0.00056857
194 *772:C *772:A 0.00112577
195 *772:C *322:229 0.000871318
196 *774:A *647:A1 0.00040192
197 *776:B *322:135 0
198 *776:B *322:139 0.00200567
199 *776:C *322:139 0.00111792
200 *777:B *322:135 0.000300411
201 *787:A2 *787:A1 0.00200567
202 *787:A2 *322:399 6.48629e-05
203 *787:B1 *787:A1 0.000756238
204 *788:B *787:A1 5.38032e-05
205 *788:B *322:403 2.35389e-05
206 *788:C *787:A1 0.000739798
207 *789:C *696:A 0.00012473
208 *791:B1 *322:422 0.00240172
209 *791:B1 *322:439 0
210 *793:C *791:A1 0.000612839
211 *793:C *322:439 0.00010214
212 *796:C *796:A 0
213 *796:C *322:330 0.00111792
214 *800:C *800:A 0.00111792
215 *801:B *800:A 0.000661611
216 *801:C *800:A 0.000515231
217 *808:CLK *696:A 0
218 *810:D *322:242 0
219 *812:D *755:A1 0.00012741
220 *812:D *322:10 0.000680688
221 *812:D *322:49 0.000493199
222 *821:D *322:422 0.00073522
223 *825:D *755:A1 0
224 *825:D *322:76 0.000189734
225 *825:D *322:135 0.000111311
226 *826:D *768:A 0.000335887
227 *826:D *322:229 7.62217e-05
228 *830:D *322:84 0.000300411
229 *830:D *322:99 0.00056857
230 *830:D *322:156 0.00073522
231 *852:CLK *686:A1 4.30064e-05
232 *859:CLK *322:276 0.000222387
233 *859:D *322:255 0.00106852
234 *860:CLK *755:A1 0.00040856
235 *886:A *696:A 0
236 *911:A *787:A1 0.000292844
237 *911:A *322:403 0.00030685
238 *911:A *322:409 0.000871318
239 *74:14 *755:A1 0.00040192
240 *77:14 *755:A1 0
241 *77:14 *322:99 0
242 *150:10 *696:A 0.000688102
243 *184:24 *322:10 0.00204266
244 *189:10 *322:141 0.000100881
245 *189:10 *322:156 0.000167575
246 *195:6 *756:A 0.00012473
247 *204:10 *322:49 0.000258038
248 *207:8 *322:229 7.7342e-05
249 *219:10 *322:399 0.000136187
250 *228:14 *799:A1 0.000871318
251 *228:14 *800:A 0.000756238
252 *249:10 *686:A1 0.000777064
253 *252:12 *322:76 0.000189734
254 *252:12 *322:135 1.77085e-05
255 *266:12 *322:339 5.58584e-05
256 *266:20 *322:339 0.000493199
257 *266:20 *322:341 0.000833249
258 *266:20 *322:343 6.86205e-05
259 *266:20 *322:399 0.00016665
260 *269:21 *647:A1 6.86205e-05
261 *270:10 *322:255 0.00073522
262 *271:12 *322:49 0.000436598
263 *271:27 *322:49 0.000901869
264 *275:10 *632:A1 0
265 *293:23 *755:A1 0.00134762
266 *293:27 *755:A1 0.000474516
267 *293:177 *322:227 0
268 *298:16 *755:A1 9.47164e-05
269 *298:66 *755:A1 0
270 *301:29 *322:255 0
271 *301:33 *322:227 0.000900889
272 *301:81 *322:409 0.000168231
273 *301:81 *322:422 8.60128e-05
274 *302:10 *696:A 0
275 *302:10 *322:341 6.86205e-05
276 *302:10 *322:343 0.00040192
277 *302:10 *322:351 0.00140182
278 *302:23 *322:341 0.000833249
279 *302:23 *322:399 0.00140182
280 *305:36 *791:A1 0.000162691
281 *305:36 *322:276 0.000111717
282 *305:38 *647:A1 3.8858e-05
283 *305:53 *647:A1 0
284 *305:53 *322:135 6.86205e-05
285 *307:14 *799:A1 2.06247e-05
286 *307:14 *322:197 0.00140999
287 *307:14 *322:221 0.00078634
288 *307:14 *322:321 0.00140999
289 *307:27 *322:190 0.000345341
290 *307:27 *322:197 7.7342e-05
291 *310:32 *791:A1 0.000162691
292 *310:32 *322:255 0.000318595
293 *311:16 *322:99 2.15032e-05
294 *313:18 *322:62 2.52202e-06
295 *313:18 *322:64 0.000170611
296 *319:16 *613:A1 0.000493199
297 *319:16 *322:255 0.00302495
298 *319:22 *613:A1 0.00012473
299 *319:22 *322:276 0.00020428
*RES
1 *920:X *322:10 14.4629 
2 *322:10 *689:A1 9.3 
3 *322:10 *755:A1 35.978 
4 *920:X *322:49 24.5273 
5 *322:49 *641:A1 9.3 
6 *322:49 *322:62 0.795455 
7 *322:62 *322:64 4.60227 
8 *322:64 *322:68 2.90909 
9 *322:68 *322:70 4.5 
10 *322:70 *322:76 10.9697 
11 *322:76 *322:84 12.3333 
12 *322:84 *322:86 1.15152 
13 *322:86 *626:A1 10.103 
14 *322:86 *322:99 8.83333 
15 *322:99 *632:A1 16.7091 
16 *322:99 *756:A 14.2545 
17 *322:84 *748:A 9.3 
18 *322:76 *747:A1 9.3 
19 *322:70 *322:135 7.18182 
20 *322:135 *322:139 2.90909 
21 *322:139 *322:141 4.63636 
22 *322:141 *759:A1 9.3 
23 *322:141 *322:156 12 
24 *322:156 *635:A1 10.4515 
25 *322:156 *760:A 9.3 
26 *322:139 *776:A 9.3 
27 *322:135 *775:A1 9.3 
28 *322:68 *610:A 9.3 
29 *322:64 *609:A1 9.3 
30 *322:62 *322:190 1.53409 
31 *322:190 *767:A1 9.3 
32 *322:190 *322:197 4.28788 
33 *322:197 *322:201 5.37879 
34 *322:201 *686:A1 18.497 
35 *322:201 *605:A1 13.8 
36 *322:197 *322:221 2.19697 
37 *322:221 *322:227 13.2273 
38 *322:227 *322:229 3.59091 
39 *322:229 *768:A 14.997 
40 *322:229 *322:242 7.43939 
41 *322:242 *644:A1 13.8 
42 *322:242 *322:255 12.1364 
43 *322:255 *613:A1 10.103 
44 *322:255 *322:276 14.6212 
45 *322:276 *322:278 3.59091 
46 *322:278 *647:A1 23.9061 
47 *322:278 *703:A1 9.66364 
48 *322:276 *614:A 9.66364 
49 *322:227 *771:A1 9.3 
50 *322:227 *772:A 10.8152 
51 *322:221 *322:321 4.63636 
52 *322:321 *796:A 9.66364 
53 *322:321 *322:330 2.54546 
54 *322:330 *795:A1 9.3 
55 *322:330 *322:339 7.74243 
56 *322:339 *322:341 1.39394 
57 *322:341 *322:343 0.621212 
58 *322:343 *322:351 10.0152 
59 *322:351 *799:A1 23.8303 
60 *322:351 *665:A1 9.3 
61 *322:343 *696:A 37.997 
62 *322:341 *656:A1 13.8 
63 *322:339 *322:399 7.54546 
64 *322:399 *322:403 1.16667 
65 *322:403 *322:409 6.69697 
66 *322:409 *792:A 14.2545 
67 *322:409 *322:422 8.72727 
68 *322:422 *662:A1 10.4515 
69 *322:422 *322:439 7.09091 
70 *322:439 *659:A1 13.9098 
71 *322:439 *791:A1 16.6788 
72 *322:403 *788:A 9.3 
73 *322:399 *787:A1 11.497 
74 *605:A1 *606:A 21.5091 
75 *799:A1 *800:A 21.5091 
*END

*D_NET *323 0.0299695
*CONN
*I *609:A2 I *D sky130_fd_sc_hd__a21oi_1
*I *610:B I *D sky130_fd_sc_hd__and3_1
*I *689:A2 I *D sky130_fd_sc_hd__a22oi_1
*I *906:X O *D sky130_fd_sc_hd__buf_1
*CAP
1 *609:A2 6.17525e-05
2 *610:B 5.03e-05
3 *689:A2 7.68263e-06
4 *906:X 0.00602243
5 *323:31 0.000358328
6 *323:16 0.00627639
7 *609:A2 *331:341 0.000756238
8 *610:B *331:341 0.00124944
9 *610:B *331:441 0
10 *323:16 *682:A 0.000369349
11 *323:16 *332:20 0.000516077
12 *323:16 *337:12 6.81778e-05
13 *323:31 *691:A 0.000749026
14 *323:31 *331:337 0.000340466
15 *323:31 *331:441 6.80933e-05
16 *611:C *610:B 2.80384e-05
17 *689:B1 *689:A2 3.40466e-05
18 *689:B1 *323:31 0.000578793
19 *691:C *323:31 0
20 *697:A *323:16 0.000566145
21 *709:A2 *323:16 0.001458
22 *709:B1 *323:16 0.00406822
23 *734:B *323:16 0
24 *755:A1 *689:A2 6.86205e-05
25 *812:D *689:A2 0.00013563
26 *860:CLK *689:A2 0.000151945
27 *860:CLK *323:31 0.00115184
28 *891:A *323:16 0.000219796
29 *902:A *323:16 0.000606075
30 *906:A *323:16 0.000287421
31 *252:12 *323:31 0.000504691
32 *261:10 *323:16 0.000108148
33 *286:10 *323:31 0
34 *289:10 *323:16 0.000232318
35 *293:124 *323:16 0
36 *311:16 *323:16 0
37 *313:18 *609:A2 0.00124944
38 *313:18 *610:B 0.00124944
39 *322:10 *689:A2 0.00013563
40 *322:64 *609:A2 7.7342e-05
41 *322:135 *610:B 0.000164225
42 *322:135 *323:31 0
*RES
1 *906:X *323:16 38.3709 
2 *323:16 *689:A2 14.1598 
3 *323:16 *323:31 10.6591 
4 *323:31 *610:B 20.0727 
5 *323:31 *609:A2 10.8152 
*END

*D_NET *324 0.037662
*CONN
*I *605:A2 I *D sky130_fd_sc_hd__a21oi_1
*I *606:B I *D sky130_fd_sc_hd__and3_1
*I *686:A2 I *D sky130_fd_sc_hd__a22oi_1
*I *907:X O *D sky130_fd_sc_hd__buf_1
*CAP
1 *605:A2 5.24047e-05
2 *606:B 0.00121806
3 *686:A2 0.000176223
4 *907:X 0.00548599
5 *324:35 0.00129675
6 *324:24 0.00430423
7 *324:18 0.00958771
8 *606:B *331:290 0.00037419
9 *324:18 *331:10 0.000748817
10 *324:18 *331:14 0.000232614
11 *324:18 *331:216 0.000576792
12 *324:18 *334:8 0.00389627
13 *324:18 *334:22 0.000817539
14 *324:18 *339:20 0.000135786
15 *324:18 *341:12 0.000232318
16 *324:18 *348:18 0.000171646
17 p *324:18 0.00177042
18 *607:B *606:B 0.00124944
19 *665:B1 *324:24 0.00091107
20 *686:A1 *605:A2 0.000499459
21 *686:A1 *686:A2 0.00110148
22 *686:A1 *324:35 0.00106852
23 *799:A1 *324:18 0.00023478
24 *808:D *324:18 0.000581049
25 *852:CLK *605:A2 0.000164025
26 *852:CLK *324:35 0.000436598
27 *917:A *324:18 7.42041e-05
28 *228:14 *324:24 0.000111717
29 *293:177 *605:A2 0
30 *311:16 *324:18 0.000151945
*RES
1 *907:X *324:18 46.9818 
2 *324:18 *324:24 9.19697 
3 *324:24 *686:A2 10.6636 
4 *324:24 *324:35 6.15152 
5 *324:35 *606:B 15.997 
6 *324:35 *605:A2 14.6788 
*END

*D_NET *325 0.0181848
*CONN
*I *683:A2 I *D sky130_fd_sc_hd__a22oi_1
*I *601:A2 I *D sky130_fd_sc_hd__a21oi_1
*I *602:B I *D sky130_fd_sc_hd__and3_1
*I *908:X O *D sky130_fd_sc_hd__buf_1
*CAP
1 *683:A2 0.000234875
2 *601:A2 0
3 *602:B 0.000392458
4 *908:X 0.00102136
5 *325:16 0.00161954
6 *325:8 0.00248331
7 *602:B *601:A1 0.000162691
8 *602:B *331:732 0.00056857
9 *602:B *331:743 6.86205e-05
10 *683:A2 *369:112 0.00013563
11 *600:A *683:A2 0.00040856
12 *600:A *325:16 0.00073473
13 *602:C *602:B 0.00149604
14 *603:B *602:B 0.000493199
15 *603:C *602:B 0.000168114
16 *722:B *683:A2 2.77423e-05
17 *893:A *325:16 0.00179494
18 *908:A *325:16 0
19 *174:18 *602:B 0.00314003
20 *174:18 *325:16 5.38032e-05
21 *246:20 *325:16 0.000985194
22 *293:154 *325:16 0.000172026
23 *309:18 *602:B 1.77085e-05
24 *314:20 *325:8 0.00200567
*RES
1 *908:X *325:8 15.6485 
2 *325:8 *325:16 9.21212 
3 *325:16 *602:B 22.5273 
4 *325:16 *601:A2 9.3 
5 *325:8 *683:A2 16.0311 
*END

*D_NET *326 0.0409346
*CONN
*I *597:A2 I *D sky130_fd_sc_hd__a21oi_1
*I *598:B I *D sky130_fd_sc_hd__and3_1
*I *680:A2 I *D sky130_fd_sc_hd__a22oi_1
*I *909:X O *D sky130_fd_sc_hd__buf_1
*CAP
1 *597:A2 7.68896e-05
2 *598:B 0.000644601
3 *680:A2 7.66121e-05
4 *909:X 0.00197856
5 *326:27 0.00276802
6 *326:10 0.0041017
7 *597:A2 *617:A1 0.000916084
8 *597:A2 *329:18 0.00173463
9 *597:A2 *369:59 0.00023478
10 *597:A2 *369:92 0.000582784
11 *326:10 *659:B2 0
12 *326:10 *662:A2 0
13 *326:10 *680:A1 6.80933e-05
14 *326:10 *682:A 6.43831e-05
15 *326:10 *699:B 0.000215032
16 *326:10 *791:A2 0
17 *326:10 *331:10 0.000731109
18 *326:10 *331:14 8.58863e-05
19 *326:10 *331:216 0.000971439
20 *326:10 *337:12 0.000447646
21 *326:27 *680:A1 0.000436598
22 *326:27 *680:B2 0.00073522
23 *659:B1 *326:10 0
24 *661:B *326:10 0.00056857
25 *682:B *680:A2 0.00013563
26 *696:A *326:10 0.00773402
27 *709:A2 *326:10 0
28 *716:B *326:10 0
29 *728:B *326:10 0.000612839
30 *728:B *326:27 0.000136187
31 *734:B *326:10 0.00473481
32 *789:B *326:10 0.00223507
33 *822:CLK *326:10 0
34 *822:D *326:10 0.000612839
35 *847:D *326:10 0.00073522
36 *854:D *326:10 0.00020428
37 *35:23 *680:A2 3.79613e-05
38 *35:23 *326:10 0.000901869
39 *174:18 *326:27 0.000713512
40 *222:18 *326:10 0.00106852
41 *302:10 *326:10 0
42 *305:36 *326:10 0.00162756
43 *308:6 *598:B 0.00124944
44 *308:6 *326:27 0.000756238
*RES
1 *909:X *326:10 43.4818 
2 *326:10 *680:A2 14.3795 
3 *326:10 *326:27 9.74243 
4 *326:27 *598:B 10.4515 
5 *326:27 *597:A2 20.9818 
*END

*D_NET *327 0.0229502
*CONN
*I *593:A2 I *D sky130_fd_sc_hd__a21oi_1
*I *594:B I *D sky130_fd_sc_hd__and3_1
*I *677:A2 I *D sky130_fd_sc_hd__a22oi_1
*I *910:X O *D sky130_fd_sc_hd__buf_1
*CAP
1 *593:A2 0
2 *594:B 0.000206093
3 *677:A2 0
4 *910:X 0.00377316
5 *327:40 0.000378525
6 *327:34 0.00394559
7 *594:B *728:A 5.38032e-05
8 *594:B *369:43 0.000850768
9 *327:34 *680:A1 0.00056857
10 *327:34 *328:16 0.000497815
11 *327:34 *331:101 0
12 *327:34 *364:10 0.000368304
13 *327:40 *681:B 0.00104924
14 *327:40 *364:10 6.80933e-05
15 *327:40 *369:43 0.00013563
16 *593:B1 *327:40 0.000619672
17 *599:B *327:34 6.86205e-05
18 *599:C *327:34 0.00075991
19 *677:B1 *327:40 6.86205e-05
20 *679:B *594:B 0.00062014
21 *679:B *327:40 2.77423e-05
22 *706:A2 *327:34 0.00200567
23 *708:B *327:34 0.000493199
24 *728:B *594:B 0.000162691
25 *815:D *327:34 0.00128643
26 *892:A *327:34 0.000871318
27 *174:18 *327:34 0.00319436
28 *240:10 *327:40 8.58863e-05
29 *243:20 *327:34 6.18848e-05
30 *308:6 *327:34 0.000493199
31 *308:25 *327:34 0.00023527
*RES
1 *910:X *327:34 35.9667 
2 *327:34 *327:40 8.85227 
3 *327:40 *677:A2 9.3 
4 *327:40 *594:B 11.872 
5 *327:34 *593:A2 13.8 
*END

*D_NET *328 0.0431624
*CONN
*I *590:B I *D sky130_fd_sc_hd__and3_1
*I *674:A2 I *D sky130_fd_sc_hd__a22oi_1
*I *589:A2 I *D sky130_fd_sc_hd__a21oi_1
*I *911:X O *D sky130_fd_sc_hd__buf_1
*CAP
1 *590:B 0
2 *674:A2 0.00522822
3 *589:A2 0.000169198
4 *911:X 0.0018094
5 *328:31 0.00548089
6 *328:16 0.00223127
7 *589:A2 *590:A 0.000451308
8 *674:A2 *369:128 6.07532e-05
9 *328:16 *617:A1 0
10 *328:16 *734:A 0.000708971
11 *328:16 *786:B 0.000999899
12 *328:16 *329:18 0.00242224
13 *328:16 *331:65 0.00273502
14 *328:16 *331:69 0.00131751
15 *328:16 *331:107 0
16 *328:16 *335:16 0.00106852
17 *328:16 *342:10 0.00506762
18 *328:16 *342:19 0.0003333
19 *328:16 *348:18 0.0014015
20 *328:16 *363:12 0.000232318
21 *328:16 *369:10 0.00024033
22 *328:16 *369:14 0.000301045
23 *328:16 *369:59 0.00017582
24 *589:B1 *589:A2 0.000493199
25 *591:B *589:A2 0.000164225
26 *591:C *589:A2 2.52979e-05
27 *591:C *328:16 2.80384e-05
28 *598:C *328:16 0.000734729
29 *599:B *328:16 0.000533911
30 *616:A *328:16 7.41015e-05
31 *617:B1 *328:16 0.000257659
32 *618:B *328:16 0.00123517
33 *619:B *328:16 0.000300411
34 *722:B *328:16 0.000204079
35 *809:D *328:16 0
36 *814:D *328:16 0
37 *816:CLK *589:A2 0
38 *840:CLK *328:16 0
39 *848:CLK *589:A2 0.0014989
40 *848:CLK *674:A2 0.000412151
41 *848:CLK *328:31 0.00012473
42 *876:A *674:A2 0.000294236
43 *243:20 *328:16 0.000151945
44 *293:154 *674:A2 0.000139552
45 *296:12 *674:A2 0.00124944
46 *296:82 *674:A2 0.000493199
47 *302:10 *328:16 0
48 *308:25 *328:16 0.0017416
49 *322:399 *328:16 0
50 *322:409 *328:16 7.28588e-05
51 *327:34 *328:16 0.000497815
*RES
1 *911:X *328:16 45.3455 
2 *328:16 *589:A2 16.5273 
3 *328:16 *328:31 4.95455 
4 *328:31 *674:A2 18.9402 
5 *328:31 *590:B 9.3 
*END

*D_NET *329 0.0235529
*CONN
*I *807:A2 I *D sky130_fd_sc_hd__a21oi_1
*I *671:A2 I *D sky130_fd_sc_hd__a22oi_1
*I *586:B I *D sky130_fd_sc_hd__and3_1
*I *912:X O *D sky130_fd_sc_hd__buf_1
*CAP
1 *807:A2 0
2 *671:A2 0.000844167
3 *586:B 4.28971e-05
4 *912:X 0.00146478
5 *329:22 0.00107587
6 *329:18 0.00165358
7 *586:B *586:A 0.000901869
8 *586:B *674:B2 6.80933e-05
9 *586:B *333:32 0.00140182
10 *586:B *366:14 0.00020428
11 *329:18 *587:A 0.000913251
12 *329:18 *617:A1 0.00020428
13 *329:18 *331:743 0.00010194
14 *329:18 *333:34 0.000584255
15 *329:18 *369:59 0.00010214
16 *329:18 *369:100 0.000281508
17 *329:22 *587:A 0.000300539
18 *329:22 *674:B2 2.80384e-05
19 *329:22 *333:32 0.00016665
20 *329:22 *333:34 0.000312228
21 *587:B *329:22 0.000734729
22 *587:C *671:A2 0.000871318
23 *587:C *329:22 4.30064e-05
24 *597:A2 *329:18 0.00173463
25 *671:B1 *671:A2 0.000499528
26 *676:B *329:22 0
27 *817:D *586:B 6.80933e-05
28 *901:A *329:18 0.000174903
29 *908:A *329:18 0.00237406
30 *1:18 *329:18 0.00129493
31 *33:27 *329:18 0.000120496
32 *35:23 *329:18 2.69018e-05
33 *243:20 *329:18 0.000591093
34 *246:20 *329:18 0.000543432
35 *292:25 *671:A2 0.00124944
36 *314:20 *329:18 0.000151945
37 *328:16 *329:18 0.00242224
*RES
1 *912:X *329:18 30.737 
2 *329:18 *329:22 3.13636 
3 *329:22 *586:B 16.2242 
4 *329:22 *671:A2 18.0273 
5 *329:18 *807:A2 13.8 
*END

*D_NET *330 0.00939372
*CONN
*I *695:B_N I *D sky130_fd_sc_hd__nor2b_1
*I *913:X O *D sky130_fd_sc_hd__buf_1
*CAP
1 *695:B_N 0.000835338
2 *913:X 0.000835338
3 *695:B_N *677:B2 0.000730982
4 *695:B_N *678:B 0.000146728
5 *695:B_N *331:107 0.00314003
6 *695:B_N *365:21 8.60128e-05
7 *695:B_N *369:10 0.000901379
8 *695:B_N *369:14 0.00190079
9 *591:C *695:B_N 0.000817119
10 *593:B1 *695:B_N 0
11 *240:10 *695:B_N 0
*RES
1 *913:X *695:B_N 37.8121 
*END

*D_NET *331 0.338611
*CONN
*I *685:A I *D sky130_fd_sc_hd__nor3_1
*I *676:A I *D sky130_fd_sc_hd__nor3_1
*I *591:A I *D sky130_fd_sc_hd__nor3_1
*I *673:A I *D sky130_fd_sc_hd__nor3_1
*I *702:A I *D sky130_fd_sc_hd__nor2b_1
*I *620:C1 I *D sky130_fd_sc_hd__a211oi_1
*I *587:A I *D sky130_fd_sc_hd__nor3_1
*I *603:A I *D sky130_fd_sc_hd__nor3_1
*I *670:A I *D sky130_fd_sc_hd__nor3_1
*I *805:A I *D sky130_fd_sc_hd__nor3_1
*I *694:A I *D sky130_fd_sc_hd__nor3_1
*I *765:A I *D sky130_fd_sc_hd__nor3_1
*I *739:A I *D sky130_fd_sc_hd__nor2_1
*I *640:A I *D sky130_fd_sc_hd__nor3_1
*I *621:C1 I *D sky130_fd_sc_hd__a211oi_1
*I *624:C1 I *D sky130_fd_sc_hd__a211oi_1
*I *623:C1 I *D sky130_fd_sc_hd__a211oi_1
*I *733:A I *D sky130_fd_sc_hd__nor2_1
*I *721:A I *D sky130_fd_sc_hd__nor2_1
*I *727:A I *D sky130_fd_sc_hd__nor2_1
*I *622:C1 I *D sky130_fd_sc_hd__a211oi_1
*I *631:A I *D sky130_fd_sc_hd__nor3_1
*I *715:A I *D sky130_fd_sc_hd__nor2_1
*I *753:A I *D sky130_fd_sc_hd__nor3_2
*I *652:A I *D sky130_fd_sc_hd__nor3_1
*I *661:A I *D sky130_fd_sc_hd__nor3_1
*I *797:A I *D sky130_fd_sc_hd__nor3_1
*I *667:A I *D sky130_fd_sc_hd__nor3_1
*I *607:A I *D sky130_fd_sc_hd__nor3_1
*I *643:A I *D sky130_fd_sc_hd__nor3_1
*I *611:A I *D sky130_fd_sc_hd__nor3_1
*I *705:A I *D sky130_fd_sc_hd__nor3_1
*I *649:A I *D sky130_fd_sc_hd__nor3_1
*I *761:A I *D sky130_fd_sc_hd__nor3_1
*I *777:A I *D sky130_fd_sc_hd__nor3_1
*I *749:A I *D sky130_fd_sc_hd__nor3_1
*I *628:A I *D sky130_fd_sc_hd__nor3_1
*I *637:A I *D sky130_fd_sc_hd__nor3_1
*I *625:C1 I *D sky130_fd_sc_hd__a211oi_1
*I *757:A I *D sky130_fd_sc_hd__nor3_1
*I *745:A I *D sky130_fd_sc_hd__nor2_1
*I *634:A I *D sky130_fd_sc_hd__nor3_1
*I *691:A I *D sky130_fd_sc_hd__nor3_1
*I *769:A I *D sky130_fd_sc_hd__nor3_1
*I *615:A I *D sky130_fd_sc_hd__nor3_1
*I *773:A I *D sky130_fd_sc_hd__nor3_1
*I *793:A I *D sky130_fd_sc_hd__nor3_1
*I *664:A I *D sky130_fd_sc_hd__nor3_1
*I *646:A I *D sky130_fd_sc_hd__nor3_1
*I *789:A I *D sky130_fd_sc_hd__nor3_1
*I *658:A I *D sky130_fd_sc_hd__nor3_1
*I *701:A I *D sky130_fd_sc_hd__nor2_1
*I *709:C1 I *D sky130_fd_sc_hd__a211oi_1
*I *785:A I *D sky130_fd_sc_hd__nor3_1
*I *682:A I *D sky130_fd_sc_hd__nor3_1
*I *619:A I *D sky130_fd_sc_hd__nor3_1
*I *599:A I *D sky130_fd_sc_hd__nor3_1
*I *595:A I *D sky130_fd_sc_hd__nor3_1
*I *679:A I *D sky130_fd_sc_hd__nor3_1
*I *695:A I *D sky130_fd_sc_hd__nor2b_1
*I *708:A I *D sky130_fd_sc_hd__nor3_1
*I *781:A I *D sky130_fd_sc_hd__nor3_1
*I *801:A I *D sky130_fd_sc_hd__nor3_1
*I *688:A I *D sky130_fd_sc_hd__nor3_1
*I *655:A I *D sky130_fd_sc_hd__nor3_1
*I *914:X O *D sky130_fd_sc_hd__clkbuf_8
*CAP
1 *685:A 5.55281e-06
2 *676:A 1.22492e-05
3 *591:A 0.00111472
4 *673:A 0
5 *702:A 0.000393815
6 *620:C1 0.00105655
7 *587:A 0.000565839
8 *603:A 7.33649e-05
9 *670:A 0
10 *805:A 5.15273e-06
11 *694:A 0
12 *765:A 0
13 *739:A 0.00165878
14 *640:A 8.77595e-05
15 *621:C1 0
16 *624:C1 0
17 *623:C1 0
18 *733:A 0.000339707
19 *721:A 4.13337e-05
20 *727:A 0.000616551
21 *622:C1 0.000493239
22 *631:A 0.000179098
23 *715:A 0
24 *753:A 0.0015874
25 *652:A 5.56538e-06
26 *661:A 3.73786e-05
27 *797:A 6.94021e-05
28 *667:A 2.69116e-05
29 *607:A 0
30 *643:A 5.08872e-05
31 *611:A 0
32 *705:A 0
33 *649:A 0
34 *761:A 0.00068551
35 *777:A 0
36 *749:A 0
37 *628:A 0
38 *637:A 0.000626333
39 *625:C1 0.000128572
40 *757:A 0
41 *745:A 0
42 *634:A 0.00054501
43 *691:A 0.000424436
44 *769:A 0
45 *615:A 0.000325968
46 *773:A 8.96842e-05
47 *793:A 5.68172e-05
48 *664:A 1.53701e-05
49 *646:A 0.00109032
50 *789:A 0
51 *658:A 0.000174904
52 *701:A 0.00114528
53 *709:C1 7.95914e-06
54 *785:A 0
55 *682:A 0.00087702
56 *619:A 8.37647e-05
57 *599:A 9.15409e-05
58 *595:A 0
59 *679:A 0.000209059
60 *695:A 0
61 *708:A 0.000514113
62 *781:A 2.97105e-05
63 *801:A 0.000152952
64 *688:A 0.000490627
65 *655:A 0
66 *914:X 0.000110981
67 *331:782 0.00274194
68 *331:780 0.00633822
69 *331:774 0.00657385
70 *331:766 0.000749192
71 *331:764 0.00217011
72 *331:743 0.00265536
73 *331:732 0.000606217
74 *331:695 0.00354117
75 *331:678 0.00226438
76 *331:646 0.000751993
77 *331:644 0.00107673
78 *331:634 0.000705594
79 *331:601 0.00179918
80 *331:595 0.00123826
81 *331:589 0.00448836
82 *331:585 0.00443328
83 *331:574 0.000522346
84 *331:565 0.000721958
85 *331:561 0.001363
86 *331:559 0.00154097
87 *331:538 0.00245527
88 *331:536 0.000274971
89 *331:525 0.000277765
90 *331:523 0.000427351
91 *331:455 0.00106834
92 *331:449 0.00125728
93 *331:441 0.00107093
94 *331:407 0.00467738
95 *331:363 0.00170809
96 *331:357 0.0012591
97 *331:355 0.00035359
98 *331:349 0.00447918
99 *331:345 0.00100295
100 *331:341 0.000808847
101 *331:337 0.000342547
102 *331:324 0.00176468
103 *331:320 0.00376942
104 *331:298 0.00133019
105 *331:290 0.00430672
106 *331:282 0.00151368
107 *331:269 0.00163172
108 *331:261 0.00129256
109 *331:241 0.000222834
110 *331:222 0.00136999
111 *331:220 0.00147923
112 *331:216 0.00134992
113 *331:202 0.000214157
114 *331:145 0.00115611
115 *331:116 0.000539174
116 *331:107 0.000781687
117 *331:101 0.00089045
118 *331:79 0.00163358
119 *331:71 0.00156077
120 *331:69 0.000362183
121 *331:65 0.000146632
122 *331:41 0.000771024
123 *331:32 0.00147954
124 *331:26 0.00166417
125 *331:22 0.00303857
126 *331:14 0.00405021
127 *331:10 0.000261781
128 *331:8 0.000467916
129 *587:A *369:128 0
130 *587:A *369:154 0
131 *615:A *346:18 0
132 *620:C1 *711:B 0
133 *637:A *635:B2 0
134 *637:A *636:B 0.000476653
135 *637:A *350:28 0.000436598
136 *676:A *588:B 0.000412151
137 *676:A *333:32 0.00124944
138 *679:A *332:20 0.00390108
139 *679:A *333:32 0.00124944
140 *685:A *363:14 0.000493199
141 *691:A *642:B 0
142 *691:A *347:12 0
143 *753:A *669:B 0.000255565
144 *753:A *369:181 6.7893e-05
145 *773:A *794:B 0.000162691
146 *797:A *792:B 3.79613e-05
147 *805:A *671:B2 0.00012473
148 *331:22 *342:10 0.000490779
149 *331:65 *348:18 0.000570044
150 *331:69 *618:A 0.000300411
151 *331:69 *348:18 4.30064e-05
152 *331:69 *348:26 2.52979e-05
153 *331:101 *348:18 0
154 *331:101 *348:26 0.00214279
155 *331:107 *598:A 0.000130178
156 *331:107 *363:12 0.00091107
157 *331:216 *341:12 0
158 *331:261 *662:A2 0.00106852
159 *331:261 *662:B2 0.000640878
160 *331:261 *792:B 0.000287394
161 *331:261 *335:16 9.61317e-05
162 *331:269 *794:B 0.00012473
163 *331:282 *339:16 0
164 *331:282 *339:20 0
165 *331:320 *766:B 7.7342e-05
166 *331:320 *347:16 7.7342e-05
167 *331:449 *703:B2 0.000901869
168 *331:536 *338:10 0.000999899
169 *331:536 *338:14 6.86205e-05
170 *331:538 *668:A1 0.000176241
171 *331:538 *669:B 4.30064e-05
172 *331:538 *338:14 0.00140182
173 *331:559 *668:A1 0.00073522
174 *331:559 *367:8 0
175 *331:559 *369:181 0
176 *331:559 *369:386 0
177 *331:561 *671:B2 0.000287421
178 *331:585 *369:193 0
179 *331:589 *719:B 0.00037419
180 *331:595 *719:B 0.00162756
181 *331:601 *356:14 0.000412151
182 *331:634 *718:B 6.2085e-05
183 *331:634 *358:19 0.000193529
184 *331:644 *718:B 4.30064e-05
185 *331:678 *639:B 0
186 *331:678 *349:27 0
187 *331:678 *352:10 0.00290167
188 *331:695 *762:B 0
189 *331:743 *602:A 0.000368505
190 *331:743 *369:154 0
191 *331:764 *600:B 0.00116606
192 *331:766 *600:B 0.00023527
193 *331:766 *369:128 0.00108268
194 *331:766 *369:154 3.40466e-05
195 *331:774 *588:B 8.60128e-05
196 *331:774 *333:32 0
197 *331:780 *588:B 5.58584e-05
198 *331:780 *366:14 0.000240434
199 *587:C *587:A 0.000287421
200 *588:A *331:774 0
201 *591:B *591:A 0.000287421
202 *591:C *591:A 7.7342e-05
203 *595:B *331:116 0.000871318
204 *599:B *331:107 0.000132814
205 *602:B *331:732 0.00056857
206 *602:B *331:743 6.86205e-05
207 *606:A *331:290 0.00276191
208 *606:B *331:290 0.00037419
209 *607:B *331:290 0.00226871
210 *607:B *331:320 0.000871318
211 *607:C *331:290 7.7342e-05
212 *607:C *331:320 0.000635476
213 *609:A2 *331:341 0.000756238
214 *609:B1 *331:341 0.000871318
215 *610:B *331:341 0.00124944
216 *610:B *331:441 0
217 *610:C *331:341 0.000361679
218 *611:B *331:441 0.000300411
219 *611:C *331:441 2.52979e-05
220 *611:C *331:449 9.61317e-05
221 *616:A *331:69 0.000318105
222 *616:A *331:101 0.000966257
223 *617:B1 *619:A 0.000151455
224 *623:A2 *733:A 0.000493199
225 *624:A1 *331:646 0.000131145
226 *624:A2 *331:646 0.000493199
227 *624:B1 *331:644 0.000493199
228 *624:B1 *331:646 0.000493199
229 *627:A *331:407 0.000509937
230 *628:B *637:A 0.00023527
231 *628:C *637:A 0.000412151
232 *628:C *331:407 0.000131145
233 *629:A2 *753:A 0
234 *631:C *331:585 0.000404766
235 *631:C *331:678 0.000541375
236 *635:A1 *331:407 0.00124944
237 *635:A2 *331:407 0.000211498
238 *635:B1 *331:407 7.7342e-05
239 *637:B *637:A 0.00362412
240 *637:B *331:407 2.06247e-05
241 *637:C *637:A 0.000162691
242 *639:A *640:A 0.000493199
243 *643:B *331:320 0.00037419
244 *643:B *331:324 0.000287421
245 *643:C *691:A 0.000103721
246 *643:C *331:337 0.000232741
247 *643:C *331:441 6.07149e-05
248 *647:A1 *331:455 0.00389627
249 *647:A2 *331:455 0.000403356
250 *649:B *761:A 8.67686e-05
251 *649:B *331:455 0.000493199
252 *649:C *761:A 0.000871318
253 *651:A *652:A 0.000493199
254 *651:A *331:525 0.00162756
255 *655:C *688:A 0.000287421
256 *659:B1 *331:220 0.000669194
257 *661:B *661:A 6.80933e-05
258 *661:C *661:A 0.000818054
259 *661:C *331:216 0.00148465
260 *663:A *331:241 0
261 *663:A *331:261 0
262 *666:A *667:A 0.000536881
263 *667:C *667:A 0.000742658
264 *667:C *331:290 1.67388e-05
265 *672:A *331:780 0.00202241
266 *673:C *331:780 0.000154684
267 *673:C *331:782 0.000412151
268 *676:B *331:766 0
269 *680:B1 *682:A 0
270 *682:C *682:A 3.79613e-05
271 *684:A *685:A 0.000493199
272 *686:A1 *331:298 0
273 *694:B *331:561 0.000756238
274 *694:B *331:565 0.000871318
275 *694:C *331:561 0.000493199
276 *694:C *331:565 0.00124944
277 *695:B_N *331:107 0.00314003
278 *696:A *658:A 0.000871318
279 *697:A *682:A 6.2085e-05
280 *701:B *701:A 0.000103845
281 *701:B *331:22 0.000232026
282 *702:B_N *702:A 0.00124944
283 *704:A *331:449 0
284 *705:B *331:455 0.000287421
285 *706:A2 *331:101 0.000164225
286 *708:C *708:A 0.000287421
287 *709:A1 *709:C1 0.00012473
288 *709:A1 *331:26 0.000871318
289 *709:A2 *709:C1 0.000493199
290 *709:A2 *331:26 0.000390928
291 *715:B *631:A 0.000100881
292 *715:B *331:565 9.08676e-05
293 *719:A *331:634 0.000340466
294 *719:A *331:644 0.00023527
295 *720:A *331:644 0.000136187
296 *721:B *721:A 2.65031e-05
297 *721:B *331:595 7.7342e-05
298 *721:B *331:601 0.000287421
299 *722:B *331:107 0.000146601
300 *726:A *622:C1 0
301 *726:B *622:C1 0.00123468
302 *726:B *727:A 0.000412151
303 *727:B *727:A 0.000331668
304 *728:B *682:A 0.00190177
305 *732:A *733:A 0.000301045
306 *734:B *658:A 3.79613e-05
307 *734:B *331:14 0.000777064
308 *734:B *331:202 0.00024946
309 *739:B *739:A 0.000562018
310 *744:A *634:A 6.86205e-05
311 *745:B *634:A 0.000493199
312 *745:B *331:363 0.00151248
313 *747:A2 *331:407 4.30064e-05
314 *747:B1 *331:355 0.000287421
315 *747:B1 *331:357 3.79613e-05
316 *749:B *331:355 0.00099789
317 *749:B *331:407 9.61317e-05
318 *749:C *331:349 0.000493199
319 *753:B *753:A 6.86205e-05
320 *755:A2 *625:C1 6.86205e-05
321 *757:B *331:363 0.000493199
322 *757:C *625:C1 0.000901379
323 *757:C *331:357 0.000493199
324 *757:C *331:363 0.00124944
325 *760:C *331:407 0.000180839
326 *762:A *331:695 0
327 *763:B1 *331:695 0
328 *765:B *739:A 0.000178223
329 *765:B *331:695 5.94827e-05
330 *768:A *331:298 0.00124944
331 *768:B *615:A 0
332 *768:C *331:298 0
333 *769:B *615:A 0.00023478
334 *769:B *331:298 0
335 *770:A *615:A 0
336 *777:C *331:345 0.000493199
337 *781:C *331:79 0.000136187
338 *781:C *331:525 0.000493199
339 *789:C *658:A 0.000493199
340 *792:C *331:269 0
341 *793:B *793:A 0.000830965
342 *793:C *793:A 0.00012473
343 *794:A *331:261 0
344 *794:A *331:269 0.000871318
345 *797:C *331:269 7.7342e-05
346 *805:B *805:A 0.000493199
347 *805:B *331:561 0.000493199
348 *805:C *331:559 0
349 *805:C *331:561 0.00012473
350 *809:D *619:A 2.35389e-05
351 *811:D *331:449 0.000299811
352 *813:D *331:732 0.000436598
353 *814:D *331:107 0.000980743
354 *817:D *331:780 0.00024946
355 *818:D *331:559 0.000300411
356 *821:D *331:261 0.000238126
357 *823:D *331:65 0.00123517
358 *824:D *331:79 0.000818545
359 *825:CLK *331:695 0.00169242
360 *826:D *331:298 0.000184576
361 *827:D *615:A 8.60128e-05
362 *828:D *739:A 5.58584e-05
363 *836:D *331:601 0
364 *837:D *622:C1 0
365 *837:D *331:601 0
366 *840:D *331:107 0.00637347
367 *840:D *331:116 0.00030416
368 *846:D *587:A 0.000572784
369 *849:CLK *331:780 0.000117471
370 *849:D *331:774 0.000436598
371 *849:D *331:780 0.000260306
372 *851:D *753:A 0.000412151
373 *851:D *331:538 0
374 *852:CLK *688:A 0.000128717
375 *852:CLK *801:A 0.000275747
376 *852:CLK *331:290 0.000493199
377 *852:D *667:A 0.000211498
378 *852:D *331:290 0.00431138
379 *854:D *661:A 0.000416624
380 *854:D *331:216 0.000651405
381 *860:CLK *691:A 0.00023527
382 *860:D *691:A 0.000436598
383 *860:D *331:324 2.69018e-05
384 *861:D *331:678 0.000981344
385 *863:CLK *634:A 0
386 *863:D *634:A 0.000368505
387 *864:CLK *331:589 0.000100881
388 *864:D *331:589 0.000301757
389 *865:D *637:A 0.000493199
390 *866:D *625:C1 0.00011508
391 *868:D *733:A 0.00200567
392 *868:D *331:646 0.000378119
393 *870:D *331:644 0.000368505
394 *872:CLK *620:C1 0.000536881
395 *872:D *620:C1 0.00242078
396 *872:D *702:A 0.00106852
397 *883:A *708:A 0.000493199
398 *888:A *682:A 0.00304267
399 *888:A *331:71 0.000591093
400 *888:A *331:79 0.00170545
401 *888:A *331:145 0.00125971
402 *891:A *701:A 0.00024946
403 *891:A *331:14 0.000470645
404 *891:A *331:22 3.79613e-05
405 *892:A *682:A 2.06247e-05
406 *899:A *331:202 0.000162691
407 *901:A *331:107 0.000198272
408 *914:A *331:8 0.00124944
409 *1:18 *331:559 7.04386e-05
410 *5:13 *679:A 0.00124944
411 *16:25 *331:101 0.00036897
412 *74:14 *331:407 0
413 *77:14 *625:C1 0.00273453
414 *77:14 *331:355 0.000504691
415 *77:14 *331:407 0.0010208
416 *174:18 *679:A 0.00156798
417 *174:24 *733:A 6.07149e-05
418 *174:24 *753:A 1.43476e-05
419 *179:16 *331:79 0.000462845
420 *184:24 *625:C1 0.000493199
421 *204:10 *331:298 0
422 *204:10 *331:320 0.000100881
423 *213:10 *331:525 0.000111717
424 *225:12 *331:269 0.000493199
425 *225:12 *331:282 0
426 *249:10 *331:298 0
427 *262:12 *331:538 0.00106852
428 *263:12 *667:A 0.000162691
429 *268:14 *331:525 0.00226871
430 *271:12 *331:320 0.00024946
431 *271:27 *331:320 0.000493199
432 *272:21 *331:101 0.000164225
433 *273:8 *331:678 0
434 *276:12 *331:585 2.80384e-05
435 *276:12 *331:678 0.000272373
436 *276:18 *331:678 0
437 *279:16 *331:695 0
438 *282:10 *331:644 0
439 *285:16 *702:A 0
440 *285:16 *331:782 7.28588e-05
441 *289:10 *682:A 0.00056857
442 *291:10 *591:A 0.000408009
443 *291:10 *331:774 0
444 *293:52 *331:644 0
445 *293:86 *331:407 0
446 *293:130 *331:32 0.000287421
447 *293:139 *331:32 0.000162691
448 *293:154 *331:764 0.000504491
449 *293:154 *331:766 0.00104884
450 *293:177 *801:A 0
451 *293:177 *331:282 0
452 *295:27 *331:644 0
453 *295:33 *331:644 0
454 *295:80 *331:644 0.000378119
455 *295:80 *331:646 0.00351815
456 *295:90 *733:A 0
457 *297:14 *331:101 0.00140182
458 *297:31 *331:732 0.000232741
459 *297:48 *331:79 0.000470645
460 *299:57 *637:A 0.000493199
461 *299:61 *637:A 0
462 *300:12 *331:32 0.00351815
463 *300:63 *688:A 7.28588e-05
464 *300:101 *331:26 0.000154684
465 *300:101 *331:32 0.000100881
466 *302:10 *619:A 0.000189417
467 *302:10 *331:22 0.00190177
468 *305:36 *646:A 0.000127395
469 *305:36 *664:A 0.000493199
470 *305:36 *793:A 0.00251817
471 *305:36 *331:241 0.000651895
472 *305:36 *331:261 0
473 *305:38 *331:455 0.000131145
474 *305:53 *331:449 0
475 *307:14 *331:22 0.000206247
476 *307:14 *331:282 0.00140182
477 *308:25 *331:101 0.000172026
478 *309:18 *652:A 0.000493199
479 *309:18 *708:A 0.000131145
480 *309:18 *331:523 0.000378119
481 *309:18 *331:525 0.0060499
482 *309:18 *331:732 0
483 *310:32 *646:A 0.00648
484 *310:32 *331:220 0.000813963
485 *310:32 *331:222 0.000813963
486 *310:32 *331:241 0
487 *310:42 *331:407 6.18741e-05
488 *310:44 *331:407 0.000157861
489 *311:18 *625:C1 0.000720987
490 *312:18 *679:A 0.000953306
491 *313:12 *664:A 0.000178223
492 *313:12 *793:A 0.000332907
493 *313:12 *331:282 0.00091285
494 *313:18 *331:341 0.000829427
495 *313:18 *331:345 0.00108461
496 *313:18 *331:349 0.00012473
497 *313:24 *331:349 0.00024946
498 *314:20 *331:732 0.000197324
499 *314:20 *331:743 0.000132814
500 *314:20 *331:764 0.00351815
501 *319:16 *664:A 0.00012473
502 *322:64 *331:341 3.79613e-05
503 *322:68 *331:341 0.000542304
504 *322:68 *331:345 2.65031e-05
505 *322:84 *331:355 7.7342e-05
506 *322:84 *331:357 5.38032e-05
507 *322:255 *646:A 0.00020428
508 *322:422 *331:261 0.000179615
509 *323:16 *682:A 0.000369349
510 *323:31 *691:A 0.000749026
511 *323:31 *331:337 0.000340466
512 *323:31 *331:441 6.80933e-05
513 *324:18 *331:10 0.000748817
514 *324:18 *331:14 0.000232614
515 *324:18 *331:216 0.000576792
516 *326:10 *682:A 6.43831e-05
517 *326:10 *331:10 0.000731109
518 *326:10 *331:14 8.58863e-05
519 *326:10 *331:216 0.000971439
520 *327:34 *331:101 0
521 *328:16 *331:65 0.00273502
522 *328:16 *331:69 0.00131751
523 *328:16 *331:107 0
524 *329:18 *587:A 0.000913251
525 *329:18 *331:743 0.00010194
526 *329:22 *587:A 0.000300539
*RES
1 *914:X *331:8 14.9515 
2 *331:8 *331:10 4.48485 
3 *331:10 *331:14 7.95455 
4 *331:14 *331:22 16.5758 
5 *331:22 *331:26 2.21212 
6 *331:26 *331:32 8.84849 
7 *331:32 *655:A 9.3 
8 *331:32 *331:41 0.818182 
9 *331:41 *688:A 11.8606 
10 *331:41 *801:A 19.9515 
11 *331:26 *331:65 8.72727 
12 *331:65 *331:69 5.44788 
13 *331:69 *331:71 0.156094 
14 *331:71 *331:79 11.1412 
15 *331:79 *781:A 9.3 
16 *331:79 *708:A 12.5424 
17 *331:71 *331:101 10.8418 
18 *331:101 *331:107 15.197 
19 *331:107 *695:A 9.3 
20 *331:107 *331:116 2.56061 
21 *331:116 *679:A 25.8303 
22 *331:116 *595:A 9.3 
23 *331:101 *599:A 14.2545 
24 *331:69 *331:145 0.33266 
25 *331:145 *619:A 17.8994 
26 *331:145 *682:A 22.1574 
27 *331:65 *785:A 13.8 
28 *331:22 *709:C1 9.75455 
29 *331:14 *701:A 11.7697 
30 *331:10 *331:202 5.30303 
31 *331:202 *658:A 10.8 
32 *331:202 *789:A 9.3 
33 *331:8 *331:216 6.93182 
34 *331:216 *331:220 4.62549 
35 *331:220 *331:222 0.214949 
36 *331:222 *646:A 20.1026 
37 *331:222 *331:241 9.17515 
38 *331:241 *664:A 10.103 
39 *331:241 *793:A 12.1939 
40 *331:220 *331:261 12.7812 
41 *331:261 *331:269 4.9394 
42 *331:269 *773:A 9.75455 
43 *331:269 *331:282 15.0303 
44 *331:282 *331:290 10 
45 *331:290 *331:298 16.1818 
46 *331:298 *615:A 20.7242 
47 *331:298 *769:A 9.3 
48 *331:290 *331:320 6.31818 
49 *331:320 *331:324 6.69697 
50 *331:324 *691:A 18.1485 
51 *331:324 *331:337 1.39394 
52 *331:337 *331:341 7.74243 
53 *331:341 *331:345 3.95455 
54 *331:345 *331:349 6 
55 *331:349 *331:355 7.56061 
56 *331:355 *331:357 0.803031 
57 *331:357 *331:363 7.19697 
58 *331:363 *634:A 22.7242 
59 *331:363 *745:A 9.3 
60 *331:357 *757:A 9.3 
61 *331:355 *625:C1 22.9818 
62 *331:349 *331:407 15.2121 
63 *331:407 *637:A 27.2545 
64 *331:407 *628:A 9.3 
65 *331:345 *749:A 9.3 
66 *331:341 *777:A 9.3 
67 *331:337 *331:441 2.16667 
68 *331:441 *331:449 11.4394 
69 *331:449 *331:455 5.45455 
70 *331:455 *761:A 12.5576 
71 *331:455 *649:A 9.3 
72 *331:449 *705:A 9.3 
73 *331:441 *611:A 13.8 
74 *331:320 *643:A 9.66364 
75 *331:290 *607:A 9.3 
76 *331:282 *667:A 11.1485 
77 *331:261 *797:A 9.75455 
78 *331:216 *661:A 15.0652 
79 *781:A *331:523 9.75455 
80 *331:523 *331:525 5.68182 
81 *331:525 *652:A 9.75455 
82 *331:525 *331:536 6.15152 
83 *331:536 *331:538 2.93939 
84 *331:538 *753:A 26.7394 
85 *331:538 *331:559 10.7273 
86 *331:559 *331:561 4.98485 
87 *331:561 *331:565 3.95455 
88 *331:565 *715:A 9.3 
89 *331:565 *331:574 0.818182 
90 *331:574 *631:A 10.103 
91 *331:574 *331:585 6.92424 
92 *331:585 *331:589 11.2273 
93 *331:589 *331:595 2.92424 
94 *331:595 *331:601 9.30303 
95 *331:601 *622:C1 17.3758 
96 *331:601 *727:A 17.0576 
97 *331:595 *721:A 9.66364 
98 *331:589 *331:634 5.89394 
99 *331:634 *331:644 10.0909 
100 *331:644 *331:646 4.63636 
101 *331:646 *733:A 22.3152 
102 *331:646 *623:C1 9.3 
103 *331:644 *624:C1 9.3 
104 *331:634 *621:C1 13.8 
105 *331:585 *331:678 7.31818 
106 *331:678 *640:A 14.2545 
107 *331:678 *331:695 11.0303 
108 *331:695 *739:A 16.7394 
109 *331:695 *765:A 9.3 
110 *331:561 *694:A 9.3 
111 *331:559 *805:A 9.75455 
112 *331:536 *670:A 13.8 
113 *331:523 *331:732 8.4697 
114 *331:732 *603:A 14.2545 
115 *331:732 *331:743 2.68182 
116 *331:743 *587:A 20.2242 
117 *331:743 *331:764 14.1515 
118 *331:764 *331:766 5.51515 
119 *331:766 *331:774 8 
120 *331:774 *331:780 9.54546 
121 *331:780 *331:782 5.68182 
122 *331:782 *620:C1 14.6485 
123 *331:782 *702:A 22.1333 
124 *331:780 *673:A 9.3 
125 *331:774 *591:A 14.6333 
126 *331:766 *676:A 14.9515 
127 *331:764 *685:A 14.2545 
*END

*D_NET *332 0.0148992
*CONN
*I *696:B I *D sky130_fd_sc_hd__nand2_1
*I *915:X O *D sky130_fd_sc_hd__buf_1
*CAP
1 *696:B 0
2 *915:X 0.00240551
3 *332:20 0.00240551
4 *332:20 *698:B 0.00111668
5 *679:A *332:20 0.00390108
6 *697:A *332:20 0.00148471
7 *900:A *332:20 0.00109172
8 *906:A *332:20 0
9 *28:17 *332:20 0.000162691
10 *150:10 *332:20 0.000493199
11 *174:18 *332:20 0.001021
12 *289:10 *332:20 0
13 *289:12 *332:20 0
14 *312:18 *332:20 0.000301045
15 *323:16 *332:20 0.000516077
*RES
1 *915:X *332:20 42.0121 
2 *332:20 *696:B 9.3 
*END

*D_NET *333 0.0451674
*CONN
*I *668:A2 I *D sky130_fd_sc_hd__a22oi_1
*I *803:A2 I *D sky130_fd_sc_hd__a21oi_1
*I *804:B I *D sky130_fd_sc_hd__and3_1
*I *916:X O *D sky130_fd_sc_hd__buf_1
*CAP
1 *668:A2 0.000475798
2 *803:A2 0
3 *804:B 0.000477867
4 *916:X 0.0104878
5 *333:47 0.000483279
6 *333:34 0.000615497
7 *333:32 0.010618
8 *668:A2 *362:10 0.000372911
9 *804:B *369:162 7.7342e-05
10 *804:B *369:171 0.000661611
11 *333:32 *586:A 0.000178223
12 *333:32 *588:B 0.000413089
13 *333:32 *675:B 0.000100881
14 *333:32 *365:8 6.81512e-05
15 *333:32 *366:14 0
16 *333:34 *807:A1 0.00206842
17 *333:34 *367:8 0.000108148
18 *333:47 *807:A1 0.0003333
19 *586:B *333:32 0.00140182
20 *586:C *333:32 0.000107948
21 *586:C *333:34 0.00023527
22 *587:B *333:34 0.000734729
23 *589:B1 *333:32 0.000871318
24 *592:A *333:32 0.000287421
25 *674:B1 *333:32 0.000226047
26 *676:A *333:32 0.00124944
27 *676:B *333:32 0.000561819
28 *676:C *333:32 0.00012473
29 *679:A *333:32 0.00124944
30 *807:B1 *333:34 0.00139986
31 *817:D *333:32 0.00123517
32 *1:18 *668:A2 0
33 *231:10 *668:A2 0
34 *237:8 *333:32 0.00389627
35 *240:10 *333:32 5.19727e-05
36 *291:18 *333:32 0.00104569
37 *314:20 *668:A2 0.0016927
38 *314:20 *333:34 2.80384e-05
39 *314:20 *333:47 0.000164225
40 *329:18 *333:34 0.000584255
41 *329:22 *333:32 0.00016665
42 *329:22 *333:34 0.000312228
43 *331:774 *333:32 0
*RES
1 *916:X *333:32 47.1636 
2 *333:32 *333:34 6.0303 
3 *333:34 *804:B 16.3606 
4 *333:34 *333:47 0.621212 
5 *333:47 *803:A2 13.8 
6 *333:47 *668:A2 20.3 
*END

*D_NET *334 0.0155146
*CONN
*I *665:A2 I *D sky130_fd_sc_hd__a22oi_1
*I *799:A2 I *D sky130_fd_sc_hd__a21oi_1
*I *800:B I *D sky130_fd_sc_hd__and3_1
*I *917:X O *D sky130_fd_sc_hd__buf_1
*CAP
1 *665:A2 4.80412e-05
2 *799:A2 0
3 *800:B 0.00132
4 *917:X 0.000117802
5 *334:22 0.00170393
6 *334:8 0.000549767
7 *334:22 *665:B2 0.00040143
8 *334:22 *339:20 6.86205e-05
9 *665:B1 *334:22 0.000493199
10 *799:A1 *334:22 0.00279957
11 *800:A *800:B 0.000154684
12 *801:B *800:B 0.00124944
13 *917:A *334:8 0.000128717
14 *228:14 *800:B 3.8858e-05
15 *228:14 *334:22 0.000493199
16 *307:14 *334:22 0.000436031
17 *322:351 *665:A2 0.00013563
18 *322:351 *334:8 0.000537191
19 *322:351 *334:22 0.00012473
20 *324:18 *334:8 0.00389627
21 *324:18 *334:22 0.000817539
*RES
1 *917:X *334:8 13.2545 
2 *334:8 *334:22 15.7727 
3 *334:22 *800:B 12.3758 
4 *334:22 *799:A2 9.3 
5 *334:8 *665:A2 9.78864 
*END

*D_NET *335 0.0189205
*CONN
*I *662:A2 I *D sky130_fd_sc_hd__a22oi_1
*I *796:B I *D sky130_fd_sc_hd__and3_1
*I *795:A2 I *D sky130_fd_sc_hd__a21oi_1
*I *918:X O *D sky130_fd_sc_hd__buf_1
*CAP
1 *662:A2 0.00129944
2 *796:B 0.000231446
3 *795:A2 0
4 *918:X 0
5 *335:16 0.000836707
6 *335:4 0.0019047
7 *662:A2 *659:B2 0.000136187
8 *662:A2 *792:B 0.000198923
9 *662:A2 *336:29 0.000901869
10 *335:16 *792:B 0.000871318
11 *335:16 *348:18 0.000504691
12 *662:A1 *662:A2 0.00013563
13 *792:A *335:16 0.000100881
14 *793:C *335:16 0.000493199
15 *796:C *796:B 0.000385505
16 *797:B *796:B 0.00024946
17 *797:B *335:16 0.000387058
18 *797:C *796:B 0.000871318
19 *821:D *662:A2 0.00139507
20 *854:CLK *662:A2 0.00148471
21 *219:10 *335:16 0
22 *222:18 *662:A2 0
23 *222:18 *335:16 0.00200567
24 *266:12 *796:B 0
25 *266:20 *796:B 0
26 *301:14 *662:A2 2.35389e-05
27 *301:81 *662:A2 0.000129019
28 *322:330 *796:B 0.000181586
29 *322:339 *796:B 7.7342e-05
30 *322:339 *335:16 0.000412151
31 *322:399 *335:16 0
32 *322:409 *335:16 0.000901869
33 *322:422 *662:A2 6.80933e-05
34 *322:422 *335:16 0.000499949
35 *326:10 *662:A2 0
36 *328:16 *335:16 0.00106852
37 *331:261 *662:A2 0.00106852
38 *331:261 *335:16 9.61317e-05
*RES
1 *918:X *335:4 9.3 
2 *335:4 *335:16 17.803 
3 *335:16 *795:A2 9.3 
4 *335:16 *796:B 12.4818 
5 *335:4 *662:A2 34.6068 
*END

*D_NET *336 0.0121007
*CONN
*I *659:A2 I *D sky130_fd_sc_hd__a22oi_1
*I *791:A2 I *D sky130_fd_sc_hd__a21oi_1
*I *792:B I *D sky130_fd_sc_hd__and3_1
*I *919:X O *D sky130_fd_sc_hd__buf_1
*CAP
1 *659:A2 0.00011451
2 *791:A2 0.000215282
3 *792:B 0.00199981
4 *919:X 0.000196302
5 *336:29 0.000410817
6 *336:6 0.00227713
7 *659:A2 *659:B2 0.000113884
8 *791:A2 *659:B2 8.60128e-05
9 *661:B *791:A2 0
10 *662:A2 *792:B 0.000198923
11 *662:A2 *336:29 0.000901869
12 *791:A1 *791:A2 0.00149985
13 *791:A1 *336:29 6.86205e-05
14 *793:C *336:29 0.000154317
15 *797:A *792:B 3.79613e-05
16 *854:CLK *791:A2 2.80384e-05
17 *854:CLK *792:B 5.58584e-05
18 *854:CLK *336:29 0.000340466
19 *919:A *792:B 0.000493199
20 *919:A *336:6 0.000493199
21 *301:81 *336:29 0.000300411
22 *322:422 *792:B 0.000554076
23 *322:439 *336:29 0.00040143
24 *326:10 *791:A2 0
25 *331:261 *792:B 0.000287394
26 *335:16 *792:B 0.000871318
*RES
1 *919:X *336:6 9.75455 
2 *336:6 *792:B 23.0879 
3 *336:6 *336:29 7.18182 
4 *336:29 *791:A2 16.6788 
5 *336:29 *659:A2 14.5727 
*END

*D_NET *2 0.00896518
*CONN
*P p O
*I *808:Q O *D sky130_fd_sc_hd__dfxtp_1
*CAP
1 p 0.00149848
2 *808:Q 0.00149848
3 p *894:A 0.000744555
4 p *909:A 0
5 p *911:A 0.000620463
6 p *914:A 0.00190872
7 p *918:A 0.000437507
8 p *13:17 0.000334597
9 p *311:16 0.000151945
10 p *324:18 0.00177042
*RES
1 *808:Q p 26.7212 
*END

*D_NET *3 0.014328
*CONN
*P rst I
*I *914:A I *D sky130_fd_sc_hd__clkbuf_8
*CAP
1 rst 0.000903618
2 *914:A 0.000903618
3 *914:A *789:B 7.28588e-05
4 *914:A *911:A 0.00845183
5 *914:A *918:A 0.000837876
6 *914:A *331:8 0.00124944
7 p *914:A 0.00190872
*RES
1 rst *914:A 29.987 
*END

*D_NET *337 0.00651274
*CONN
*I *699:B I *D sky130_fd_sc_hd__xnor2_1
*I *698:B I *D sky130_fd_sc_hd__nor2_1
*I *697:B I *D sky130_fd_sc_hd__nand2_1
*I *809:Q O *D sky130_fd_sc_hd__dfxtp_1
*CAP
1 *699:B 2.49508e-05
2 *698:B 0.000344887
3 *697:B 0
4 *809:Q 0.000691794
5 *337:12 0.00041592
6 *337:8 0.000787778
7 *697:A *337:12 2.80384e-05
8 *709:A2 *699:B 0.000901869
9 *709:A2 *337:12 0.00140182
10 *886:A *337:8 6.81512e-05
11 *323:16 *337:12 6.81778e-05
12 *326:10 *699:B 0.000215032
13 *326:10 *337:12 0.000447646
14 *332:20 *698:B 0.00111668
*RES
1 *809:Q *337:8 14.9515 
2 *337:8 *337:12 7.18182 
3 *337:12 *697:B 9.3 
4 *337:12 *698:B 12.103 
5 *337:8 *699:B 15.1939 
*END

*D_NET *338 0.0153271
*CONN
*I *668:B2 I *D sky130_fd_sc_hd__a22oi_1
*I *802:B I *D sky130_fd_sc_hd__xor2_1
*I *669:B I *D sky130_fd_sc_hd__nor2_1
*I *819:Q O *D sky130_fd_sc_hd__dfxtp_1
*CAP
1 *668:B2 0
2 *802:B 3.90919e-05
3 *669:B 0.000347785
4 *819:Q 0.00171558
5 *338:14 0.000420346
6 *338:10 0.00174905
7 *669:B *778:B 0
8 *669:B *369:181 0
9 *338:10 *650:B2 0.00238379
10 *338:10 *668:A1 6.86205e-05
11 *338:10 *778:B 0
12 *338:14 *668:A1 0.00140182
13 *652:B *338:10 0.000913251
14 *669:A *669:B 0.000222387
15 *670:C *669:B 0.00011508
16 *753:A *669:B 0.000255565
17 *802:A *669:B 0.000378119
18 *802:A *802:B 0.000493199
19 *851:D *669:B 0.000901869
20 *857:D *338:10 0
21 *1:18 *338:10 6.11891e-05
22 *174:24 *669:B 0.00024946
23 *262:12 *669:B 0.00089575
24 *314:20 *669:B 0.000201848
25 *331:536 *338:10 0.000999899
26 *331:536 *338:14 6.86205e-05
27 *331:538 *669:B 4.30064e-05
28 *331:538 *338:14 0.00140182
*RES
1 *819:Q *338:10 21.5121 
2 *338:10 *338:14 6.66667 
3 *338:14 *669:B 23.4364 
4 *338:14 *802:B 9.75455 
5 *338:10 *668:B2 13.8 
*END

*D_NET *339 0.00963945
*CONN
*I *666:B I *D sky130_fd_sc_hd__nor2_1
*I *798:B I *D sky130_fd_sc_hd__xor2_1
*I *665:B2 I *D sky130_fd_sc_hd__a22oi_1
*I *820:Q O *D sky130_fd_sc_hd__dfxtp_1
*CAP
1 *666:B 0
2 *798:B 1.44957e-05
3 *665:B2 5.1929e-05
4 *820:Q 0.00102927
5 *339:20 0.000422248
6 *339:16 0.00138509
7 *339:16 *348:18 0.00138868
8 *339:20 *348:18 0
9 *665:B1 *798:B 0.00162756
10 *667:B *798:B 0.00012473
11 *667:B *339:20 0.000300411
12 *797:B *339:16 0.00056857
13 *797:C *339:16 0.00073522
14 *225:12 *339:16 0.000135986
15 *228:14 *798:B 0.00124944
16 *263:12 *665:B2 0
17 *263:12 *339:20 0
18 *307:14 *665:B2 0
19 *324:18 *339:20 0.000135786
20 *331:282 *339:16 0
21 *331:282 *339:20 0
22 *334:22 *665:B2 0.00040143
23 *334:22 *339:20 6.86205e-05
*RES
1 *820:Q *339:16 19.4212 
2 *339:16 *339:20 2.62121 
3 *339:20 *665:B2 14.4212 
4 *339:20 *798:B 15.3 
5 *339:16 *666:B 13.8 
*END

*D_NET *340 0.0182606
*CONN
*I *662:B2 I *D sky130_fd_sc_hd__a22oi_1
*I *663:B I *D sky130_fd_sc_hd__nor2_1
*I *794:B I *D sky130_fd_sc_hd__xor2_1
*I *821:Q O *D sky130_fd_sc_hd__dfxtp_1
*CAP
1 *662:B2 0.00199129
2 *663:B 9.33871e-05
3 *794:B 0.000174252
4 *821:Q 0.000642577
5 *340:8 0.000267639
6 *340:6 0.00263387
7 *662:B1 *662:B2 0.000493199
8 *663:A *662:B2 0
9 *663:A *663:B 0.000748826
10 *664:B *662:B2 1.70004e-05
11 *773:A *794:B 0.000162691
12 *794:A *662:B2 0
13 *794:A *663:B 0.000572784
14 *794:A *794:B 0.000861703
15 *301:14 *662:B2 0.00351815
16 *301:14 *340:6 0.00124944
17 *313:12 *663:B 0.00316635
18 *313:12 *794:B 0.000901869
19 *331:261 *662:B2 0.000640878
20 *331:269 *794:B 0.00012473
*RES
1 *821:Q *340:6 10.4515 
2 *340:6 *340:8 4.5 
3 *340:8 *794:B 16.3455 
4 *340:8 *663:B 18.8 
5 *340:6 *662:B2 24.4212 
*END

*D_NET *341 0.0144639
*CONN
*I *660:B I *D sky130_fd_sc_hd__nor2_1
*I *790:B I *D sky130_fd_sc_hd__xor2_1
*I *659:B2 I *D sky130_fd_sc_hd__a22oi_1
*I *822:Q O *D sky130_fd_sc_hd__dfxtp_1
*CAP
1 *660:B 4.10464e-05
2 *790:B 0
3 *659:B2 0.000404678
4 *822:Q 0.000183968
5 *341:14 0.000448288
6 *341:12 0.000268625
7 *659:A1 *659:B2 3.9317e-05
8 *659:A2 *659:B2 0.000113884
9 *659:B1 *659:B2 0.000470645
10 *660:A *660:B 2.65031e-05
11 *661:B *659:B2 0.00238379
12 *662:A2 *659:B2 0.000136187
13 *791:A2 *659:B2 8.60128e-05
14 *854:CLK *659:B2 0.00106852
15 *907:A *341:12 0.00162756
16 *919:A *659:B2 0.000493199
17 *919:A *341:12 0.00264683
18 *919:A *341:14 0.00226871
19 *265:10 *341:12 8.67686e-05
20 *265:16 *660:B 0
21 *265:16 *341:12 0.000287421
22 *265:16 *341:14 0.00102089
23 *322:439 *659:B2 0.000128717
24 *324:18 *341:12 0.000232318
25 *326:10 *659:B2 0
26 *331:216 *341:12 0
*RES
1 *822:Q *341:12 22.2394 
2 *341:12 *341:14 2.19697 
3 *341:14 *659:B2 24.7091 
4 *341:14 *790:B 9.3 
5 *341:12 *660:B 9.66364 
*END

*D_NET *342 0.0120994
*CONN
*I *786:B I *D sky130_fd_sc_hd__xor2_1
*I *657:B I *D sky130_fd_sc_hd__nor2_1
*I *656:B2 I *D sky130_fd_sc_hd__a22oi_1
*I *823:Q O *D sky130_fd_sc_hd__dfxtp_1
*CAP
1 *786:B 3.48686e-05
2 *657:B 0.000729325
3 *656:B2 0
4 *823:Q 0.000790893
5 *342:19 0.000775914
6 *342:10 0.000802614
7 *342:10 *734:A 0.000100881
8 *657:A *657:B 2.65031e-05
9 *657:A *342:10 0.000164025
10 *657:A *342:19 2.80384e-05
11 *658:C *657:B 0.000871318
12 *666:A *657:B 1.67388e-05
13 *266:20 *786:B 0.000300411
14 *266:20 *342:19 0.000136187
15 *302:10 *342:10 0
16 *322:351 *342:10 0.000344051
17 *322:399 *786:B 8.60128e-05
18 *328:16 *786:B 0.000999899
19 *328:16 *342:10 0.00506762
20 *328:16 *342:19 0.0003333
21 *331:22 *342:10 0.000490779
*RES
1 *823:Q *342:10 22.4364 
2 *342:10 *656:B2 13.8 
3 *342:10 *342:19 0.621212 
4 *342:19 *657:B 15.5727 
5 *342:19 *786:B 15.4515 
*END

*D_NET *343 0.00804703
*CONN
*I *782:B I *D sky130_fd_sc_hd__xor2_1
*I *653:B2 I *D sky130_fd_sc_hd__a22oi_1
*I *654:B I *D sky130_fd_sc_hd__nor2_1
*I *824:Q O *D sky130_fd_sc_hd__dfxtp_1
*CAP
1 *782:B 0.000195826
2 *653:B2 0
3 *654:B 3.6231e-05
4 *824:Q 0.000371908
5 *343:20 0.000792689
6 *343:10 0.00132419
7 *654:B *369:295 0.000154684
8 *654:B *369:299 0
9 *654:A *654:B 0.000871318
10 *779:A2 *654:B 0.000222387
11 *781:B *343:20 0
12 *782:A *782:B 0.00023527
13 *888:A *343:10 0
14 *267:16 *654:B 0
15 *293:148 *782:B 0
16 *293:148 *343:10 0
17 *293:148 *343:20 0.000368505
18 *297:48 *343:20 1.77085e-05
19 *304:14 *654:B 0.00162756
20 *304:14 *782:B 0.000666599
21 *304:14 *343:10 0.00106128
22 *304:14 *343:20 0.000100881
*RES
1 *824:Q *343:10 15.3909 
2 *343:10 *343:20 17.4394 
3 *343:20 *654:B 11.1636 
4 *343:20 *653:B2 9.3 
5 *343:10 *782:B 15.7091 
*END

*D_NET *344 0.0210901
*CONN
*I *650:B2 I *D sky130_fd_sc_hd__a22oi_1
*I *651:B I *D sky130_fd_sc_hd__nor2_1
*I *778:B I *D sky130_fd_sc_hd__xor2_1
*I *825:Q O *D sky130_fd_sc_hd__dfxtp_1
*CAP
1 *650:B2 0.00104585
2 *651:B 0
3 *778:B 0.00209347
4 *825:Q 0.000452198
5 *344:14 0.00233194
6 *344:6 0.00173652
7 *650:B2 *763:A1 0.000493199
8 *651:A *778:B 7.7342e-05
9 *652:B *650:B2 0.000661611
10 *652:B *778:B 0.00078634
11 *669:B *778:B 0
12 *763:A2 *650:B2 0.000871318
13 *763:A2 *344:6 8.67686e-05
14 *763:A2 *344:14 0.00140182
15 *763:B1 *344:6 0.000493199
16 *819:CLK *650:B2 0.00024946
17 *819:D *650:B2 0.00166455
18 *857:D *778:B 2.80384e-05
19 *75:14 *344:14 0.00240172
20 *268:14 *778:B 0.000100881
21 *309:18 *344:14 0.000661611
22 *309:33 *344:14 0.00106852
23 *338:10 *650:B2 0.00238379
24 *338:10 *778:B 0
*RES
1 *825:Q *344:6 10.103 
2 *344:6 *344:14 14.5606 
3 *344:14 *778:B 24.3 
4 *344:14 *651:B 9.3 
5 *344:6 *650:B2 16.7394 
*END

*D_NET *345 0.00830177
*CONN
*I *774:B I *D sky130_fd_sc_hd__xor2_1
*I *648:B I *D sky130_fd_sc_hd__nor2_1
*I *647:B2 I *D sky130_fd_sc_hd__a22oi_1
*I *826:Q O *D sky130_fd_sc_hd__dfxtp_1
*CAP
1 *774:B 0
2 *648:B 0.000115737
3 *647:B2 0
4 *826:Q 0.00109529
5 *345:18 0.000495978
6 *345:12 0.00147553
7 *649:C *648:B 0.000436598
8 *811:CLK *345:12 0.000410249
9 *843:CLK *648:B 0.000493199
10 *858:D *648:B 0
11 *77:14 *345:18 0
12 *210:10 *345:12 0.000146728
13 *269:10 *648:B 0.000493199
14 *269:21 *648:B 0.00020428
15 *293:86 *345:18 9.61317e-05
16 *299:33 *648:B 0
17 *299:33 *345:18 0
18 *305:53 *345:12 0
19 *310:42 *648:B 0.00123517
20 *310:42 *345:12 0.000368505
21 *310:42 *345:18 0.00123517
*RES
1 *826:Q *345:12 21.5424 
2 *345:12 *345:18 7.56061 
3 *345:18 *647:B2 13.8 
4 *345:18 *648:B 16.9364 
5 *345:12 *774:B 9.3 
*END

*D_NET *346 0.00602156
*CONN
*I *770:B I *D sky130_fd_sc_hd__xor2_1
*I *644:B2 I *D sky130_fd_sc_hd__a22oi_1
*I *645:B I *D sky130_fd_sc_hd__nor2_1
*I *827:Q O *D sky130_fd_sc_hd__dfxtp_1
*CAP
1 *770:B 5.72996e-06
2 *644:B2 0
3 *645:B 0.000117663
4 *827:Q 0.000218073
5 *346:18 0.00034363
6 *346:10 0.000449769
7 *615:A *346:18 0
8 *615:B *346:18 0
9 *615:C *645:B 0
10 *644:A2 *645:B 0
11 *645:A *645:B 0.000254057
12 *646:B *346:18 0.00023527
13 *768:A *346:18 0.000154684
14 *770:A *770:B 0.000378119
15 *770:A *346:18 0.00134797
16 *810:D *645:B 0.00124944
17 *810:D *346:10 0
18 *826:D *770:B 0.000162691
19 *826:D *346:18 0.000536881
20 *322:242 *346:10 0.00056759
*RES
1 *827:Q *346:10 19.9515 
2 *346:10 *346:18 12.6667 
3 *346:18 *645:B 11.1788 
4 *346:18 *644:B2 9.3 
5 *346:10 *770:B 9.75455 
*END

*D_NET *347 0.0111952
*CONN
*I *642:B I *D sky130_fd_sc_hd__nor2_1
*I *766:B I *D sky130_fd_sc_hd__xor2_1
*I *641:B2 I *D sky130_fd_sc_hd__a22oi_1
*I *828:Q O *D sky130_fd_sc_hd__dfxtp_1
*CAP
1 *642:B 0.00022016
2 *766:B 4.50828e-05
3 *641:B2 6.95269e-05
4 *828:Q 0.000980666
5 *347:16 0.000358286
6 *347:12 0.0014445
7 *347:12 *920:A 0
8 *642:A *641:B2 0.000493199
9 *643:B *641:B2 0.00106754
10 *643:B *347:16 0.00162756
11 *643:C *642:B 0.00099789
12 *691:A *642:B 0
13 *691:A *347:12 0
14 *819:CLK *347:12 6.80933e-05
15 *845:CLK *347:12 0.000232318
16 *860:CLK *347:12 0
17 *860:D *347:12 0.000275747
18 *75:14 *347:12 0.00056808
19 *184:24 *347:12 0.000254244
20 *271:27 *641:B2 0.000901379
21 *271:27 *766:B 3.79613e-05
22 *293:23 *347:12 0.00060623
23 *322:49 *641:B2 0.000136187
24 *322:49 *347:12 0
25 *322:64 *641:B2 0.000493199
26 *322:64 *642:B 0.000162691
27 *331:320 *766:B 7.7342e-05
28 *331:320 *347:16 7.7342e-05
*RES
1 *828:Q *347:12 22.9667 
2 *347:12 *347:16 6.34849 
3 *347:16 *641:B2 20.6636 
4 *347:16 *766:B 9.75455 
5 *347:12 *642:B 16.4212 
*END

*D_NET *348 0.0309096
*CONN
*I *616:B I *D sky130_fd_sc_hd__xor2_1
*I *707:B I *D sky130_fd_sc_hd__nor2_1
*I *706:B2 I *D sky130_fd_sc_hd__a22oi_1
*I *810:Q O *D sky130_fd_sc_hd__dfxtp_1
*CAP
1 *616:B 0.000465182
2 *707:B 5.61054e-05
3 *706:B2 0.000377785
4 *810:Q 0.00384719
5 *348:26 0.000813194
6 *348:18 0.00469168
7 *348:18 *618:A 0.00073522
8 *348:26 *618:A 6.86205e-05
9 *616:A *616:B 0.00162756
10 *616:A *348:26 0.00010214
11 *706:B1 *706:B2 0.000436598
12 *706:B1 *707:B 3.8858e-05
13 *707:A *707:B 0.000189194
14 *708:C *706:B2 0.00276191
15 *708:C *707:B 0.00162756
16 *797:B *348:18 0.00073522
17 *799:A1 *348:18 0.000300411
18 *820:CLK *348:18 0.000100881
19 *820:D *348:18 0.000553212
20 *823:D *348:18 0.00123517
21 *16:25 *706:B2 0
22 *16:25 *348:26 0.000300411
23 *33:27 *706:B2 3.90852e-05
24 *35:23 *707:B 4.06515e-05
25 *293:154 *706:B2 0
26 *297:14 *706:B2 0.00276191
27 *297:14 *707:B 0.000756238
28 *324:18 *348:18 0.000171646
29 *328:16 *348:18 0.0014015
30 *331:65 *348:18 0.000570044
31 *331:69 *348:18 4.30064e-05
32 *331:69 *348:26 2.52979e-05
33 *331:101 *348:18 0
34 *331:101 *348:26 0.00214279
35 *335:16 *348:18 0.000504691
36 *339:16 *348:18 0.00138868
37 *339:20 *348:18 0
*RES
1 *810:Q *348:18 35.9818 
2 *348:18 *348:26 9.28788 
3 *348:26 *706:B2 23.7849 
4 *348:26 *707:B 11.1636 
5 *348:18 *616:B 16.2697 
*END

*D_NET *349 0.010592
*CONN
*I *762:B I *D sky130_fd_sc_hd__xor2_1
*I *638:B2 I *D sky130_fd_sc_hd__a22oi_1
*I *639:B I *D sky130_fd_sc_hd__nor2_1
*I *829:Q O *D sky130_fd_sc_hd__dfxtp_1
*CAP
1 *762:B 0.000196302
2 *638:B2 8.77729e-05
3 *639:B 0.000231528
4 *829:Q 0.000276014
5 *349:27 0.00199704
6 *349:6 0.0022205
7 *349:27 *630:B 0.000154684
8 *630:A *349:27 0.00200567
9 *631:B *349:6 1.70004e-05
10 *631:B *349:27 3.8858e-05
11 *639:A *638:B2 0.000493199
12 *639:A *639:B 0.000222387
13 *640:C *639:B 0.00011508
14 *762:A *762:B 0.00149985
15 *861:D *639:B 0.000232318
16 *74:14 *639:B 0
17 *273:8 *762:B 6.86205e-05
18 *273:8 *349:27 0.00073522
19 *331:678 *639:B 0
20 *331:678 *349:27 0
21 *331:695 *762:B 0
*RES
1 *829:Q *349:6 9.75455 
2 *349:6 *639:B 20.2545 
3 *349:6 *349:27 8.5303 
4 *349:27 *638:B2 14.2545 
5 *349:27 *762:B 16.2242 
*END

*D_NET *350 0.00639919
*CONN
*I *636:B I *D sky130_fd_sc_hd__nor2_1
*I *758:B I *D sky130_fd_sc_hd__xor2_1
*I *635:B2 I *D sky130_fd_sc_hd__a22oi_1
*I *830:Q O *D sky130_fd_sc_hd__dfxtp_1
*CAP
1 *636:B 0.000105922
2 *758:B 0.000303028
3 *635:B2 0.000526707
4 *830:Q 0.00149675
5 *350:28 0.00137899
6 *635:B2 *627:B 1.77085e-05
7 *635:B1 *350:28 0
8 *636:A *636:B 0.000436598
9 *636:A *758:B 0.000287421
10 *637:A *635:B2 0
11 *637:A *636:B 0.000476653
12 *637:A *350:28 0.000436598
13 *830:D *635:B2 0.000493199
14 *830:D *350:28 0.000261395
15 *274:8 *758:B 0.000178223
*RES
1 *830:Q *635:B2 29.7061 
2 *830:Q *350:28 16.9515 
3 *350:28 *758:B 15.997 
4 *350:28 *636:B 15.9667 
*END

*D_NET *351 0.0177093
*CONN
*I *754:B I *D sky130_fd_sc_hd__xor2_1
*I *632:B2 I *D sky130_fd_sc_hd__a22oi_1
*I *633:B I *D sky130_fd_sc_hd__nor2_1
*I *831:Q O *D sky130_fd_sc_hd__dfxtp_1
*CAP
1 *754:B 0.000416732
2 *632:B2 2.17181e-05
3 *633:B 0
4 *831:Q 0.000840915
5 *351:27 0.000478688
6 *351:18 0.000881153
7 *351:18 *354:29 0.000272373
8 *625:B1 *351:18 0.00107061
9 *632:A1 *754:B 0
10 *632:B1 *632:B2 0.00124944
11 *633:A *351:18 2.80384e-05
12 *633:A *351:27 0.000572784
13 *634:B *632:B2 0.00024946
14 *744:A *632:B2 0.00200567
15 *744:B *351:18 2.35389e-05
16 *745:B *754:B 0.0013332
17 *745:B *351:18 0.00040192
18 *745:B *351:27 0.00149985
19 *754:A *754:B 0.000871318
20 *831:CLK *351:18 0.000901869
21 *866:D *351:18 2.52979e-05
22 *867:CLK *351:18 0.000493199
23 *867:D *351:18 0.00024946
24 *75:14 *351:18 0.00323082
25 *275:10 *754:B 0.000523189
26 *275:10 *351:27 6.80933e-05
*RES
1 *831:Q *351:18 22.3303 
2 *351:18 *633:B 13.8 
3 *351:18 *351:27 2.42424 
4 *351:27 *632:B2 15.6485 
5 *351:27 *754:B 18.1636 
*END

*D_NET *352 0.00788031
*CONN
*I *750:B I *D sky130_fd_sc_hd__xor2_1
*I *629:B2 I *D sky130_fd_sc_hd__a22oi_1
*I *630:B I *D sky130_fd_sc_hd__nor2_1
*I *832:Q O *D sky130_fd_sc_hd__dfxtp_1
*CAP
1 *750:B 0.000152323
2 *629:B2 2.32565e-05
3 *630:B 6.67582e-05
4 *832:Q 0
5 *352:10 0.00018811
6 *352:4 0.000250419
7 *629:A2 *629:B2 0
8 *630:A *629:B2 0.000205933
9 *630:A *630:B 0.000313924
10 *631:B *629:B2 0.000378119
11 *631:B *630:B 0.00162756
12 *164:14 *750:B 7.7342e-05
13 *276:12 *750:B 0.000493199
14 *276:12 *352:10 0.00040192
15 *276:18 *352:10 0.000645096
16 *331:678 *352:10 0.00290167
17 *349:27 *630:B 0.000154684
*RES
1 *832:Q *352:4 9.3 
2 *352:4 *352:10 13.4848 
3 *352:10 *630:B 11.1636 
4 *352:10 *629:B2 10.1182 
5 *352:4 *750:B 10.4667 
*END

*D_NET *353 0.00738068
*CONN
*I *627:B I *D sky130_fd_sc_hd__nor2_1
*I *746:B I *D sky130_fd_sc_hd__xor2_1
*I *626:B2 I *D sky130_fd_sc_hd__a22oi_1
*I *833:Q O *D sky130_fd_sc_hd__dfxtp_1
*CAP
1 *627:B 6.56539e-05
2 *746:B 0.00026701
3 *626:B2 0.000204625
4 *833:Q 0.00029351
5 *353:24 0.000421549
6 *626:B1 *626:B2 0.000871318
7 *626:B1 *627:B 0.00056808
8 *626:B1 *353:24 0.00123072
9 *627:A *627:B 0.000665619
10 *628:B *627:B 0.000344051
11 *628:B *353:24 0.00110406
12 *635:B2 *627:B 1.77085e-05
13 *746:A *746:B 0.00124944
14 *277:8 *746:B 7.7342e-05
15 *322:99 *626:B2 0
*RES
1 *833:Q *626:B2 19.7667 
2 *833:Q *353:24 16.2545 
3 *353:24 *746:B 15.6485 
4 *353:24 *627:B 15.9667 
*END

*D_NET *354 0.0242165
*CONN
*I *743:B I *D sky130_fd_sc_hd__xnor2_1
*I *742:B I *D sky130_fd_sc_hd__nor2_1
*I *741:B I *D sky130_fd_sc_hd__nand2_1
*I *834:Q O *D sky130_fd_sc_hd__dfxtp_1
*CAP
1 *743:B 0
2 *742:B 0.00025424
3 *741:B 0.00167198
4 *834:Q 0.00370598
5 *354:29 0.0003327
6 *354:12 0.00545642
7 *625:A2 *741:B 9.47164e-05
8 *625:A2 *354:12 0.000217081
9 *625:B1 *742:B 7.7342e-05
10 *634:C *741:B 2.06247e-05
11 *741:A *741:B 0.00209654
12 *741:A *354:12 0
13 *741:A *354:29 0.000901869
14 *742:A *742:B 0.000871318
15 *742:A *354:29 0.000493199
16 *744:B *354:29 0.000939411
17 *745:B *354:29 6.86205e-05
18 *831:CLK *354:12 0.000888056
19 *831:CLK *354:29 2.52979e-05
20 *834:D *354:12 0.00128643
21 *278:14 *354:29 0.000613389
22 *278:16 *354:29 0.000378119
23 *298:16 *354:12 0.00355083
24 *351:18 *354:29 0.000272373
*RES
1 *834:Q *354:12 17.2091 
2 *354:12 *741:B 12.8152 
3 *354:12 *354:29 11.803 
4 *354:29 *742:B 11.1636 
5 *354:29 *743:B 9.3 
*END

*D_NET *355 0.00330642
*CONN
*I *735:B I *D sky130_fd_sc_hd__nand2_1
*I *737:B I *D sky130_fd_sc_hd__xnor2_1
*I *736:B I *D sky130_fd_sc_hd__nor2_1
*I *835:Q O *D sky130_fd_sc_hd__dfxtp_1
*CAP
1 *735:B 0.000178389
2 *737:B 0
3 *736:B 0.000534075
4 *835:Q 0
5 *355:12 0.000757153
6 *355:6 0.000401466
7 *624:A2 *735:B 2.80384e-05
8 *624:A2 *355:12 0.000367904
9 *735:A *735:B 0.000128893
10 *737:A *736:B 0.000385078
11 *279:25 *736:B 0.000525423
*RES
1 *835:Q *355:6 13.8 
2 *355:6 *355:12 6.34849 
3 *355:12 *736:B 12.4818 
4 *355:12 *737:B 9.3 
5 *355:6 *735:B 15.1333 
*END

*D_NET *356 0.00748717
*CONN
*I *731:B I *D sky130_fd_sc_hd__xnor2_1
*I *730:B I *D sky130_fd_sc_hd__nor2_1
*I *729:B I *D sky130_fd_sc_hd__nand2_1
*I *836:Q O *D sky130_fd_sc_hd__dfxtp_1
*CAP
1 *731:B 5.85794e-05
2 *730:B 1.75454e-05
3 *729:B 0.000244741
4 *836:Q 0.00134125
5 *356:16 0.000723926
6 *356:14 0.00186147
7 *729:A *729:B 0.000189194
8 *729:A *730:B 9.13659e-05
9 *729:A *731:B 0
10 *729:A *356:16 0.00024946
11 *868:D *356:14 0
12 *280:12 *356:14 0.000189734
13 *280:14 *356:16 0.00124944
14 *295:90 *729:B 0.000154684
15 *295:90 *731:B 0.000558061
16 *295:90 *356:14 9.17644e-05
17 *295:90 *356:16 5.38032e-05
18 *331:601 *356:14 0.000412151
*RES
1 *836:Q *356:14 23.4515 
2 *356:14 *356:16 2.54546 
3 *356:16 *729:B 10.8152 
4 *356:16 *730:B 9.66364 
5 *356:14 *731:B 10.3758 
*END

*D_NET *357 0.0119732
*CONN
*I *725:B I *D sky130_fd_sc_hd__xnor2_1
*I *723:B I *D sky130_fd_sc_hd__nand2_1
*I *724:B I *D sky130_fd_sc_hd__nor2_1
*I *837:Q O *D sky130_fd_sc_hd__dfxtp_1
*CAP
1 *725:B 0
2 *723:B 0.000344962
3 *724:B 0.000539066
4 *837:Q 0.00270643
5 *357:23 0.000911443
6 *357:6 0.00381198
7 *622:A2 *723:B 0.000536881
8 *723:A *723:B 0.00238379
9 *726:B *724:B 0
10 *837:CLK *357:6 0.000136078
11 *837:CLK *357:23 0.000178223
12 *837:D *357:6 0.000424353
13 *281:12 *724:B 0
*RES
1 *837:Q *357:6 13.9364 
2 *357:6 *724:B 21.2394 
3 *357:6 *357:23 3.5303 
4 *357:23 *723:B 12.9061 
5 *357:23 *725:B 9.3 
*END

*D_NET *358 0.00987198
*CONN
*I *717:B I *D sky130_fd_sc_hd__nand2_1
*I *718:B I *D sky130_fd_sc_hd__nor2_1
*I *719:B I *D sky130_fd_sc_hd__xnor2_1
*I *838:Q O *D sky130_fd_sc_hd__dfxtp_1
*CAP
1 *717:B 0.000593124
2 *718:B 0.000100325
3 *719:B 0.000207967
4 *838:Q 0.000426395
5 *358:19 0.000770073
6 *358:8 0.000710985
7 *621:A2 *717:B 7.7342e-05
8 *621:B1 *717:B 0.00124944
9 *715:B *358:8 0
10 *717:A *717:B 0.000412151
11 *719:A *719:B 0.000493199
12 *719:A *358:19 0
13 *720:A *358:8 0
14 *720:B *358:8 0.000232318
15 *721:B *358:8 0
16 *282:10 *718:B 6.86205e-05
17 *282:18 *717:B 0.00120755
18 *293:52 *718:B 4.68011e-05
19 *293:52 *358:8 0.000504691
20 *293:52 *358:19 0.000470645
21 *331:589 *719:B 0.00037419
22 *331:595 *719:B 0.00162756
23 *331:634 *718:B 6.2085e-05
24 *331:634 *358:19 0.000193529
25 *331:644 *718:B 4.30064e-05
*RES
1 *838:Q *358:8 17.5121 
2 *358:8 *719:B 16.3455 
3 *358:8 *358:19 1.7803 
4 *358:19 *718:B 14.747 
5 *358:19 *717:B 18.0121 
*END

*D_NET *359 0.00895097
*CONN
*I *612:B I *D sky130_fd_sc_hd__xor2_1
*I *704:B I *D sky130_fd_sc_hd__nor2_1
*I *703:B2 I *D sky130_fd_sc_hd__a22oi_1
*I *811:Q O *D sky130_fd_sc_hd__dfxtp_1
*CAP
1 *612:B 0.000306553
2 *704:B 4.75222e-05
3 *703:B2 0.000177787
4 *811:Q 0.000563317
5 *359:14 0.000933997
6 *359:10 0.00157856
7 *614:C *612:B 0.000103595
8 *647:A1 *703:B2 0.000493199
9 *703:A2 *612:B 0.000871318
10 *704:A *359:14 0.000871318
11 *705:B *703:B2 3.79613e-05
12 *705:C *703:B2 0.000493199
13 *705:C *359:14 0.000493199
14 *768:B *359:10 2.80384e-05
15 *826:D *359:10 0.000100881
16 *305:38 *612:B 0.000871318
17 *305:38 *703:B2 7.7342e-05
18 *331:449 *703:B2 0.000901869
*RES
1 *811:Q *359:10 16.1636 
2 *359:10 *359:14 7.74243 
3 *359:14 *703:B2 20.603 
4 *359:14 *704:B 9.66364 
5 *359:10 *612:B 16.5121 
*END

*D_NET *360 0.0163522
*CONN
*I *712:B I *D sky130_fd_sc_hd__nor2_1
*I *713:B I *D sky130_fd_sc_hd__xnor2_1
*I *711:B I *D sky130_fd_sc_hd__nand2_1
*I *839:Q O *D sky130_fd_sc_hd__dfxtp_1
*CAP
1 *712:B 0
2 *713:B 0.000201725
3 *711:B 0.00148816
4 *839:Q 0.00217356
5 *360:18 0.00176024
6 *360:12 0.00224391
7 *620:A1 *711:B 0.00123517
8 *620:A1 *360:12 0
9 *620:A1 *360:18 0.0003333
10 *620:A2 *711:B 0.000871318
11 *620:B1 *711:B 0
12 *620:C1 *711:B 0
13 *712:A *713:B 0.000558061
14 *712:A *360:18 0.00162756
15 *714:B *360:18 0.00024946
16 *838:D *360:12 0.000493199
17 *839:D *360:12 0.00112257
18 *871:D *711:B 0.00073522
19 *871:D *360:12 6.07149e-05
20 *871:D *360:18 0.000895119
21 *872:CLK *711:B 0.000178223
22 *284:21 *713:B 0.00012473
23 *294:53 *713:B 0
*RES
1 *839:Q *360:12 23.2848 
2 *360:12 *360:18 6.62121 
3 *360:18 *711:B 19.0424 
4 *360:18 *713:B 14.9667 
5 *360:12 *712:B 9.3 
*END

*D_NET *361 0.00662143
*CONN
*I *608:B I *D sky130_fd_sc_hd__xor2_1
*I *690:B I *D sky130_fd_sc_hd__nor2_1
*I *689:B2 I *D sky130_fd_sc_hd__a22oi_1
*I *812:Q O *D sky130_fd_sc_hd__dfxtp_1
*CAP
1 *608:B 0
2 *690:B 7.05874e-05
3 *689:B2 2.31954e-05
4 *812:Q 0.000252152
5 *361:23 0.000141857
6 *361:8 0.000346617
7 *690:A *690:B 0.000871318
8 *691:B *689:B2 0.000103721
9 *691:B *361:23 0.000215032
10 *691:C *690:B 0.000536881
11 *691:C *361:23 0.000136187
12 *812:D *689:B2 0.000871318
13 *812:D *361:8 0.000493199
14 *825:D *689:B2 0.000164225
15 *825:D *361:23 0.000885012
16 *184:24 *689:B2 0.000287421
17 *286:10 *361:23 0.00106803
18 *322:76 *690:B 0.000154684
*RES
1 *812:Q *361:8 14.2545 
2 *361:8 *689:B2 15.2242 
3 *361:8 *361:23 7.95455 
4 *361:23 *690:B 11.1636 
5 *361:23 *608:B 9.3 
*END

*D_NET *362 0.0215381
*CONN
*I *686:B2 I *D sky130_fd_sc_hd__a22oi_1
*I *687:B I *D sky130_fd_sc_hd__nor2_1
*I *604:B I *D sky130_fd_sc_hd__xor2_1
*I *813:Q O *D sky130_fd_sc_hd__dfxtp_1
*CAP
1 *686:B2 0.00026152
2 *687:B 6.41823e-05
3 *604:B 0
4 *813:Q 0.00440102
5 *362:12 6.41823e-05
6 *362:10 0.00466254
7 *650:B1 *362:10 0.000544746
8 *655:B *362:10 0
9 *668:A2 *362:10 0.000372911
10 *686:B1 *686:B2 0.00123072
11 *687:A *687:B 0.00169242
12 *688:B *686:B2 0.00156847
13 *688:B *362:10 0.00106852
14 *688:C *362:10 0
15 *781:B *362:10 0
16 *812:D *686:B2 0
17 *813:CLK *362:10 0.000424402
18 *813:D *362:10 3.11049e-05
19 *819:D *687:B 0.000536881
20 *819:D *362:10 0
21 *852:CLK *362:10 0
22 *1:18 *362:10 0.00162873
23 *268:14 *362:10 0.000504691
24 *287:10 *686:B2 0.00016665
25 *287:10 *362:10 0.00173512
26 *297:18 *362:10 0.000564933
27 *300:63 *362:10 0
28 *314:20 *362:10 1.43476e-05
*RES
1 *813:Q *362:10 33.1636 
2 *362:10 *362:12 4.5 
3 *362:12 *604:B 9.3 
4 *362:12 *687:B 11.1636 
5 *362:10 *686:B2 17.3909 
*END

*D_NET *363 0.0239832
*CONN
*I *683:B2 I *D sky130_fd_sc_hd__a22oi_1
*I *600:B I *D sky130_fd_sc_hd__xor2_1
*I *684:B I *D sky130_fd_sc_hd__nor2_1
*I *814:Q O *D sky130_fd_sc_hd__dfxtp_1
*CAP
1 *683:B2 3.75161e-05
2 *600:B 8.6142e-05
3 *684:B 0.0012743
4 *814:Q 0.00411124
5 *363:14 0.00194469
6 *363:12 0.00473301
7 *600:B *369:154 0.00173414
8 *363:12 *369:10 0.00056857
9 *363:12 *369:112 0.00314003
10 *684:A *683:B2 4.32419e-05
11 *684:A *684:B 0.00171842
12 *684:A *363:12 0.000287421
13 *684:A *363:14 0.000326578
14 *685:A *363:14 0.000493199
15 *685:C *684:B 7.7342e-05
16 *722:B *363:12 4.93199e-05
17 *840:D *363:12 7.7342e-05
18 *846:D *684:B 5.58584e-05
19 *164:14 *600:B 0.000100881
20 *293:154 *600:B 8.60128e-05
21 *314:20 *600:B 0.000493199
22 *328:16 *363:12 0.000232318
23 *331:107 *363:12 0.00091107
24 *331:764 *600:B 0.00116606
25 *331:766 *600:B 0.00023527
*RES
1 *814:Q *363:12 26.603 
2 *363:12 *363:14 1.15152 
3 *363:14 *684:B 12.1182 
4 *363:14 *600:B 21.4364 
5 *363:12 *683:B2 9.66364 
*END

*D_NET *364 0.0274512
*CONN
*I *680:B2 I *D sky130_fd_sc_hd__a22oi_1
*I *596:B I *D sky130_fd_sc_hd__xor2_1
*I *681:B I *D sky130_fd_sc_hd__nor2_1
*I *815:Q O *D sky130_fd_sc_hd__dfxtp_1
*CAP
1 *680:B2 0.000163311
2 *596:B 0
3 *681:B 0.00134345
4 *815:Q 0.00143005
5 *364:10 0.00137904
6 *364:8 0.00162896
7 *680:B2 *680:A1 0.000197324
8 *681:B *678:B 0.000493199
9 *591:B *681:B 0.000162691
10 *677:B1 *681:B 0.000956244
11 *678:A *681:B 0.00156847
12 *679:B *681:B 0.00097653
13 *679:C *681:B 0.000436598
14 *681:A *681:B 0.00114907
15 *682:B *680:B2 0.00162756
16 *682:C *681:B 0.000230045
17 *728:B *680:B2 0.00156847
18 *728:B *681:B 0.00256788
19 *728:B *364:10 0.00106803
20 *815:D *364:8 0.00162756
21 *848:D *681:B 0.000300411
22 *892:A *680:B2 0.00238379
23 *33:27 *364:8 0.000871318
24 *35:23 *680:B2 0.000111717
25 *36:19 *681:B 0
26 *174:18 *364:8 8.67686e-05
27 *290:10 *681:B 0.000901869
28 *326:27 *680:B2 0.00073522
29 *327:34 *364:10 0.000368304
30 *327:40 *681:B 0.00104924
31 *327:40 *364:10 6.80933e-05
*RES
1 *815:Q *364:8 16.3455 
2 *364:8 *364:10 1.65152 
3 *364:10 *681:B 30.0273 
4 *364:10 *596:B 13.8 
5 *364:8 *680:B2 19.0424 
*END

*D_NET *365 0.00741543
*CONN
*I *677:B2 I *D sky130_fd_sc_hd__a22oi_1
*I *592:B I *D sky130_fd_sc_hd__xor2_1
*I *678:B I *D sky130_fd_sc_hd__nor2_1
*I *816:Q O *D sky130_fd_sc_hd__dfxtp_1
*CAP
1 *677:B2 8.35116e-05
2 *592:B 0
3 *678:B 0.000109513
4 *816:Q 0.000683762
5 *365:21 9.01804e-05
6 *365:8 0.000799944
7 *678:A *678:B 0.000258038
8 *681:A *678:B 0.000493199
9 *681:B *678:B 0.000493199
10 *695:B_N *677:B2 0.000730982
11 *695:B_N *678:B 0.000146728
12 *695:B_N *365:21 8.60128e-05
13 *36:19 *678:B 0
14 *240:10 *677:B2 0.00290167
15 *240:10 *678:B 6.86205e-05
16 *240:10 *365:21 0.00040192
17 *333:32 *365:8 6.81512e-05
*RES
1 *816:Q *365:8 14.9515 
2 *365:8 *678:B 15.9061 
3 *365:8 *365:21 0.621212 
4 *365:21 *592:B 13.8 
5 *365:21 *677:B2 18.2848 
*END

*D_NET *366 0.00998915
*CONN
*I *588:B I *D sky130_fd_sc_hd__xor2_1
*I *674:B2 I *D sky130_fd_sc_hd__a22oi_1
*I *675:B I *D sky130_fd_sc_hd__nor2_1
*I *817:Q O *D sky130_fd_sc_hd__dfxtp_1
*CAP
1 *588:B 0.000211857
2 *674:B2 3.4249e-05
3 *675:B 8.21289e-06
4 *817:Q 0
5 *366:14 0.000307968
6 *366:4 0.000477364
7 *674:B2 *586:A 0.000833249
8 *366:14 *586:A 6.86205e-05
9 *586:B *674:B2 6.80933e-05
10 *586:B *366:14 0.00020428
11 *587:C *674:B2 0.00073522
12 *587:C *675:B 0.000162691
13 *674:B1 *674:B2 0.000105935
14 *676:A *588:B 0.000412151
15 *817:D *366:14 0
16 *849:CLK *588:B 0.000493199
17 *849:CLK *366:14 0.00162756
18 *849:D *588:B 0.000430854
19 *291:18 *588:B 0.00276191
20 *291:18 *674:B2 1.77085e-05
21 *291:18 *366:14 0.000103721
22 *329:22 *674:B2 2.80384e-05
23 *331:774 *588:B 8.60128e-05
24 *331:780 *588:B 5.58584e-05
25 *331:780 *366:14 0.000240434
26 *333:32 *588:B 0.000413089
27 *333:32 *675:B 0.000100881
28 *333:32 *366:14 0
*RES
1 *817:Q *366:4 9.3 
2 *366:4 *366:14 8.4697 
3 *366:14 *675:B 14.2545 
4 *366:14 *674:B2 15.4515 
5 *366:4 *588:B 23.5121 
*END

*D_NET *367 0.0160858
*CONN
*I *672:B I *D sky130_fd_sc_hd__nor2_1
*I *671:B2 I *D sky130_fd_sc_hd__a22oi_1
*I *806:B I *D sky130_fd_sc_hd__xor2_1
*I *818:Q O *D sky130_fd_sc_hd__dfxtp_1
*CAP
1 *672:B 0.000599927
2 *671:B2 0.00117687
3 *806:B 0.000253616
4 *818:Q 9.05429e-05
5 *367:27 0.00274716
6 *367:8 0.00131452
7 *671:B2 *369:386 0.000361084
8 *367:8 *807:A1 0.00056857
9 *586:C *806:B 2.80384e-05
10 *672:A *672:B 0
11 *673:B *671:B2 0.00023527
12 *673:B *672:B 0
13 *805:A *671:B2 0.00012473
14 *805:B *671:B2 0.000154684
15 *805:B *367:8 0.000901379
16 *805:B *367:27 7.7342e-05
17 *807:B1 *806:B 0.000824063
18 *807:B1 *367:8 0.00056808
19 *817:CLK *672:B 0.000340098
20 *850:D *672:B 0
21 *292:25 *806:B 0.000493199
22 *296:24 *672:B 0.00199833
23 *296:24 *806:B 3.90852e-05
24 *296:24 *367:27 0.00162756
25 *296:26 *672:B 0.00116606
26 *331:559 *367:8 0
27 *331:561 *671:B2 0.000287421
28 *333:34 *367:8 0.000108148
*RES
1 *818:Q *367:8 15.9667 
2 *367:8 *806:B 16.2091 
3 *367:8 *367:27 6.34849 
4 *367:27 *671:B2 22.3606 
5 *367:27 *672:B 24.9818 
*END

*D_NET *4 0.0393728
*CONN
*P x[0] I
*I *915:A I *D sky130_fd_sc_hd__buf_1
*CAP
1 x[0] 0.00222009
2 *915:A 0
3 *4:13 0.00222009
4 *4:13 *896:A 0.00588945
5 *4:13 *902:A 0.000159694
6 *4:13 *5:13 0.0136436
7 *4:13 *28:17 0.0152398
*RES
1 x[0] *4:13 47.6463 
2 *4:13 *915:A 9.3 
*END

*D_NET *5 0.0292605
*CONN
*P x[10] I
*I *916:A I *D sky130_fd_sc_hd__buf_1
*CAP
1 x[10] 0.00245258
2 *916:A 0
3 *5:13 0.00245258
4 *5:13 *679:A 0.00124944
5 *5:13 *896:A 0.00681794
6 *5:13 *901:A 0.000272373
7 *5:13 *902:A 4.13642e-05
8 *5:13 *906:A 0.000247146
9 *5:13 *16:25 0.000985194
10 *5:13 *28:17 0.000695692
11 *5:13 *35:23 0.000402551
12 *4:13 *5:13 0.0136436
*RES
1 x[10] *5:13 44.3566 
2 *5:13 *916:A 9.3 
*END

*D_NET *6 0.0189312
*CONN
*P x[11] I
*I *917:A I *D sky130_fd_sc_hd__buf_1
*CAP
1 x[11] 0.00500124
2 *917:A 0.00500124
3 *917:A *808:D 0.00431138
4 *917:A *887:A 0.00255649
5 *917:A *891:A 4.13642e-05
6 *917:A *900:A 0.00173382
7 *917:A *902:A 8.27284e-05
8 *917:A *324:18 7.42041e-05
9 *917:A *334:8 0.000128717
*RES
1 x[11] *917:A 34.4264 
*END

*D_NET *7 0.0179477
*CONN
*P x[12] I
*I *918:A I *D sky130_fd_sc_hd__buf_1
*CAP
1 x[12] 0.00556465
2 *918:A 0.00556465
3 *918:A *792:C 6.94962e-06
4 *918:A *822:CLK 0.000162691
5 *918:A *822:D 0.000908307
6 *918:A *889:A 0.00265169
7 *918:A *909:A 0.000159694
8 *918:A *911:A 0.000514493
9 *918:A *919:A 0
10 *918:A *20:19 0.000159694
11 *918:A *222:18 0.000979532
12 p *918:A 0.000437507
13 *914:A *918:A 0.000837876
*RES
1 x[12] *918:A 43.1584 
*END

*D_NET *8 0.0170638
*CONN
*P x[13] I
*I *919:A I *D sky130_fd_sc_hd__buf_1
*CAP
1 x[13] 0.00272148
2 *919:A 0.00272148
3 *919:A *659:B2 0.000493199
4 *919:A *792:B 0.000493199
5 *919:A *854:CLK 0.000255565
6 *919:A *894:A 0
7 *919:A *903:A 0.00269579
8 *919:A *907:A 0.00162149
9 *919:A *909:A 0
10 *919:A *20:19 0.000159694
11 *919:A *222:18 0.000493199
12 *919:A *265:16 0
13 *919:A *336:6 0.000493199
14 *919:A *341:12 0.00264683
15 *919:A *341:14 0.00226871
16 *918:A *919:A 0
*RES
1 x[13] *919:A 34.3955 
*END

*D_NET *9 0.0128125
*CONN
*P x[14] I
*I *886:A I *D sky130_fd_sc_hd__buf_1
*CAP
1 x[14] 0.00428221
2 *886:A 0.00428221
3 *886:A *696:A 0
4 *886:A *716:B 0.000368505
5 *886:A *887:A 0
6 *886:A *888:A 0.00190872
7 *886:A *900:A 6.18848e-05
8 *886:A *906:A 0.000661827
9 *886:A *28:17 0.0005095
10 *886:A *150:10 0.00056857
11 *886:A *302:10 0.000100881
12 *886:A *337:8 6.81512e-05
*RES
1 x[14] *886:A 41.8809 
*END

*D_NET *10 0.0143612
*CONN
*P x[15] I
*I *887:A I *D sky130_fd_sc_hd__buf_1
*CAP
1 x[15] 0.00233769
2 *887:A 0.00233769
3 *887:A *699:A 0.00078634
4 *887:A *700:B 3.8858e-05
5 *887:A *734:A 0
6 *887:A *734:B 0.00162756
7 *887:A *891:A 0.00182127
8 *887:A *900:A 0.00248504
9 *887:A *906:A 0.000192018
10 *887:A *303:12 0.000178223
11 *886:A *887:A 0
12 *917:A *887:A 0.00255649
*RES
1 x[15] *887:A 37.0191 
*END

*D_NET *11 0.0155178
*CONN
*P x[16] I
*I *888:A I *D sky130_fd_sc_hd__buf_1
*CAP
1 x[16] 0.00276232
2 *888:A 0.00276232
3 *888:A *682:A 0.00304267
4 *888:A *892:A 0
5 *888:A *906:A 0
6 *888:A *27:13 8.27284e-05
7 *888:A *35:23 0.000422049
8 *888:A *179:16 0.0006933
9 *888:A *304:14 0.000287421
10 *888:A *331:71 0.000591093
11 *888:A *331:79 0.00170545
12 *888:A *331:145 0.00125971
13 *888:A *343:10 0
14 *886:A *888:A 0.00190872
*RES
1 x[16] *888:A 23.0591 
*END

*D_NET *12 0.0235009
*CONN
*P x[17] I
*I *889:A I *D sky130_fd_sc_hd__buf_1
*CAP
1 x[17] 0.00200237
2 *889:A 0.00200237
3 *889:A *894:A 0.00918993
4 *889:A *899:A 0.000247146
5 *889:A *903:A 0.000480177
6 *889:A *907:A 0.00133644
7 *889:A *13:17 0.00398489
8 *889:A *20:19 0.00131849
9 *889:A *305:36 0.000287421
10 *918:A *889:A 0.00265169
*RES
1 x[17] *889:A 43.7779 
*END

*D_NET *13 0.0505492
*CONN
*P x[18] I
*I *890:A I *D sky130_fd_sc_hd__buf_1
*CAP
1 x[18] 0.00221914
2 *890:A 0
3 *13:17 0.00221914
4 *13:17 *894:A 0.000375847
5 *13:17 *903:A 0.0137274
6 *13:17 *907:A 0.00131849
7 *13:17 *909:A 0.000726159
8 *13:17 *20:19 0.0254793
9 *13:17 *313:12 0.000164225
10 p *13:17 0.000334597
11 *889:A *13:17 0.00398489
*RES
1 x[18] *13:17 49.6276 
2 *13:17 *890:A 13.8 
*END

*D_NET *14 0.00759743
*CONN
*P x[19] I
*I *891:A I *D sky130_fd_sc_hd__buf_1
*CAP
1 x[19] 0.00158337
2 *891:A 0.00158337
3 *891:A *701:A 0.00024946
4 *891:A *701:B 0.000871318
5 *891:A *734:B 0
6 *891:A *808:D 0.000368505
7 *891:A *895:A 0.000159694
8 *891:A *899:A 4.13642e-05
9 *891:A *902:A 0
10 *891:A *907:A 0
11 *891:A *911:A 0
12 *891:A *311:16 0.000149321
13 *891:A *323:16 0.000219796
14 *891:A *331:14 0.000470645
15 *891:A *331:22 3.79613e-05
16 *887:A *891:A 0.00182127
17 *917:A *891:A 4.13642e-05
*RES
1 x[19] *891:A 23.0644 
*END

*D_NET *15 0.0192614
*CONN
*P x[1] I
*I *892:A I *D sky130_fd_sc_hd__buf_1
*CAP
1 x[1] 0.00533343
2 *892:A 0.00533343
3 *892:A *617:A1 0.00106852
4 *892:A *680:B2 0.00238379
5 *892:A *682:A 2.06247e-05
6 *892:A *682:B 0.00012473
7 *892:A *682:C 7.7342e-05
8 *892:A *815:CLK 0.00106852
9 *892:A *898:A 0
10 *892:A *901:A 4.13642e-05
11 *892:A *906:A 0.000719617
12 *892:A *16:25 0.00068856
13 *892:A *27:13 0.000596952
14 *892:A *33:27 0
15 *892:A *35:23 6.18741e-05
16 *892:A *174:18 0.000871318
17 *892:A *327:34 0.000871318
18 *888:A *892:A 0
*RES
1 x[1] *892:A 45.3355 
*END

*D_NET *16 0.0467053
*CONN
*P x[20] I
*I *893:A I *D sky130_fd_sc_hd__buf_1
*CAP
1 x[20] 0.00763945
2 *893:A 0.000133696
3 *16:25 0.00777314
4 *893:A *174:18 0.000661611
5 *893:A *325:16 0.00179494
6 *16:25 *617:A2 0.000925121
7 *16:25 *706:A1 0.000871318
8 *16:25 *706:A2 0.00040143
9 *16:25 *706:B1 0.000275494
10 *16:25 *706:B2 0
11 *16:25 *847:D 0.00204266
12 *16:25 *901:A 0.000334597
13 *16:25 *906:A 0
14 *16:25 *28:17 0.000402551
15 *16:25 *35:23 0.0169638
16 *16:25 *174:18 0.000285829
17 *16:25 *289:10 0.00162756
18 *16:25 *293:154 0
19 *16:25 *297:14 0.000154684
20 *16:25 *297:80 0.00200567
21 *16:25 *331:101 0.00036897
22 *16:25 *348:26 0.000300411
23 *16:25 *369:106 6.86205e-05
24 *892:A *16:25 0.00068856
25 *5:13 *16:25 0.000985194
*RES
1 x[20] *16:25 49.7034 
2 *16:25 *893:A 11.8758 
*END

*D_NET *17 0.0278672
*CONN
*P x[21] I
*I *894:A I *D sky130_fd_sc_hd__buf_1
*CAP
1 x[21] 0.00106798
2 *894:A 0.00106798
3 *894:A *661:C 0.00124944
4 *894:A *909:A 0.0138776
5 *894:A *305:36 0.000131145
6 *894:A *310:32 0.000162691
7 p *894:A 0.000744555
8 *889:A *894:A 0.00918993
9 *919:A *894:A 0
10 *13:17 *894:A 0.000375847
*RES
1 x[21] *894:A 45.1688 
*END

*D_NET *18 0.0196668
*CONN
*P x[22] I
*I *895:A I *D sky130_fd_sc_hd__buf_2
*CAP
1 x[22] 0.00129755
2 *895:A 0.00129755
3 *895:A *899:A 0.016912
4 *891:A *895:A 0.000159694
*RES
1 x[22] *895:A 34.1129 
*END

*D_NET *19 0.0287844
*CONN
*P x[23] I
*I *896:A I *D sky130_fd_sc_hd__buf_1
*CAP
1 x[23] 0.00209099
2 *896:A 0.00209099
3 *896:A *681:A 0.000232026
4 *896:A *898:A 0.000334597
5 *896:A *901:A 0.00140312
6 *896:A *27:13 0.00283475
7 *896:A *28:17 0.000994118
8 *896:A *36:19 0.00609641
9 *4:13 *896:A 0.00588945
10 *5:13 *896:A 0.00681794
*RES
1 x[23] *896:A 48.261 
*END

*D_NET *20 0.0318356
*CONN
*P x[24] I
*I *897:A I *D sky130_fd_sc_hd__buf_1
*CAP
1 x[24] 0.00224283
2 *897:A 0
3 *20:19 0.00224283
4 *20:19 *903:A 0.000232741
5 *20:19 *310:32 0
6 *889:A *20:19 0.00131849
7 *918:A *20:19 0.000159694
8 *919:A *20:19 0.000159694
9 *13:17 *20:19 0.0254793
*RES
1 x[24] *20:19 46.5705 
2 *20:19 *897:A 9.3 
*END

*D_NET *21 0.0300389
*CONN
*P x[25] I
*I *898:A I *D sky130_fd_sc_hd__buf_1
*CAP
1 x[25] 0.00507468
2 *898:A 0.00507468
3 *898:A *595:B 0.00389627
4 *898:A *597:A1 0.000128717
5 *898:A *716:B 0.000607287
6 *898:A *815:D 0.001318
7 *898:A *901:A 0.00981762
8 *898:A *908:A 0
9 *898:A *33:27 0.00133547
10 *898:A *174:18 0.001318
11 *898:A *314:20 0.000871318
12 *898:A *369:74 0.000262292
13 *892:A *898:A 0
14 *896:A *898:A 0.000334597
*RES
1 x[25] *898:A 32.0662 
*END

*D_NET *22 0.0205072
*CONN
*P x[26] I
*I *899:A I *D sky130_fd_sc_hd__buf_1
*CAP
1 x[26] 0.00154409
2 *899:A 0.00154409
3 *899:A *734:B 5.58584e-05
4 *899:A *331:202 0.000162691
5 *889:A *899:A 0.000247146
6 *891:A *899:A 4.13642e-05
7 *895:A *899:A 0.016912
*RES
1 x[26] *899:A 34.4597 
*END

*D_NET *23 0.0153209
*CONN
*P x[27] I
*I *900:A I *D sky130_fd_sc_hd__buf_1
*CAP
1 x[27] 0.0034826
2 *900:A 0.0034826
3 *900:A *697:A 0.00124944
4 *900:A *902:A 0.00173382
5 *900:A *35:23 0
6 *900:A *332:20 0.00109172
7 *886:A *900:A 6.18848e-05
8 *887:A *900:A 0.00248504
9 *917:A *900:A 0.00173382
*RES
1 x[27] *900:A 38.9451 
*END

*D_NET *24 0.0247735
*CONN
*P x[28] I
*I *901:A I *D sky130_fd_sc_hd__buf_1
*CAP
1 x[28] 0.000641698
2 *901:A 0.000641698
3 *901:A *599:B 0.000484755
4 *901:A *716:B 0.000493199
5 *901:A *908:A 0.00260945
6 *901:A *28:17 0.00173512
7 *901:A *33:27 0.0020687
8 *901:A *243:20 0.00237406
9 *901:A *329:18 0.000174903
10 *901:A *331:107 0.000198272
11 *901:A *369:96 0.00133723
12 *901:A *369:100 0.000145351
13 *892:A *901:A 4.13642e-05
14 *896:A *901:A 0.00140312
15 *898:A *901:A 0.00981762
16 *5:13 *901:A 0.000272373
17 *16:25 *901:A 0.000334597
*RES
1 x[28] *901:A 31.8878 
*END

*D_NET *25 0.0104371
*CONN
*P x[29] I
*I *902:A I *D sky130_fd_sc_hd__buf_1
*CAP
1 x[29] 0.0023182
2 *902:A 0.0023182
3 *902:A *700:A 0
4 *902:A *709:A1 6.2085e-05
5 *902:A *716:B 0.000439881
6 *902:A *734:A 0.000871318
7 *902:A *841:CLK 0.000318595
8 *902:A *906:A 0
9 *902:A *179:16 0
10 *902:A *302:10 0.00148514
11 *902:A *323:16 0.000606075
12 *891:A *902:A 0
13 *900:A *902:A 0.00173382
14 *917:A *902:A 8.27284e-05
15 *4:13 *902:A 0.000159694
16 *5:13 *902:A 4.13642e-05
*RES
1 x[29] *902:A 23.8296 
*END

*D_NET *26 0.0320121
*CONN
*P x[2] I
*I *903:A I *D sky130_fd_sc_hd__buf_1
*CAP
1 x[2] 0.00710799
2 *903:A 0.00710799
3 *903:A *663:A 0
4 *903:A *909:A 0.000660082
5 *903:A *313:12 0
6 *889:A *903:A 0.000480177
7 *919:A *903:A 0.00269579
8 *13:17 *903:A 0.0137274
9 *20:19 *903:A 0.000232741
*RES
1 x[2] *903:A 43.688 
*END

*D_NET *27 0.050125
*CONN
*P x[30] I
*I *904:A I *D sky130_fd_sc_hd__buf_1
*CAP
1 x[30] 0.00631903
2 *904:A 0.000213762
3 *27:13 0.00653279
4 *904:A *36:19 0
5 *27:13 *28:17 0.0108175
6 *27:13 *33:27 0.000985194
7 *27:13 *35:23 0.000422049
8 *27:13 *36:19 0.0213202
9 *888:A *27:13 8.27284e-05
10 *892:A *27:13 0.000596952
11 *896:A *27:13 0.00283475
*RES
1 x[30] *27:13 47.9406 
2 *27:13 *904:A 19.6939 
*END

*D_NET *28 0.0413456
*CONN
*P x[31] I
*I *905:A I *D sky130_fd_sc_hd__buf_1
*CAP
1 x[31] 0.00154972
2 *905:A 0
3 *28:17 0.00154972
4 *28:17 *681:A 0.000493199
5 *28:17 *906:A 0.0005095
6 *28:17 *35:23 0.000985194
7 *28:17 *36:19 0.00548474
8 *28:17 *312:18 0.000216494
9 *28:17 *332:20 0.000162691
10 *886:A *28:17 0.0005095
11 *896:A *28:17 0.000994118
12 *901:A *28:17 0.00173512
13 *4:13 *28:17 0.0152398
14 *5:13 *28:17 0.000695692
15 *16:25 *28:17 0.000402551
16 *27:13 *28:17 0.0108175
*RES
1 x[31] *28:17 44.6544 
2 *28:17 *905:A 9.3 
*END

*D_NET *29 0.0074951
*CONN
*P x[3] I
*I *906:A I *D sky130_fd_sc_hd__buf_1
*CAP
1 x[3] 0.00243879
2 *906:A 0.00243879
3 *906:A *697:A 0
4 *906:A *261:10 0
5 *906:A *323:16 0.000287421
6 *906:A *332:20 0
7 *886:A *906:A 0.000661827
8 *887:A *906:A 0.000192018
9 *888:A *906:A 0
10 *892:A *906:A 0.000719617
11 *902:A *906:A 0
12 *5:13 *906:A 0.000247146
13 *16:25 *906:A 0
14 *28:17 *906:A 0.0005095
*RES
1 x[3] *906:A 30.0668 
*END

*D_NET *30 0.0127444
*CONN
*P x[4] I
*I *907:A I *D sky130_fd_sc_hd__buf_1
*CAP
1 x[4] 0.00207756
2 *907:A 0.00207756
3 *907:A *909:A 0.00025759
4 *907:A *911:A 0.000422049
5 *907:A *265:10 0.00200567
6 *907:A *341:12 0.00162756
7 *889:A *907:A 0.00133644
8 *891:A *907:A 0
9 *919:A *907:A 0.00162149
10 *13:17 *907:A 0.00131849
*RES
1 x[4] *907:A 38.744 
*END

*D_NET *31 0.014928
*CONN
*P x[5] I
*I *908:A I *D sky130_fd_sc_hd__buf_1
*CAP
1 x[5] 0.00123645
2 *908:A 0.00123645
3 *908:A *600:A 0
4 *908:A *716:B 0.00017943
5 *908:A *33:27 0.000684403
6 *908:A *36:19 0.000422049
7 *908:A *164:14 0.000232026
8 *908:A *243:20 0.000699612
9 *908:A *314:20 0.00162756
10 *908:A *325:16 0
11 *908:A *329:18 0.00237406
12 *908:A *369:112 0.000484265
13 *898:A *908:A 0
14 *901:A *908:A 0.00260945
15 *1:18 *908:A 0.0031422
*RES
1 x[5] *908:A 24.1098 
*END

*D_NET *32 0.024297
*CONN
*P x[6] I
*I *909:A I *D sky130_fd_sc_hd__buf_1
*CAP
1 x[6] 0.0029444
2 *909:A 0.0029444
3 *909:A *661:C 0.000201848
4 *909:A *793:B 0
5 *909:A *305:36 0.00212434
6 *909:A *310:32 0.000400909
7 p *909:A 0
8 *894:A *909:A 0.0138776
9 *903:A *909:A 0.000660082
10 *907:A *909:A 0.00025759
11 *918:A *909:A 0.000159694
12 *919:A *909:A 0
13 *13:17 *909:A 0.000726159
*RES
1 x[6] *909:A 36.7411 
*END

*D_NET *33 0.0177037
*CONN
*P x[7] I
*I *910:A I *D sky130_fd_sc_hd__buf_1
*CAP
1 x[7] 0.00362029
2 *910:A 0
3 *33:27 0.00362029
4 *33:27 *680:B1 0.00021522
5 *33:27 *706:B2 3.90852e-05
6 *33:27 *815:D 6.86205e-05
7 *33:27 *174:18 0.000645144
8 *33:27 *246:20 0.000591093
9 *33:27 *289:12 3.40466e-05
10 *33:27 *293:154 6.2085e-05
11 *33:27 *329:18 0.000120496
12 *33:27 *364:8 0.000871318
13 *33:27 *369:96 0.00148258
14 *33:27 *369:100 0.00125971
15 *892:A *33:27 0
16 *898:A *33:27 0.00133547
17 *901:A *33:27 0.0020687
18 *908:A *33:27 0.000684403
19 *27:13 *33:27 0.000985194
*RES
1 x[7] *33:27 41.6298 
2 *33:27 *910:A 9.3 
*END

*D_NET *34 0.0245067
*CONN
*P x[8] I
*I *911:A I *D sky130_fd_sc_hd__buf_1
*CAP
1 x[8] 0.00566203
2 *911:A 0.00566203
3 *911:A *787:A1 0.000292844
4 *911:A *787:A2 7.7342e-05
5 *911:A *787:B1 0.000871318
6 *911:A *788:C 0.000739798
7 *911:A *789:B 1.43476e-05
8 *911:A *322:403 0.00030685
9 *911:A *322:409 0.000871318
10 p *911:A 0.000620463
11 *891:A *911:A 0
12 *907:A *911:A 0.000422049
13 *914:A *911:A 0.00845183
14 *918:A *911:A 0.000514493
*RES
1 x[8] *911:A 32.082 
*END

*D_NET *35 0.0291855
*CONN
*P x[9] I
*I *912:A I *D sky130_fd_sc_hd__buf_1
*CAP
1 x[9] 0.00385899
2 *912:A 0
3 *35:23 0.00385899
4 *35:23 *680:A2 3.79613e-05
5 *35:23 *680:B2 0.000111717
6 *35:23 *682:B 0.000154684
7 *35:23 *707:A 6.48629e-05
8 *35:23 *707:B 4.06515e-05
9 *35:23 *716:B 0
10 *35:23 *847:D 0.000871318
11 *35:23 *326:10 0.000901869
12 *35:23 *329:18 2.69018e-05
13 *888:A *35:23 0.000422049
14 *892:A *35:23 6.18741e-05
15 *900:A *35:23 0
16 *5:13 *35:23 0.000402551
17 *16:25 *35:23 0.0169638
18 *27:13 *35:23 0.000422049
19 *28:17 *35:23 0.000985194
*RES
1 x[9] *35:23 41.5047 
2 *35:23 *912:A 9.3 
*END

*D_NET *36 0.0374598
*CONN
*P y I
*I *913:A I *D sky130_fd_sc_hd__buf_1
*CAP
1 y 0.00185718
2 *913:A 0
3 *36:19 0.00185718
4 *36:19 *678:B 0
5 *36:19 *681:B 0
6 *896:A *36:19 0.00609641
7 *904:A *36:19 0
8 *908:A *36:19 0.000422049
9 *1:18 *36:19 0.000422049
10 *27:13 *36:19 0.0213202
11 *28:17 *36:19 0.00548474
*RES
1 y *36:19 49.0956 
2 *36:19 *913:A 9.3 
*END

*D_NET *369 0.161275
*CONN
*I *617:A1 I *D sky130_fd_sc_hd__a21oi_1
*I *598:A I *D sky130_fd_sc_hd__and3_1
*I *706:A1 I *D sky130_fd_sc_hd__a22oi_1
*I *716:A I *D sky130_fd_sc_hd__nand2_1
*I *683:A1 I *D sky130_fd_sc_hd__a22oi_1
*I *601:A1 I *D sky130_fd_sc_hd__a21oi_1
*I *602:A I *D sky130_fd_sc_hd__and3_1
*I *807:A1 I *D sky130_fd_sc_hd__a21oi_1
*I *804:A I *D sky130_fd_sc_hd__and3_1
*I *668:A1 I *D sky130_fd_sc_hd__a22oi_1
*I *710:A I *D sky130_fd_sc_hd__nand2_1
*I *671:A1 I *D sky130_fd_sc_hd__a22oi_1
*I *692:A I *D sky130_fd_sc_hd__and3_1
*I *693:A1 I *D sky130_fd_sc_hd__a21oi_1
*I *722:A I *D sky130_fd_sc_hd__nand2_1
*I *751:A1 I *D sky130_fd_sc_hd__a21oi_1
*I *740:A I *D sky130_fd_sc_hd__nand2_1
*I *920:A I *D sky130_fd_sc_hd__buf_4
*I *653:A1 I *D sky130_fd_sc_hd__a22oi_1
*I *784:A I *D sky130_fd_sc_hd__and3_1
*I *783:A1 I *D sky130_fd_sc_hd__a21oi_1
*I *734:A I *D sky130_fd_sc_hd__nand2_1
*I *618:A I *D sky130_fd_sc_hd__and3_1
*I *779:A1 I *D sky130_fd_sc_hd__a21oi_1
*I *650:A1 I *D sky130_fd_sc_hd__a22oi_1
*I *780:A I *D sky130_fd_sc_hd__and3_1
*I *763:A1 I *D sky130_fd_sc_hd__a21oi_1
*I *764:A I *D sky130_fd_sc_hd__and3_1
*I *638:A1 I *D sky130_fd_sc_hd__a22oi_1
*I *629:A1 I *D sky130_fd_sc_hd__a22oi_1
*I *752:A I *D sky130_fd_sc_hd__and3_1
*I *803:A1 I *D sky130_fd_sc_hd__a21oi_1
*I *674:A1 I *D sky130_fd_sc_hd__a22oi_1
*I *586:A I *D sky130_fd_sc_hd__and3_1
*I *593:A1 I *D sky130_fd_sc_hd__a21oi_1
*I *680:A1 I *D sky130_fd_sc_hd__a22oi_1
*I *597:A1 I *D sky130_fd_sc_hd__a21oi_1
*I *728:A I *D sky130_fd_sc_hd__nand2_1
*I *594:A I *D sky130_fd_sc_hd__and3_1
*I *677:A1 I *D sky130_fd_sc_hd__a22oi_1
*I *589:A1 I *D sky130_fd_sc_hd__a21oi_1
*I *590:A I *D sky130_fd_sc_hd__and3_1
*I *840:Q O *D sky130_fd_sc_hd__dfxtp_4
*CAP
1 *617:A1 0.000280159
2 *598:A 1.8245e-05
3 *706:A1 0.000109948
4 *716:A 0
5 *683:A1 0
6 *601:A1 0.000428401
7 *602:A 4.52494e-05
8 *807:A1 0.000763192
9 *804:A 0
10 *668:A1 0.000159766
11 *710:A 0
12 *671:A1 0.00043055
13 *692:A 0.000309421
14 *693:A1 0
15 *722:A 3.75001e-05
16 *751:A1 0
17 *740:A 6.75247e-05
18 *920:A 0.000569661
19 *653:A1 0
20 *784:A 0
21 *783:A1 0
22 *734:A 0.000221018
23 *618:A 2.59206e-05
24 *779:A1 2.53845e-05
25 *650:A1 0
26 *780:A 4.0852e-05
27 *763:A1 0.000347959
28 *764:A 0
29 *638:A1 0.000166619
30 *629:A1 0.000305228
31 *752:A 0
32 *803:A1 0
33 *674:A1 5.02871e-05
34 *586:A 0.00108188
35 *593:A1 0
36 *680:A1 0.000375845
37 *597:A1 1.59488e-05
38 *728:A 0.000444994
39 *594:A 0
40 *677:A1 0
41 *589:A1 0
42 *590:A 0.00108168
43 *840:Q 0.000634834
44 *369:390 0.000644592
45 *369:388 0.000802535
46 *369:386 0.000290728
47 *369:316 0.00119404
48 *369:303 0.00226703
49 *369:299 0.00178756
50 *369:295 0.000976638
51 *369:282 0.000798656
52 *369:273 0.000594145
53 *369:258 0.0042612
54 *369:243 0.00561659
55 *369:234 0.00132632
56 *369:232 0.000619011
57 *369:219 0.000436424
58 *369:204 0.000574238
59 *369:202 0.000491402
60 *369:193 0.000986679
61 *369:187 0.000887987
62 *369:185 0.000452983
63 *369:181 0.000882608
64 *369:173 0.000669307
65 *369:171 0.000150638
66 *369:162 0.000984523
67 *369:158 0.000170887
68 *369:154 0.000820474
69 *369:128 0.00254847
70 *369:122 0.00193386
71 *369:112 0.000382116
72 *369:106 0.000344543
73 *369:100 0.000338477
74 *369:96 0.00019726
75 *369:92 0.000416495
76 *369:74 0.0010004
77 *369:61 0.000640509
78 *369:59 0.000262535
79 *369:43 0.000461455
80 *369:36 0.000468718
81 *369:14 0.00114202
82 *369:10 0.000636297
83 *369:8 0.000958388
84 *586:B *586:A 0.000901869
85 *586:C *586:A 0.000937077
86 *587:A *369:128 0
87 *587:A *369:154 0
88 *587:C *586:A 0.000287421
89 *589:A2 *590:A 0.000451308
90 *589:B1 *590:A 0.000493199
91 *590:C *590:A 0.000180839
92 *591:C *369:14 0.000734729
93 *593:B1 *369:10 0
94 *593:B1 *369:59 0
95 *594:B *728:A 5.38032e-05
96 *594:B *369:43 0.000850768
97 *594:C *728:A 0.000937077
98 *594:C *369:36 0.000871318
99 *594:C *369:43 0.00124944
100 *595:B *369:74 6.23969e-05
101 *597:A2 *617:A1 0.000916084
102 *597:A2 *369:59 0.00023478
103 *597:A2 *369:92 0.000582784
104 *599:B *598:A 0.000318105
105 *599:C *706:A1 0.000105514
106 *600:A *369:122 6.86205e-05
107 *600:B *369:154 0.00173414
108 *602:B *601:A1 0.000162691
109 *603:C *602:A 0.000871318
110 *617:B1 *617:A1 2.80384e-05
111 *629:A2 *629:A1 0.000260306
112 *629:A2 *740:A 0.000493199
113 *629:A2 *369:193 8.60128e-05
114 *629:A2 *369:202 0.000619798
115 *638:A2 *638:A1 0.000166443
116 *639:A *638:A1 6.48629e-05
117 *650:A2 *779:A1 5.6354e-05
118 *650:A2 *369:282 0.00106804
119 *650:B1 *369:273 0.00073522
120 *650:B2 *763:A1 0.000493199
121 *653:A2 *369:299 0.000433743
122 *654:A *369:295 0.00024946
123 *654:B *369:295 0.000154684
124 *654:B *369:299 0
125 *655:B *369:295 0.00162756
126 *668:B1 *668:A1 0.000493199
127 *669:B *369:181 0
128 *671:B1 *671:A1 0.000162691
129 *671:B2 *369:386 0.000361084
130 *674:A2 *369:128 6.07532e-05
131 *674:B2 *586:A 0.000833249
132 *676:B *586:A 0
133 *676:B *369:128 0
134 *676:C *586:A 0
135 *679:B *369:36 0.000184576
136 *679:B *369:43 3.8858e-05
137 *680:B1 *680:A1 0.000151945
138 *680:B2 *680:A1 0.000197324
139 *683:A2 *369:112 0.00013563
140 *692:B *692:A 0.000726473
141 *692:B *369:388 1.67388e-05
142 *692:B *369:390 7.7342e-05
143 *692:C *692:A 0.00111792
144 *695:B_N *369:10 0.000901379
145 *695:B_N *369:14 0.00190079
146 *706:A2 *706:A1 0.000723358
147 *710:B *369:386 6.86205e-05
148 *710:B *369:390 0.000493199
149 *716:B *597:A1 0.000871318
150 *716:B *617:A1 0.000107263
151 *716:B *680:A1 0
152 *716:B *734:A 7.7342e-05
153 *716:B *369:74 0.00124944
154 *716:B *369:92 0.000125098
155 *722:B *722:A 5.468e-05
156 *722:B *369:112 0.000443831
157 *722:B *369:185 0.000389327
158 *722:B *369:187 0.000287421
159 *728:B *728:A 0.00162756
160 *734:B *734:A 0.000682791
161 *751:B1 *369:193 0.000572784
162 *753:A *369:181 6.7893e-05
163 *753:B *369:181 0.00106754
164 *753:B *369:187 0.000111717
165 *753:B *369:193 0.000128717
166 *753:C *369:181 0.000162691
167 *755:A1 *920:A 4.30064e-05
168 *762:A *369:219 0
169 *762:A *369:232 0.000301045
170 *763:B1 *920:A 0.000833249
171 *763:B1 *369:232 0.00040192
172 *764:C *369:243 0.000456802
173 *765:C *369:243 0.000102002
174 *779:A2 *779:A1 6.48629e-05
175 *779:B1 *369:273 0.00056857
176 *779:B1 *369:282 0.00011367
177 *781:B *369:273 4.30064e-05
178 *782:A *369:299 0.000871318
179 *783:B1 *369:303 0.00144672
180 *783:B1 *369:316 0.000742658
181 *803:B1 *369:171 0.000378119
182 *804:B *369:162 7.7342e-05
183 *804:B *369:171 0.000661611
184 *804:C *369:171 0.000739798
185 *805:B *807:A1 0.000544746
186 *807:B1 *807:A1 0.000162691
187 *809:CLK *617:A1 6.86205e-05
188 *809:D *734:A 9.61317e-05
189 *812:D *920:A 0.00314003
190 *814:D *369:106 0.000899909
191 *814:D *369:112 0.00173316
192 *815:CLK *617:A1 0.000652894
193 *818:CLK *369:181 0.00023478
194 *818:CLK *369:386 0.000929874
195 *818:D *369:386 0.000189734
196 *825:CLK *920:A 0
197 *840:CLK *369:112 0.00023478
198 *840:CLK *369:122 0
199 *840:D *369:8 0.000412151
200 *846:D *369:128 0
201 *846:D *369:154 0
202 *848:CLK *590:A 0.00037419
203 *857:CLK *780:A 6.48629e-05
204 *857:CLK *369:258 0.00666783
205 *857:CLK *369:273 0.00012473
206 *860:CLK *920:A 0.00106852
207 *876:A *369:128 0.000162691
208 *887:A *734:A 0
209 *892:A *617:A1 0.00106852
210 *898:A *597:A1 0.000128717
211 *898:A *369:74 0.000262292
212 *901:A *369:96 0.00133723
213 *901:A *369:100 0.000145351
214 *902:A *734:A 0.000871318
215 *908:A *369:112 0.000484265
216 *1:18 *668:A1 0.000704231
217 *1:18 *807:A1 0
218 *1:18 *369:122 0.000669194
219 *16:25 *706:A1 0.000871318
220 *16:25 *369:106 6.86205e-05
221 *33:27 *369:96 0.00148258
222 *33:27 *369:100 0.00125971
223 *75:14 *763:A1 0.00056857
224 *75:14 *369:202 0
225 *75:14 *369:204 0
226 *75:14 *369:219 0
227 *159:12 *369:386 0.000151945
228 *164:14 *369:158 0.00351815
229 *164:14 *369:162 0.00162756
230 *164:14 *369:171 0.000466381
231 *164:14 *369:173 0.000493199
232 *164:14 *369:181 0.00238379
233 *174:18 *602:A 0.000287421
234 *174:18 *706:A1 0.000173537
235 *184:24 *920:A 0.00200274
236 *184:24 *369:219 0.00106852
237 *184:24 *369:232 0.000612839
238 *216:12 *369:299 0.000493199
239 *216:12 *369:303 0.000418841
240 *243:20 *369:74 0.000493199
241 *246:20 *601:A1 0.000151455
242 *246:20 *369:106 0
243 *246:20 *369:112 0
244 *267:16 *369:295 0.00102884
245 *267:16 *369:299 6.48629e-05
246 *273:8 *369:202 0
247 *273:8 *369:204 0
248 *273:8 *369:219 0
249 *276:12 *369:193 0
250 *276:18 *369:193 0
251 *276:18 *369:202 0
252 *288:10 *369:122 0.000318595
253 *293:154 *601:A1 0
254 *293:154 *369:154 0
255 *296:24 *807:A1 0.000111717
256 *297:48 *780:A 0
257 *298:40 *920:A 0
258 *298:66 *920:A 0
259 *302:10 *734:A 0.000111311
260 *303:12 *734:A 0.0019791
261 *303:25 *369:316 0.000154684
262 *304:14 *369:295 9.47164e-05
263 *304:14 *369:299 0.00124944
264 *304:16 *369:282 8.49081e-05
265 *304:16 *369:295 5.58584e-05
266 *312:18 *369:122 0.000669194
267 *312:18 *369:193 0
268 *312:22 *369:181 0
269 *314:20 *602:A 0.000901869
270 *314:20 *668:A1 0.00012473
271 *314:20 *740:A 0.000493199
272 *314:20 *369:158 0.000696078
273 *314:20 *369:162 0.000100881
274 *322:10 *920:A 0.00314003
275 *326:10 *680:A1 6.80933e-05
276 *326:27 *680:A1 0.000436598
277 *327:34 *680:A1 0.00056857
278 *327:40 *369:43 0.00013563
279 *328:16 *617:A1 0
280 *328:16 *734:A 0.000708971
281 *328:16 *369:10 0.00024033
282 *328:16 *369:14 0.000301045
283 *328:16 *369:59 0.00017582
284 *329:18 *617:A1 0.00020428
285 *329:18 *369:59 0.00010214
286 *329:18 *369:100 0.000281508
287 *331:69 *618:A 0.000300411
288 *331:107 *598:A 0.000130178
289 *331:538 *668:A1 0.000176241
290 *331:559 *668:A1 0.00073522
291 *331:559 *369:181 0
292 *331:559 *369:386 0
293 *331:585 *369:193 0
294 *331:743 *602:A 0.000368505
295 *331:743 *369:154 0
296 *331:766 *369:128 0.00108268
297 *331:766 *369:154 3.40466e-05
298 *333:32 *586:A 0.000178223
299 *333:34 *807:A1 0.00206842
300 *333:47 *807:A1 0.0003333
301 *338:10 *668:A1 6.86205e-05
302 *338:14 *668:A1 0.00140182
303 *342:10 *734:A 0.000100881
304 *347:12 *920:A 0
305 *348:18 *618:A 0.00073522
306 *348:26 *618:A 6.86205e-05
307 *363:12 *369:10 0.00056857
308 *363:12 *369:112 0.00314003
309 *366:14 *586:A 6.86205e-05
310 *367:8 *807:A1 0.00056857
*RES
1 *840:Q *369:8 14.9515 
2 *369:8 *369:10 2.42424 
3 *369:10 *369:14 7.43939 
4 *369:14 *590:A 12.6788 
5 *369:14 *589:A1 9.3 
6 *369:10 *369:36 7.04546 
7 *369:36 *677:A1 9.3 
8 *369:36 *369:43 1.15152 
9 *369:43 *594:A 9.3 
10 *369:43 *728:A 12.2091 
11 *369:8 *369:59 1.90909 
12 *369:59 *369:61 4.5 
13 *369:61 *597:A1 10.103 
14 *369:61 *369:74 3.01515 
15 *369:74 *680:A1 22.2697 
16 *369:74 *593:A1 9.3 
17 *369:59 *369:92 1.00758 
18 *369:92 *369:96 3.80151 
19 *369:96 *369:100 3.74266 
20 *369:100 *369:106 1.39394 
21 *369:106 *369:112 10.0758 
22 *369:112 *369:122 12.2628 
23 *369:122 *369:128 10.447 
24 *369:128 *586:A 22.7091 
25 *369:128 *674:A1 9.66364 
26 *369:122 *369:154 3.32576 
27 *369:154 *369:158 7.74243 
28 *369:158 *369:162 1.86364 
29 *369:162 *803:A1 9.3 
30 *369:162 *369:171 2.90909 
31 *369:171 *369:173 0.454546 
32 *369:173 *369:181 10.0909 
33 *369:181 *369:185 5.30303 
34 *369:185 *369:187 1.5 
35 *369:187 *369:193 8.93939 
36 *369:193 *752:A 13.8 
37 *369:193 *369:202 3.9697 
38 *369:202 *369:204 0.363636 
39 *369:204 *629:A1 15.4061 
40 *369:204 *369:219 2.36364 
41 *369:219 *638:A1 14.9667 
42 *369:219 *369:232 2.42424 
43 *369:232 *369:234 4.5 
44 *369:234 *764:A 9.3 
45 *369:234 *369:243 2.56061 
46 *369:243 *763:A1 19.6333 
47 *369:243 *369:258 7.07576 
48 *369:258 *780:A 9.66364 
49 *369:258 *369:273 10.5909 
50 *369:273 *650:A1 9.3 
51 *369:273 *369:282 2.4697 
52 *369:282 *779:A1 9.66364 
53 *369:282 *369:295 4.22727 
54 *369:295 *369:299 3.95455 
55 *369:299 *369:303 2.56061 
56 *369:303 *618:A 19.4364 
57 *369:303 *369:316 1.84849 
58 *369:316 *734:A 24.2394 
59 *369:316 *783:A1 9.3 
60 *369:299 *784:A 9.3 
61 *369:295 *653:A1 9.3 
62 *369:232 *920:A 24.7849 
63 *369:202 *740:A 14.7091 
64 *369:187 *751:A1 9.3 
65 *369:185 *722:A 9.66364 
66 *369:181 *369:386 8.92424 
67 *369:386 *369:388 0.363636 
68 *369:388 *369:390 1.5 
69 *369:390 *693:A1 9.3 
70 *369:390 *692:A 12.5727 
71 *369:388 *671:A1 11.1485 
72 *369:386 *710:A 9.3 
73 *369:173 *668:A1 23.0727 
74 *369:171 *804:A 9.3 
75 *369:162 *807:A1 23.1636 
76 *369:158 *602:A 20.497 
77 *369:154 *601:A1 15.3909 
78 *369:112 *683:A1 9.3 
79 *369:106 *716:A 13.8 
80 *369:100 *706:A1 15.3152 
81 *369:96 *598:A 17.7024 
82 *369:92 *617:A1 18.6712 
*END
