*SPEF "ieee 1481-1999"
*DESIGN "spm"
*DATE "08:57:46 Monday July 13, 2026"
*VENDOR "The OpenROAD Project"
*PROGRAM "OpenROAD"
*VERSION "26Q3-111-g3efb695851"
// FIELD-SOLVED COUPLING — WHOLE-DESIGN (FasterCap BEM, fitted PDK stack)
// eps_r=4.0 (fitted from PDK area+fringe; NOT foundry rules.C/.nxtgrd)
// engine: FasterCap 3D BEM tiled per net-neighbourhood cluster; lateral + inter-layer crossover
// coverage: 973 net-pairs field-solved (100.0% of analytical pairs)
// merge: each pair from its strongest-victim neighbourhood cluster (bounded screening => upper envelope vs fully-screened whole-chip)
// NOTE: NOT foundry field-solver; NOT crosstalk-SI-signoff-grade; NOT silicon-proven
*DESIGN_FLOW "NAME_SCOPE LOCAL" "PIN_CAP NONE"
*DIVIDER /
*DELIMITER :
*BUS_DELIMITER []
*T_UNIT 1 NS
*C_UNIT 1 PF
*R_UNIT 1 OHM
*L_UNIT 1 HENRY

*NAME_MAP
*39 _000_
*40 _001_
*41 _002_
*42 _003_
*43 _004_
*44 _005_
*45 _006_
*46 _007_
*47 _008_
*48 _009_
*49 _010_
*50 _011_
*51 _012_
*52 _013_
*53 _014_
*54 _015_
*55 _016_
*56 _017_
*57 _018_
*58 _019_
*59 _020_
*60 _021_
*61 _022_
*62 _023_
*63 _024_
*64 _025_
*65 _026_
*66 _027_
*67 _028_
*68 _029_
*69 _030_
*70 _031_
*71 _032_
*72 _033_
*73 _034_
*74 _035_
*75 _036_
*76 _037_
*77 _038_
*78 _039_
*79 _040_
*80 _041_
*81 _042_
*82 _043_
*83 _044_
*84 _045_
*85 _046_
*86 _047_
*87 _048_
*88 _049_
*89 _050_
*90 _051_
*91 _052_
*92 _053_
*93 _054_
*94 _055_
*95 _056_
*96 _057_
*97 _058_
*98 _059_
*99 _060_
*100 _061_
*101 _062_
*102 _063_
*103 _064_
*104 _065_
*105 _066_
*106 _067_
*107 _068_
*108 _069_
*109 _070_
*110 _071_
*111 _072_
*112 _073_
*113 _074_
*114 _075_
*115 _076_
*116 _077_
*117 _078_
*118 _079_
*119 _080_
*120 _081_
*121 _082_
*122 _083_
*123 _084_
*124 _085_
*125 _086_
*126 _087_
*127 _088_
*128 _089_
*129 _090_
*130 _091_
*131 _092_
*132 _093_
*133 _094_
*134 _095_
*135 _096_
*136 _097_
*137 _098_
*138 _099_
*139 _100_
*140 _101_
*141 _102_
*142 _103_
*143 _104_
*144 _105_
*145 _106_
*146 _107_
*147 _108_
*148 _109_
*149 _110_
*150 _111_
*151 _112_
*152 _113_
*153 _114_
*154 _115_
*155 _116_
*156 _117_
*157 _118_
*158 _119_
*159 _120_
*160 _121_
*161 _122_
*162 _123_
*163 _124_
*164 _125_
*165 _126_
*166 _127_
*167 _128_
*168 _129_
*169 _130_
*170 _131_
*171 _132_
*172 _133_
*173 _134_
*174 _135_
*175 _136_
*176 _137_
*177 _138_
*178 _139_
*179 _140_
*180 _141_
*181 _142_
*182 _143_
*183 _144_
*184 _145_
*185 _146_
*186 _147_
*187 _148_
*188 _149_
*189 _150_
*190 _151_
*191 _152_
*192 _153_
*193 _154_
*194 _155_
*195 _156_
*196 _157_
*197 _158_
*198 _159_
*199 _160_
*200 _161_
*201 _162_
*202 _163_
*203 _164_
*204 _165_
*205 _166_
*206 _167_
*207 _168_
*208 _169_
*209 _170_
*210 _171_
*211 _172_
*212 _173_
*213 _174_
*214 _175_
*215 _176_
*216 _177_
*217 _178_
*218 _179_
*219 _180_
*220 _181_
*221 _182_
*222 _183_
*223 _184_
*224 _185_
*225 _186_
*226 _187_
*227 _188_
*228 _189_
*229 _190_
*230 _191_
*231 _192_
*232 _193_
*233 _194_
*234 _195_
*235 c[0]
*236 c[10]
*237 c[11]
*238 c[12]
*239 c[13]
*240 c[14]
*241 c[15]
*242 c[16]
*243 c[17]
*244 c[18]
*245 c[19]
*246 c[1]
*247 c[20]
*248 c[21]
*249 c[22]
*250 c[23]
*251 c[24]
*252 c[25]
*253 c[26]
*254 c[27]
*255 c[28]
*256 c[29]
*257 c[2]
*258 c[30]
*259 c[31]
*260 c[3]
*261 c[4]
*262 c[5]
*263 c[6]
*264 c[7]
*265 c[8]
*266 c[9]
*1 clk
*267 clknet_0_clk
*268 clknet_3_0__leaf_clk
*269 clknet_3_1__leaf_clk
*270 clknet_3_2__leaf_clk
*271 clknet_3_3__leaf_clk
*272 clknet_3_4__leaf_clk
*273 clknet_3_5__leaf_clk
*274 clknet_3_6__leaf_clk
*275 clknet_3_7__leaf_clk
*2 p_r
*3 rst
*276 s[0]
*277 s[10]
*278 s[11]
*279 s[12]
*280 s[13]
*281 s[14]
*282 s[15]
*283 s[16]
*284 s[17]
*285 s[18]
*286 s[19]
*287 s[1]
*288 s[20]
*289 s[21]
*290 s[22]
*291 s[23]
*292 s[24]
*293 s[25]
*294 s[26]
*295 s[27]
*296 s[28]
*297 s[29]
*298 s[2]
*299 s[30]
*300 s[3]
*301 s[4]
*302 s[5]
*303 s[6]
*304 s[7]
*305 s[8]
*306 s[9]
*307 spare_tielo
*4 x[0]
*5 x[10]
*6 x[11]
*7 x[12]
*8 x[13]
*9 x[14]
*10 x[15]
*11 x[16]
*12 x[17]
*13 x[18]
*14 x[19]
*15 x[1]
*16 x[20]
*17 x[21]
*18 x[22]
*19 x[23]
*20 x[24]
*21 x[25]
*22 x[26]
*23 x[27]
*24 x[28]
*25 x[29]
*26 x[2]
*27 x[30]
*28 x[31]
*29 x[3]
*30 x[4]
*31 x[5]
*32 x[6]
*33 x[7]
*34 x[8]
*35 x[9]
*36 y
*308 FILLER_0_0
*309 FILLER_0_110
*310 FILLER_0_114
*311 FILLER_0_116
*312 FILLER_0_122
*313 FILLER_0_130
*314 FILLER_0_140
*315 FILLER_0_148
*316 FILLER_0_152
*317 FILLER_0_16
*318 FILLER_0_162
*319 FILLER_0_170
*320 FILLER_0_172
*321 FILLER_0_24
*322 FILLER_0_26
*323 FILLER_0_30
*324 FILLER_0_38
*325 FILLER_0_40
*326 FILLER_0_54
*327 FILLER_0_62
*328 FILLER_0_69
*329 FILLER_0_77
*330 FILLER_0_83
*331 FILLER_0_87
*332 FILLER_0_94
*333 FILLER_10_0
*334 FILLER_10_102
*335 FILLER_10_118
*336 FILLER_10_125
*337 FILLER_10_132
*338 FILLER_10_136
*339 FILLER_10_138
*340 FILLER_10_142
*341 FILLER_10_15
*342 FILLER_10_158
*343 FILLER_10_162
*344 FILLER_10_166
*345 FILLER_10_170
*346 FILLER_10_172
*347 FILLER_10_31
*348 FILLER_10_33
*349 FILLER_10_37
*350 FILLER_10_45
*351 FILLER_10_49
*352 FILLER_10_53
*353 FILLER_10_69
*354 FILLER_10_77
*355 FILLER_10_8
*356 FILLER_10_85
*357 FILLER_11_0
*358 FILLER_11_113
*359 FILLER_11_125
*360 FILLER_11_142
*361 FILLER_11_150
*362 FILLER_11_154
*363 FILLER_11_156
*364 FILLER_11_172
*365 FILLER_11_29
*366 FILLER_11_34
*367 FILLER_11_50
*368 FILLER_11_60
*369 FILLER_11_71
*370 FILLER_11_73
*371 FILLER_11_77
*372 FILLER_11_90
*373 FILLER_11_97
*374 FILLER_12_0
*375 FILLER_12_104
*376 FILLER_12_108
*377 FILLER_12_138
*378 FILLER_12_154
*379 FILLER_12_158
*380 FILLER_12_164
*381 FILLER_12_172
*382 FILLER_12_19
*383 FILLER_12_21
*384 FILLER_12_4
*385 FILLER_12_65
*386 FILLER_12_84
*387 FILLER_12_88
*388 FILLER_13_0
*389 FILLER_13_105
*390 FILLER_13_12
*391 FILLER_13_121
*392 FILLER_13_129
*393 FILLER_13_133
*394 FILLER_13_141
*395 FILLER_13_149
*396 FILLER_13_16
*397 FILLER_13_172
*398 FILLER_13_24
*399 FILLER_13_31
*400 FILLER_13_47
*401 FILLER_13_58
*402 FILLER_13_69
*403 FILLER_13_8
*404 FILLER_13_80
*405 FILLER_13_88
*406 FILLER_13_92
*407 FILLER_14_0
*408 FILLER_14_106
*409 FILLER_14_125
*410 FILLER_14_143
*411 FILLER_14_151
*412 FILLER_14_155
*413 FILLER_14_169
*414 FILLER_14_24
*415 FILLER_14_35
*416 FILLER_14_51
*417 FILLER_14_55
*418 FILLER_14_62
*419 FILLER_14_70
*420 FILLER_14_86
*421 FILLER_14_90
*422 FILLER_14_92
*423 FILLER_15_0
*424 FILLER_15_101
*425 FILLER_15_120
*426 FILLER_15_128
*427 FILLER_15_152
*428 FILLER_15_160
*429 FILLER_15_165
*430 FILLER_15_22
*431 FILLER_15_53
*432 FILLER_15_70
*433 FILLER_15_8
*434 FILLER_15_89
*435 FILLER_15_97
*436 FILLER_16_0
*437 FILLER_16_104
*438 FILLER_16_114
*439 FILLER_16_130
*440 FILLER_16_16
*441 FILLER_16_35
*442 FILLER_16_51
*443 FILLER_16_55
*444 FILLER_16_60
*445 FILLER_16_76
*446 FILLER_16_83
*447 FILLER_16_87
*448 FILLER_17_0
*449 FILLER_17_101
*450 FILLER_17_160
*451 FILLER_17_168
*452 FILLER_17_172
*453 FILLER_17_19
*454 FILLER_17_23
*455 FILLER_17_25
*456 FILLER_17_52
*457 FILLER_17_69
*458 FILLER_17_86
*459 FILLER_17_91
*460 FILLER_17_99
*461 FILLER_18_115
*462 FILLER_18_122
*463 FILLER_18_130
*464 FILLER_18_132
*465 FILLER_18_136
*466 FILLER_18_152
*467 FILLER_18_169
*468 FILLER_18_18
*469 FILLER_18_35
*470 FILLER_18_43
*471 FILLER_18_45
*472 FILLER_18_49
*473 FILLER_18_57
*474 FILLER_18_65
*475 FILLER_18_69
*476 FILLER_18_74
*477 FILLER_18_90
*478 FILLER_18_99
*479 FILLER_19_0
*480 FILLER_19_119
*481 FILLER_19_12
*482 FILLER_19_124
*483 FILLER_19_128
*484 FILLER_19_130
*485 FILLER_19_134
*486 FILLER_19_142
*487 FILLER_19_147
*488 FILLER_19_155
*489 FILLER_19_157
*490 FILLER_19_30
*491 FILLER_19_35
*492 FILLER_19_51
*493 FILLER_19_53
*494 FILLER_19_62
*495 FILLER_19_70
*496 FILLER_19_74
*497 FILLER_19_76
*498 FILLER_19_8
*499 FILLER_19_80
*500 FILLER_1_0
*501 FILLER_1_11
*502 FILLER_1_133
*503 FILLER_1_135
*504 FILLER_1_151
*505 FILLER_1_4
*506 FILLER_20_0
*507 FILLER_20_104
*508 FILLER_20_112
*509 FILLER_20_159
*510 FILLER_20_167
*511 FILLER_20_171
*512 FILLER_20_57
*513 FILLER_20_87
*514 FILLER_21_0
*515 FILLER_21_153
*516 FILLER_21_170
*517 FILLER_21_172
*518 FILLER_21_32
*519 FILLER_21_48
*520 FILLER_21_56
*521 FILLER_21_60
*522 FILLER_21_76
*523 FILLER_21_84
*524 FILLER_21_89
*525 FILLER_2_0
*526 FILLER_2_111
*527 FILLER_2_115
*528 FILLER_2_123
*529 FILLER_2_139
*530 FILLER_2_147
*531 FILLER_2_151
*532 FILLER_2_153
*533 FILLER_2_160
*534 FILLER_2_168
*535 FILLER_2_172
*536 FILLER_2_21
*537 FILLER_2_37
*538 FILLER_2_48
*539 FILLER_2_64
*540 FILLER_2_76
*541 FILLER_2_78
*542 FILLER_2_8
*543 FILLER_2_82
*544 FILLER_2_90
*545 FILLER_2_95
*546 FILLER_3_0
*547 FILLER_3_107
*548 FILLER_3_112
*549 FILLER_3_128
*550 FILLER_3_145
*551 FILLER_3_153
*552 FILLER_3_157
*553 FILLER_3_16
*554 FILLER_3_161
*555 FILLER_3_169
*556 FILLER_3_18
*557 FILLER_3_22
*558 FILLER_3_30
*559 FILLER_3_34
*560 FILLER_3_38
*561 FILLER_3_54
*562 FILLER_3_69
*563 FILLER_3_91
*564 FILLER_4_0
*565 FILLER_4_110
*566 FILLER_4_128
*567 FILLER_4_150
*568 FILLER_4_172
*569 FILLER_4_65
*570 FILLER_4_8
*571 FILLER_4_81
*572 FILLER_4_83
*573 FILLER_4_87
*574 FILLER_5_0
*575 FILLER_5_125
*576 FILLER_5_141
*577 FILLER_5_157
*578 FILLER_5_162
*579 FILLER_5_170
*580 FILLER_5_172
*581 FILLER_5_25
*582 FILLER_5_33
*583 FILLER_5_37
*584 FILLER_5_39
*585 FILLER_5_45
*586 FILLER_5_73
*587 FILLER_5_81
*588 FILLER_5_85
*589 FILLER_5_91
*590 FILLER_5_95
*591 FILLER_6_0
*592 FILLER_6_106
*593 FILLER_6_114
*594 FILLER_6_118
*595 FILLER_6_120
*596 FILLER_6_124
*597 FILLER_6_150
*598 FILLER_6_168
*599 FILLER_6_172
*600 FILLER_6_2
*601 FILLER_6_24
*602 FILLER_6_57
*603 FILLER_6_61
*604 FILLER_6_68
*605 FILLER_6_72
*606 FILLER_6_74
*607 FILLER_6_95
*608 FILLER_7_0
*609 FILLER_7_106
*610 FILLER_7_12
*611 FILLER_7_123
*612 FILLER_7_131
*613 FILLER_7_133
*614 FILLER_7_149
*615 FILLER_7_157
*616 FILLER_7_31
*617 FILLER_7_39
*618 FILLER_7_43
*619 FILLER_7_51
*620 FILLER_7_53
*621 FILLER_7_57
*622 FILLER_7_59
*623 FILLER_7_75
*624 FILLER_7_8
*625 FILLER_7_91
*626 FILLER_7_99
*627 FILLER_8_0
*628 FILLER_8_108
*629 FILLER_8_115
*630 FILLER_8_123
*631 FILLER_8_135
*632 FILLER_8_16
*633 FILLER_8_162
*634 FILLER_8_170
*635 FILLER_8_172
*636 FILLER_8_24
*637 FILLER_8_28
*638 FILLER_8_42
*639 FILLER_8_58
*640 FILLER_8_66
*641 FILLER_8_76
*642 FILLER_8_92
*643 FILLER_9_0
*644 FILLER_9_101
*645 FILLER_9_105
*646 FILLER_9_135
*647 FILLER_9_143
*648 FILLER_9_31
*649 FILLER_9_4
*650 FILLER_9_70
*651 FILLER_9_84
*652 FILLER_9_88
*653 FILLER_9_9
*654 _196_
*655 _197_
*656 _198_
*657 _199_
*658 _200_
*659 _201_
*660 _202_
*661 _203_
*662 _204_
*663 _205_
*664 _206_
*665 _207_
*666 _208_
*667 _209_
*668 _210_
*669 _211_
*670 _212_
*671 _213_
*672 _214_
*673 _215_
*674 _216_
*675 _217_
*676 _218_
*677 _219_
*678 _220_
*679 _221_
*680 _222_
*681 _223_
*682 _224_
*683 _225_
*684 _226_
*685 _227_
*686 _228_
*687 _229_
*688 _230_
*689 _231_
*690 _232_
*691 _233_
*692 _234_
*693 _235_
*694 _236_
*695 _237_
*696 _238_
*697 _239_
*698 _240_
*699 _241_
*700 _242_
*701 _243_
*702 _244_
*703 _245_
*704 _246_
*705 _247_
*706 _248_
*707 _249_
*708 _250_
*709 _251_
*710 _252_
*711 _253_
*712 _254_
*713 _255_
*714 _256_
*715 _257_
*716 _258_
*717 _259_
*718 _260_
*719 _261_
*720 _262_
*721 _263_
*722 _264_
*723 _265_
*724 _266_
*725 _267_
*726 _268_
*727 _269_
*728 _270_
*729 _271_
*730 _272_
*731 _273_
*732 _274_
*733 _275_
*734 _276_
*735 _277_
*736 _278_
*737 _279_
*738 _280_
*739 _281_
*740 _282_
*741 _283_
*742 _284_
*743 _285_
*744 _286_
*745 _287_
*746 _288_
*747 _289_
*748 _290_
*749 _291_
*750 _292_
*751 _293_
*752 _294_
*753 _295_
*754 _296_
*755 _297_
*756 _298_
*757 _299_
*758 _300_
*759 _301_
*760 _302_
*761 _303_
*762 _304_
*763 _305_
*764 _306_
*765 _307_
*766 _308_
*767 _309_
*768 _310_
*769 _311_
*770 _312_
*771 _313_
*772 _314_
*773 _315_
*774 _316_
*775 _317_
*776 _318_
*777 _319_
*778 _320_
*779 _321_
*780 _322_
*781 _323_
*782 _324_
*783 _325_
*784 _326_
*785 _327_
*786 _328_
*787 _329_
*788 _330_
*789 _331_
*790 _332_
*791 _333_
*792 _334_
*793 _335_
*794 _336_
*795 _337_
*796 _338_
*797 _339_
*798 _340_
*799 _341_
*800 _342_
*801 _343_
*802 _344_
*803 _345_
*804 _346_
*805 _347_
*806 _348_
*807 _349_
*808 _350_
*809 _351_
*810 _352_
*811 _353_
*812 _354_
*813 _355_
*814 _356_
*815 _357_
*816 _358_
*817 _359_
*818 _360_
*819 _361_
*820 _362_
*821 _363_
*822 _364_
*823 _365_
*824 _366_
*825 _367_
*826 _368_
*827 _369_
*828 _370_
*829 _371_
*830 _372_
*831 _373_
*832 _374_
*833 _375_
*834 _376_
*835 _377_
*836 _378_
*837 _379_
*838 _380_
*839 _381_
*840 _382_
*841 _383_
*842 _384_
*843 _385_
*844 _386_
*845 _387_
*846 _388_
*847 _389_
*848 _390_
*849 _391_
*850 _392_
*851 _393_
*852 _394_
*853 _395_
*854 _396_
*855 _397_
*856 _398_
*857 _399_
*858 _400_
*859 _401_
*860 _402_
*861 _403_
*862 _404_
*863 _405_
*864 _406_
*865 _407_
*866 _408_
*867 _409_
*868 _410_
*869 _411_
*870 _412_
*871 _413_
*872 _414_
*873 _415_
*874 _416_
*875 _417_
*876 _418_
*877 _419_
*878 _420_
*879 _421_
*880 _422_
*881 _423_
*882 _424_
*883 _425_
*884 _426_
*885 _427_
*886 _428_
*887 _429_
*888 _430_
*889 _431_
*890 _432_
*891 _433_
*892 _434_
*893 _435_
*894 _436_
*895 _437_
*896 _438_
*897 _439_
*898 _440_
*899 _441_
*900 _442_
*901 _443_
*902 _444_
*903 _445_
*904 _446_
*905 _447_
*906 _448_
*907 _449_
*908 _450_
*909 _451_
*910 _452_
*911 _453_
*912 _454_
*913 _455_
*914 clkbuf_0_clk
*915 clkbuf_3_0__f_clk
*916 clkbuf_3_1__f_clk
*917 clkbuf_3_2__f_clk
*918 clkbuf_3_3__f_clk
*919 clkbuf_3_4__f_clk
*920 clkbuf_3_5__f_clk
*921 clkbuf_3_6__f_clk
*922 clkbuf_3_7__f_clk
*923 clkload0
*924 clkload1
*925 clkload2
*926 clkload3
*927 clkload4
*928 clkload5
*929 spare_aoi_0
*930 spare_dff_0
*931 spare_inverter_0
*932 spare_mux2_0
*933 spare_nand2_0
*934 spare_nor2_0
*935 spare_tielo_drv

*PORTS
clk I
p O
rst I
x[0] I
x[10] I
x[11] I
x[12] I
x[13] I
x[14] I
x[15] I
x[16] I
x[17] I
x[18] I
x[19] I
x[1] I
x[20] I
x[21] I
x[22] I
x[23] I
x[24] I
x[25] I
x[26] I
x[27] I
x[28] I
x[29] I
x[2] I
x[30] I
x[31] I
x[3] I
x[4] I
x[5] I
x[6] I
x[7] I
x[8] I
x[9] I
y I

*D_NET *39 0.000809107
*CONN
*I *875:D I *D DFFHQD1
*I *659:Y O *D NOR2D1
*CAP
1 *875:D 0.000113349
2 *659:Y 0.000113349
3 *875:D rst 0.000582408
*RES
1 *659:Y *875:D 25.321 
*END

*D_NET *40 0.000841123
*CONN
*I *874:D I *D DFFHQD1
*I *664:Y O *D NOR2D1
*CAP
1 *874:D 9.90119e-05
2 *664:Y 9.90119e-05
3 *874:D *663:A 5.94121e-05
4 *874:D rst 0.000405283
5 *874:D *664:B 9.71799e-05
6 *874:D *801:B0 1.07647e-05
7 *874:D *663:B 4.87768e-05
8 *874:D *807:B0 9.31062e-06
9 *874:D *717:A 1.72487e-06
10 *874:D *772:B 1.64669e-06
11 *874:D *895:D 2.17106e-06
12 *874:D *791:B0 2.38531e-06
13 *874:D *900:D 4.44322e-06
*RES
1 *664:Y *874:D 13.9344 
*END

*D_NET *41 0.000135308
*CONN
*I *873:D I *D DFFHQD1
*I *669:Y O *D NOR2D1
*CAP
1 *873:D 6.7654e-05
2 *669:Y 6.7654e-05
*RES
1 *669:Y *873:D 12.8919 
*END

*D_NET *42 0.00175531
*CONN
*I *872:D I *D DFFHQD1
*I *674:Y O *D NOR2D1
*CAP
1 *872:D 0.000103401
2 *674:Y 0.000103401
3 *872:D *903:CK 0.000580367
4 *872:D rst 0.000707604
5 *872:D *673:C 0.000113479
6 *872:D *678:A 5.62259e-05
7 *872:D *668:C 3.63143e-05
8 *872:D *806:B0 2.41424e-06
9 *872:D *687:A 3.71336e-06
10 *872:D *687:B 3.48391e-06
11 *872:D *802:A1 1.4637e-06
12 *872:D *671:A 3.09295e-05
13 *872:D *668:B 4.87109e-06
14 *872:D *803:A1 4.4e-06
15 *872:D *667:A 3.24447e-06
*RES
1 *674:Y *872:D 25.0223 
*END

*D_NET *43 0.001581
*CONN
*I *871:D I *D DFFHQD1
*I *679:Y O *D NOR2D1
*CAP
1 *871:D 0.000115746
2 *679:Y 0.000115746
3 *871:D x[27] 0.000205178
4 *871:D *928:A 0.000471268
5 *871:D *688:C 0.000324868
6 *871:D x[21] 4.05364e-05
7 *871:D x[9] 9.21575e-06
8 *871:D y 3.7146e-05
9 *871:D x[25] 5.31337e-06
10 *871:D *806:A1 1.73726e-06
11 *871:D x[22] 1.75059e-06
12 *871:D *807:B0 4.57655e-07
13 *871:D *687:B 8.29799e-07
14 *871:D *783:A0 5.14961e-07
15 *871:D *736:A 6.0502e-07
16 *871:D *870:D 2.93765e-06
17 *871:D *678:C 7.04201e-05
18 *871:D *668:C 9.07385e-05
19 *871:D *903:CK 5.38638e-06
20 *871:D *820:A0 3.01909e-05
21 *871:D x[19] 3.24551e-06
22 *871:D x[5] 4.41564e-05
23 *871:D *900:D 7.959e-07
24 *871:D *687:A 7.39352e-07
25 *871:D *739:B 1.47406e-06
*RES
1 *679:Y *871:D 24.9991 
*END

*D_NET *44 0.0010828
*CONN
*I *870:D I *D DFFHQD1
*I *684:Y O *D NOR2D1
*CAP
1 *870:D 7.01204e-05
2 *684:Y 7.01204e-05
3 *870:D *688:C 0.000359255
4 *870:D *928:A 0.000133662
5 *870:D x[27] 3.77332e-05
6 *870:D rst 0.000320764
7 *870:D *901:D 5.99928e-07
8 *870:D x[21] 1.86795e-06
9 *870:D *678:C 4.91456e-06
10 *870:D x[9] 1.34517e-05
11 *870:D *668:C 1.2199e-05
12 *870:D y 2.12346e-05
13 *870:D *903:CK 7.73636e-06
14 *870:D x[25] 1.88818e-05
15 *870:D *783:B0 4.03828e-07
16 *870:D *658:C 1.13969e-06
17 *870:D *804:B0 1.55686e-06
18 *870:D *738:C 8.4532e-07
19 *870:D *851:D 3.81352e-07
20 *870:D *748:C 5.71937e-06
21 *870:D *800:B0 2.17149e-07
*RES
1 *684:Y *870:D 12.9739 
*END

*D_NET *45 0.000841564
*CONN
*I *869:D I *D DFFHQD1
*I *689:Y O *D NOR2D1
*CAP
1 *869:D 6.09596e-05
2 *689:Y 6.09596e-05
3 *869:D x[25] 0.000145938
4 *869:D *689:B 1.74692e-05
5 *869:D rst 0.000228148
6 *869:D *903:CK 0.000310306
7 *869:D *677:B 1.25362e-07
8 *869:D *927:A 2.89088e-06
9 *869:D *673:B 1.65948e-06
10 *869:D x[3] 1.52737e-06
11 *869:D x[22] 2.28449e-06
12 *869:D x[27] 5.16212e-06
13 *869:D *663:C 2.91464e-06
14 *869:D *688:C 1.21978e-06
*RES
1 *689:Y *869:D 12.6693 
*END

*D_NET *46 0.00144153
*CONN
*I *868:D I *D DFFHQD1
*I *694:Y O *D NOR2D1
*CAP
1 *868:D 7.90692e-05
2 *694:Y 7.90692e-05
3 *868:D clk 0.000179054
4 *868:D *694:B 8.26604e-05
5 *868:D *698:B 0.000396983
6 *868:D rst 0.000219658
7 *868:D x[10] 0.000201698
8 *868:D x[11] 1.33999e-05
9 *868:D y 1.51916e-05
10 *868:D *698:C 2.3345e-05
11 *868:D *928:A 4.05387e-06
12 *868:D *858:D 1.47632e-07
13 *868:D *813:A0 2.26548e-05
14 *868:D x[28] 1.47903e-05
15 *868:D x[6] 1.82559e-06
16 *868:D *857:D 9.28852e-06
17 *868:D *819:A1 5.05462e-07
18 *868:D *749:B 1.22508e-05
19 *868:D *733:A 2.35531e-06
20 *868:D *855:D 1.76501e-06
21 *868:D *850:CK 4.34214e-05
22 *868:D *819:B0 5.16244e-07
23 *868:D *899:D 1.01588e-06
24 *868:D *697:A 1.47891e-06
25 *868:D x[24] 1.09626e-05
26 *868:D *922:A 2.43672e-05
*RES
1 *694:Y *868:D 24.0851 
*END

*D_NET *47 0.00145007
*CONN
*I *867:D I *D DFFHQD1
*I *699:Y O *D NOR2D1
*CAP
1 *867:D 9.84684e-05
2 *699:Y 9.84684e-05
3 *867:D x[14] 0.000534044
4 *867:D *703:C 0.000222923
5 *867:D *699:B 0.000107808
6 *867:D x[16] 1.44463e-05
7 *867:D x[11] 1.18431e-05
8 *867:D x[3] 6.05245e-06
9 *867:D x[13] 7.2084e-06
10 *867:D rst 1.4817e-05
11 *867:D x[12] 1.4501e-06
12 *867:D y 2.29264e-05
13 *867:D *854:D 4.19089e-06
14 *867:D *851:CK 0.000188862
15 *867:D x[31] 3.54375e-06
16 *867:D *698:C 1.79547e-06
17 *867:D *899:D 2.42002e-05
18 *867:D x[29] 1.17284e-05
19 *867:D x[15] 1.80853e-06
20 *867:D *898:D 1.72188e-05
21 *867:D *704:B 5.62633e-05
*RES
1 *699:Y *867:D 24.8583 
*END

*D_NET *48 8.5981e-05
*CONN
*I *866:D I *D DFFHQD1
*I *704:Y O *D NOR2D1
*CAP
1 *866:D 4.29905e-05
2 *704:Y 4.29905e-05
*RES
1 *704:Y *866:D 12.0719 
*END

*D_NET *49 0.000656834
*CONN
*I *865:D I *D DFFHQD1
*I *709:Y O *D NOR2D1
*CAP
1 *865:D 9.31984e-05
2 *709:Y 9.31984e-05
3 *865:D *709:B 0.000192663
4 *865:D *893:CK 0.000111121
5 *865:D rst 0.000166654
*RES
1 *709:Y *865:D 13.7411 
*END

*D_NET *50 0.000826433
*CONN
*I *864:D I *D DFFHQD1
*I *714:Y O *D NOR2D1
*CAP
1 *864:D 8.50947e-05
2 *714:Y 8.50947e-05
3 *864:D *714:B 0.000552404
4 *864:D *717:A 5.2068e-05
5 *864:D *922:A 5.17714e-05
*RES
1 *714:Y *864:D 13.4717 
*END

*D_NET *51 0.000249402
*CONN
*I *863:D I *D DFFHQD1
*I *719:Y O *D NOR2D1
*CAP
1 *863:D 6.3426e-05
2 *719:Y 6.3426e-05
3 *863:D *719:B 0.000122549
*RES
1 *719:Y *863:D 12.7513 
*END

*D_NET *52 0.000790748
*CONN
*I *862:D I *D DFFHQD1
*I *724:Y O *D NOR2D1
*CAP
1 *862:D 0.000115746
2 *724:Y 0.000115746
3 *862:D *893:CK 0.00036125
4 *862:D *717:B 6.84742e-05
5 *862:D *709:B 1.55815e-05
6 *862:D *711:B 6.03971e-06
7 *862:D *922:A 5.49049e-05
8 *862:D *712:A 4.73907e-06
9 *862:D *895:D 1.12013e-05
10 *862:D *717:A 2.47639e-05
11 *862:D *718:C 1.23024e-05
*RES
1 *724:Y *862:D 24.9991 
*END

*D_NET *53 0.0010444
*CONN
*I *861:D I *D DFFHQD1
*I *729:Y O *D NOR2D1
*CAP
1 *861:D 6.67732e-05
2 *729:Y 6.67732e-05
3 *861:D *861:CK 0.000492742
4 *861:D rst 0.000168079
5 *861:D x[29] 4.51039e-05
6 *861:D x[13] 4.66215e-05
7 *861:D *706:A 9.92846e-07
8 *861:D *911:D 6.6203e-07
9 *861:D y 3.27978e-05
10 *861:D *718:C 3.3502e-06
11 *861:D *848:B0 1.01832e-06
12 *861:D *839:A0 3.77307e-07
13 *861:D *922:A 0.000102033
14 *861:D x[15] 3.4961e-06
15 *861:D x[2] 1.27563e-06
16 *861:D *850:CK 4.52679e-06
17 *861:D x[14] 1.55436e-06
18 *861:D x[16] 1.46668e-06
19 *861:D x[11] 8.41445e-07
20 *861:D *763:C 9.90496e-07
21 *861:D *752:B 4.44227e-07
22 *861:D x[17] 2.48011e-06
*RES
1 *729:Y *861:D 12.8626 
*END

*D_NET *54 0.000553022
*CONN
*I *860:D I *D DFFHQD1
*I *734:Y O *D NOR2D1
*CAP
1 *860:D 5.46176e-05
2 *734:Y 5.46176e-05
3 *860:D x[26] 0.000237253
4 *860:D rst 0.000131156
5 *860:D *739:B 1.17143e-05
6 *860:D *889:D 9.3243e-07
7 *860:D x[30] 4.02735e-07
8 *860:D *928:A 2.61053e-06
9 *860:D *781:B 3.62093e-06
10 *860:D *756:A 2.44983e-06
11 *860:D y 3.20703e-05
12 *860:D *859:D 1.66132e-05
13 *860:D *692:A 2.76467e-06
14 *860:D *837:B0 2.19905e-06
*RES
1 *734:Y *860:D 12.4584 
*END

*D_NET *55 0.00155608
*CONN
*I *859:D I *D DFFHQD1
*I *739:Y O *D NOR2D1
*CAP
1 *859:D 8.88517e-05
2 *739:Y 8.88517e-05
3 *859:D *859:CK 0.000475048
4 *859:D x[26] 0.000617291
5 *859:D *742:A 5.07199e-05
6 *859:D rst 2.5679e-05
7 *859:D *739:B 0.00014007
8 *859:D *881:D 1.28353e-06
9 *859:D *843:A0 4.60741e-06
10 *859:D *843:B0 8.27501e-07
11 *859:D *825:C 3.19394e-06
12 *859:D *734:B 2.53281e-06
13 *859:D x[31] 4.05821e-06
14 *859:D *841:B 8.49169e-07
15 *859:D *889:D 2.01759e-06
16 *859:D x[30] 5.09348e-06
17 *859:D *928:A 3.12119e-06
18 *859:D *781:B 4.44036e-06
19 *859:D *756:A 2.85243e-06
20 *859:D y 2.32985e-05
21 *859:D *692:A 8.1887e-06
22 *859:D *837:B0 3.20091e-06
*RES
1 *739:Y *859:D 24.4424 
*END

*D_NET *56 0.00126567
*CONN
*I *858:D I *D DFFHQD1
*I *744:Y O *D NOR2D1
*CAP
1 *858:D 9.1401e-05
2 *744:Y 9.1401e-05
3 *858:D x[31] 0.00035024
4 *858:D x[8] 0.000109636
5 *858:D *928:A 5.16391e-05
6 *858:D clk 1.36944e-05
7 *858:D *694:B 3.56225e-05
8 *858:D rst 0.000366931
9 *858:D x[20] 1.18474e-06
10 *858:D *813:A0 4.69943e-05
11 *858:D *742:B 1.27488e-05
12 *858:D p 3.44641e-06
13 *858:D x[28] 3.20543e-05
14 *858:D *747:A 4.01429e-05
15 *858:D *683:C 3.96672e-06
16 *858:D *825:B 4.97225e-06
17 *858:D x[11] 7.49128e-06
18 *858:D y 1.64433e-06
19 *858:D *698:C 4.57577e-07
*RES
1 *744:Y *858:D 24.4951 
*END

*D_NET *57 0.00106758
*CONN
*I *857:D I *D DFFHQD1
*I *749:Y O *D NOR2D1
*CAP
1 *857:D 8.3919e-05
2 *749:Y 8.3919e-05
3 *857:D x[10] 0.000542955
4 *857:D x[6] 4.46719e-06
5 *857:D *850:D 3.79346e-07
6 *857:D *694:B 2.77728e-05
7 *857:D *819:A1 1.85023e-06
8 *857:D *749:B 0.000155241
9 *857:D *733:A 2.37638e-06
10 *857:D *855:D 6.56779e-06
11 *857:D *850:CK 0.000121731
12 *857:D *819:B0 1.92444e-06
13 *857:D rst 3.44785e-05
*RES
1 *749:Y *857:D 24.2784 
*END

*D_NET *58 0.00105695
*CONN
*I *856:D I *D DFFHQD1
*I *754:Y O *D NOR2D1
*CAP
1 *856:D 6.09596e-05
2 *754:Y 6.09596e-05
3 *856:D x[31] 5.71536e-05
4 *856:D *928:A 0.000490616
5 *856:D rst 0.000195848
6 *856:D x[8] 7.06809e-05
7 *856:D *813:A0 7.34396e-05
8 *856:D *742:B 3.79565e-07
9 *856:D p 2.00271e-06
10 *856:D x[28] 2.13642e-06
11 *856:D *747:A 3.52197e-06
12 *856:D *683:C 5.68693e-06
13 *856:D *811:A1 2.26017e-06
14 *856:D *722:B 6.24815e-07
15 *856:D *721:A 4.48624e-06
16 *856:D *800:A1 1.03843e-06
17 *856:D x[9] 2.5152e-05
*RES
1 *754:Y *856:D 12.6693 
*END

*D_NET *59 0.000569038
*CONN
*I *855:D I *D DFFHQD1
*I *759:Y O *D NOR2D1
*CAP
1 *855:D 0.000153407
2 *759:Y 0.000153407
3 *855:D *752:B 9.92523e-06
4 *855:D *753:C 2.16172e-05
5 *855:D x[10] 1.9834e-05
6 *855:D rst 6.23598e-05
7 *855:D *813:A0 8.06295e-06
8 *855:D x[24] 3.67799e-06
9 *855:D *753:A 1.20279e-06
10 *855:D *819:B0 4.11198e-06
11 *855:D *759:B 2.34824e-05
12 *855:D *922:A 9.84505e-06
13 *855:D x[13] 3.18255e-06
14 *855:D *850:CK 2.37753e-06
15 *855:D x[6] 1.06152e-05
16 *855:D *850:D 1.25875e-06
17 *855:D *694:B 1.84773e-05
18 *855:D *819:A1 1.41112e-05
19 *855:D *749:B 4.67759e-05
20 *855:D *733:A 1.30579e-06
*RES
1 *759:Y *855:D 26.1321 
*END

*D_NET *60 0.00154608
*CONN
*I *854:D I *D DFFHQD1
*I *764:Y O *D NOR2D1
*CAP
1 *854:D 0.000154858
2 *764:Y 0.000154858
3 *854:D x[14] 0.000560319
4 *854:D x[16] 0.000196749
5 *854:D rst 0.000126018
6 *854:D y 2.73059e-05
7 *854:D *851:CK 0.000252266
8 *854:D x[11] 1.4469e-05
9 *854:D x[3] 1.00039e-05
10 *854:D x[13] 4.56089e-06
11 *854:D *703:C 1.64151e-05
12 *854:D x[12] 6.00848e-07
13 *854:D x[31] 2.8865e-06
14 *854:D *769:B 6.92985e-06
15 *854:D *883:D 3.32507e-07
16 *854:D *853:D 4.58034e-07
17 *854:D *852:D 2.60904e-07
18 *854:D *767:B 3.56128e-06
19 *854:D *885:D 1.1754e-05
20 *854:D *833:B0 4.12689e-07
21 *854:D *776:A 1.06084e-06
*RES
1 *764:Y *854:D 26.2034 
*END

*D_NET *61 0.000802991
*CONN
*I *853:D I *D DFFHQD1
*I *769:Y O *D NOR2D1
*CAP
1 *853:D 5.26797e-05
2 *769:Y 5.26797e-05
3 *853:D *851:CK 0.000268972
4 *853:D rst 0.000395527
5 *853:D *769:B 1.48495e-05
6 *853:D *883:D 1.43457e-06
7 *853:D *852:D 2.32961e-06
8 *853:D *767:B 7.34478e-07
9 *853:D *885:D 3.02542e-06
10 *853:D x[14] 9.49211e-06
11 *853:D *833:B0 1.90831e-07
12 *853:D *776:A 1.07698e-06
*RES
1 *769:Y *853:D 12.394 
*END

*D_NET *62 0.000476276
*CONN
*I *852:D I *D DFFHQD1
*I *774:Y O *D NOR2D1
*CAP
1 *852:D 4.29905e-05
2 *774:Y 4.29905e-05
3 *852:D *851:CK 0.000222185
4 *852:D *769:B 1.02846e-06
5 *852:D *883:D 2.37607e-06
6 *852:D *767:B 3.22116e-07
7 *852:D *885:D 9.5218e-07
8 *852:D rst 0.000156988
9 *852:D x[14] 5.22359e-06
10 *852:D *776:A 1.22001e-06
*RES
1 *774:Y *852:D 12.0719 
*END

*D_NET *63 0.000548059
*CONN
*I *851:D I *D DFFHQD1
*I *779:Y O *D NOR2D1
*CAP
1 *851:D 4.29905e-05
2 *779:Y 4.29905e-05
3 *851:D x[14] 0.000188036
4 *851:D *779:B 5.50549e-05
5 *851:D x[16] 3.38125e-05
6 *851:D rst 0.000105956
7 *851:D *772:B 2.52118e-06
8 *851:D *832:A1 2.8697e-07
9 *851:D *704:B 9.74052e-07
10 *851:D x[2] 6.6261e-07
11 *851:D *772:A 1.85203e-06
12 *851:D *832:A0 3.33558e-06
13 *851:D *778:C 3.34988e-05
14 *851:D x[11] 8.48204e-06
15 *851:D x[3] 2.08303e-05
16 *851:D *783:B0 3.94701e-07
17 *851:D *658:C 9.71493e-07
18 *851:D *804:B0 4.20693e-07
19 *851:D *738:C 7.69559e-07
20 *851:D *748:C 4.00059e-06
21 *851:D *800:B0 2.1869e-07
*RES
1 *779:Y *851:D 12.0719 
*END

*D_NET *64 0.00132535
*CONN
*I *912:D I *D DFFHQD1
*I *783:Y O *D AOI211D1
*CAP
1 *912:D 0.000140785
2 *783:Y 0.000140785
3 *912:D *927:A 0.000237847
4 *912:D rst 0.000279142
5 *912:D y 5.12945e-05
6 *912:D *783:A0 4.63143e-05
7 *912:D x[27] 0.000115462
8 *912:D *781:A 4.69038e-05
9 *912:D *906:D 1.85689e-06
10 *912:D *797:B 1.54473e-06
11 *912:D *736:A 7.48066e-06
12 *912:D *658:B 1.16155e-05
13 *912:D x[25] 2.5041e-05
14 *912:D *922:A 0.000170246
15 *912:D *880:D 5.38721e-06
16 *912:D *848:B0 2.9013e-05
17 *912:D *781:B 8.70647e-06
18 *912:D *836:A1 5.91911e-06
*RES
1 *783:Y *912:D 25.747 
*END

*D_NET *65 0.00139827
*CONN
*I *911:D I *D DFFHQD1
*I *787:Y O *D AOI211D1
*CAP
1 *911:D 0.000112603
2 *787:Y 0.000112603
3 *911:D *861:CK 0.000151528
4 *911:D rst 0.000675416
5 *911:D *839:A0 0.000202975
6 *911:D *706:A 4.20213e-06
7 *911:D y 2.60175e-05
8 *911:D x[29] 2.57685e-05
9 *911:D *718:C 4.36962e-05
10 *911:D *848:B0 7.99079e-06
11 *911:D *922:A 3.54702e-05
*RES
1 *787:Y *911:D 25.5846 
*END

*D_NET *66 0.00255996
*CONN
*I *910:D I *D DFFHQD1
*I *791:Y O *D AOI211D1
*CAP
1 *910:D 0.000246257
2 *791:Y 0.000246257
3 *910:D rst 0.00177767
4 *910:D *693:C 2.03841e-05
5 *910:D *724:B 8.24304e-05
6 *910:D *927:A 3.98742e-05
7 *910:D *791:A1 0.000109486
8 *910:D y 3.45075e-06
9 *910:D *687:A 6.60213e-06
10 *910:D *668:C 1.01622e-05
11 *910:D *903:CK 1.73748e-05
*RES
1 *791:Y *910:D 29.1269 
*END

*D_NET *67 0.000937036
*CONN
*I *909:D I *D DFFHQD1
*I *795:Y O *D AOI211D1
*CAP
1 *909:D 0.000128531
2 *795:Y 0.000128531
3 *909:D *795:A1 0.000412732
4 *909:D *795:B0 0.000267242
*RES
1 *795:Y *909:D 26.018 
*END

*D_NET *68 8.5981e-05
*CONN
*I *908:D I *D DFFHQD1
*I *799:Y O *D AOI211D1
*CAP
1 *908:D 4.29905e-05
2 *799:Y 4.29905e-05
*RES
1 *799:Y *908:D 12.0719 
*END

*D_NET *69 0.00037113
*CONN
*I *907:D I *D DFFHQD1
*I *800:Y O *D AOI211D1
*CAP
1 *907:D 4.29905e-05
2 *800:Y 4.29905e-05
3 *907:D *657:A 0.000215779
4 *907:D *800:B0 6.93701e-05
*RES
1 *800:Y *907:D 12.0719 
*END

*D_NET *70 0.00121911
*CONN
*I *906:D I *D DFFHQD1
*I *801:Y O *D AOI211D1
*CAP
1 *906:D 9.35357e-05
2 *801:Y 9.35357e-05
3 *906:D *663:C 0.000114325
4 *906:D *801:A1 0.000142967
5 *906:D rst 4.39498e-05
6 *906:D *927:A 0.000452954
7 *906:D *736:A 3.24661e-05
8 *906:D *663:B 8.59905e-05
9 *906:D x[25] 8.95874e-05
10 *906:D *781:A 4.02768e-06
11 *906:D *797:B 1.33743e-06
12 *906:D *658:B 1.74276e-05
13 *906:D y 3.72699e-05
14 *906:D *922:A 9.7378e-06
*RES
1 *801:Y *906:D 24.6943 
*END

*D_NET *71 0.00137854
*CONN
*I *905:D I *D DFFHQD1
*I *802:Y O *D AOI211D1
*CAP
1 *905:D 8.86859e-05
2 *802:Y 8.86859e-05
3 *905:D *668:C 0.000151398
4 *905:D *667:A 0.000719558
5 *905:D rst 0.000270343
6 *905:D *668:B 5.1649e-05
7 *905:D *671:A 1.79103e-06
8 *905:D *803:B0 1.75791e-07
9 *905:D *688:C 1.76458e-06
10 *905:D *820:A0 1.47296e-06
11 *905:D *673:B 2.01823e-06
12 *905:D *803:A1 9.96166e-07
*RES
1 *802:Y *905:D 24.501 
*END

*D_NET *72 0.00135798
*CONN
*I *904:D I *D DFFHQD1
*I *803:Y O *D AOI211D1
*CAP
1 *904:D 0.000107754
2 *803:Y 0.000107754
3 *904:D *673:B 0.000753044
4 *904:D *803:B0 6.66475e-05
5 *904:D *671:A 0.000216937
6 *904:D rst 0.000105846
*RES
1 *803:Y *904:D 25.3913 
*END

*D_NET *73 0.000660128
*CONN
*I *903:D I *D DFFHQD1
*I *804:Y O *D AOI211D1
*CAP
1 *903:D 7.10012e-05
2 *804:Y 7.10012e-05
3 *903:D *678:A 0.000378884
4 *903:D *903:CK 0.000139243
*RES
1 *804:Y *903:D 13.0031 
*END

*D_NET *74 0.00116115
*CONN
*I *902:D I *D DFFHQD1
*I *805:Y O *D AOI211D1
*CAP
1 *902:D 7.43484e-05
2 *805:Y 7.43484e-05
3 *902:D *805:A1 2.96931e-05
4 *902:D *683:C 0.000178865
5 *902:D *928:A 0.000360089
6 *902:D rst 0.000158693
7 *902:D *805:B0 0.00012115
8 *902:D *813:A0 1.30368e-05
9 *902:D *683:B 7.13917e-05
10 *902:D *683:A 2.36693e-05
11 *902:D *748:C 5.58602e-05
*RES
1 *805:Y *902:D 13.1144 
*END

*D_NET *75 0.000708899
*CONN
*I *901:D I *D DFFHQD1
*I *806:Y O *D AOI211D1
*CAP
1 *901:D 4.95559e-05
2 *806:Y 4.95559e-05
3 *901:D *688:C 0.000180922
4 *901:D *903:CK 0.000215105
5 *901:D *806:B0 0.000107366
6 *901:D *687:B 2.51562e-05
7 *901:D rst 1.74385e-05
8 *901:D *678:C 1.8351e-06
9 *901:D x[9] 1.20575e-05
10 *901:D *928:A 2.29293e-06
11 *901:D x[27] 1.2225e-05
12 *901:D *668:C 4.49921e-07
13 *901:D y 1.03053e-06
14 *901:D x[25] 3.39086e-05
*RES
1 *806:Y *901:D 23.0719 
*END

*D_NET *76 0.000672207
*CONN
*I *900:D I *D DFFHQD1
*I *807:Y O *D AOI211D1
*CAP
1 *900:D 8.60881e-05
2 *807:Y 8.60881e-05
3 *900:D x[27] 0.000219875
4 *900:D x[9] 0.000123039
5 *900:D rst 8.7833e-05
6 *900:D *687:A 3.48442e-06
7 *900:D *739:B 1.51843e-05
8 *900:D *928:A 8.97341e-07
9 *900:D y 1.2935e-05
10 *900:D *688:C 7.0864e-06
11 *900:D x[25] 1.69525e-06
12 *900:D *806:A1 3.89823e-06
13 *900:D x[22] 6.4947e-07
14 *900:D *807:B0 1.80777e-05
15 *900:D *717:A 6.79313e-07
16 *900:D *664:B 1.65543e-06
17 *900:D *772:B 8.61289e-07
18 *900:D *895:D 1.00105e-06
19 *900:D *791:B0 1.17927e-06
*RES
1 *807:Y *900:D 24.0765 
*END

*D_NET *77 0.00219273
*CONN
*I *899:D I *D DFFHQD1
*I *808:Y O *D AOI211D1
*CAP
1 *899:D 0.000146967
2 *808:Y 0.000146967
3 *899:D *699:B 0.000737296
4 *899:D *698:C 0.000123714
5 *899:D *698:B 0.000170325
6 *899:D rst 0.000241115
7 *899:D x[29] 4.1429e-05
8 *899:D x[13] 3.24384e-05
9 *899:D x[15] 1.69232e-05
10 *899:D y 2.81659e-05
11 *899:D *694:B 1.12566e-05
12 *899:D clk 4.18664e-05
13 *899:D x[11] 0.000335801
14 *899:D *697:A 9.84259e-05
15 *899:D x[24] 5.72631e-06
16 *899:D *922:A 8.63978e-06
17 *899:D x[28] 5.67839e-06
*RES
1 *808:Y *899:D 26.7911 
*END

*D_NET *78 0.000473888
*CONN
*I *898:D I *D DFFHQD1
*I *809:Y O *D AOI211D1
*CAP
1 *898:D 0.000108085
2 *809:Y 0.000108085
3 *898:D *703:C 0.000146615
4 *898:D x[14] 6.36399e-05
5 *898:D *704:B 1.09943e-05
6 *898:D *851:CK 3.64686e-05
*RES
1 *809:Y *898:D 25.2741 
*END

*D_NET *79 0.000224652
*CONN
*I *897:D I *D DFFHQD1
*I *810:Y O *D AOI211D1
*CAP
1 *897:D 4.29905e-05
2 *810:Y 4.29905e-05
3 *897:D rst 0.000138671
*RES
1 *810:Y *897:D 12.0719 
*END

*D_NET *80 0.000638349
*CONN
*I *896:D I *D DFFHQD1
*I *811:Y O *D AOI211D1
*CAP
1 *896:D 8.87688e-05
2 *811:Y 8.87688e-05
3 *896:D *712:A 0.00014195
4 *896:D *811:B0 0.000120152
5 *896:D *713:C 6.61342e-05
6 *896:D rst 2.91092e-05
7 *896:D *893:CK 0.000103466
*RES
1 *811:Y *896:D 24.4717 
*END

*D_NET *81 0.000868989
*CONN
*I *895:D I *D DFFHQD1
*I *812:Y O *D AOI211D1
*CAP
1 *895:D 0.000122635
2 *812:Y 0.000122635
3 *895:D *717:B 0.000221062
4 *895:D rst 5.23444e-05
5 *895:D *717:A 0.000285847
6 *895:D *893:CK 2.36151e-05
7 *895:D *718:C 2.8559e-05
8 *895:D *807:B0 3.04308e-06
9 *895:D *664:B 1.0066e-06
10 *895:D *772:B 3.47914e-06
11 *895:D *791:B0 4.7638e-06
*RES
1 *812:Y *895:D 25.854 
*END

*D_NET *82 0.000830533
*CONN
*I *894:D I *D DFFHQD1
*I *813:Y O *D AOI211D1
*CAP
1 *894:D 6.0255e-05
2 *813:Y 6.0255e-05
3 *894:D *813:A0 0.000255205
4 *894:D rst 8.58881e-05
5 *894:D *813:B0 9.86854e-06
6 *894:D *861:CK 8.66483e-05
7 *894:D *841:B 4.59696e-06
8 *894:D *823:C 4.16027e-07
9 *894:D *754:B 1.7398e-07
10 *894:D *843:A0 7.91767e-07
11 *894:D x[28] 2.16925e-06
12 *894:D *752:B 1.34456e-06
13 *894:D x[31] 7.98472e-07
14 *894:D x[24] 3.22087e-06
15 *894:D y 5.76156e-06
16 *894:D *718:C 8.58269e-05
17 *894:D *721:A 0.000140259
18 *894:D *722:B 2.70545e-05
*RES
1 *813:Y *894:D 12.6459 
*END

*D_NET *83 0.00217149
*CONN
*I *893:D I *D DFFHQD1
*I *814:Y O *D AOI211D1
*CAP
1 *893:D 0.000137267
2 *814:Y 0.000137267
3 *893:D *922:A 0.000657416
4 *893:D *728:C 0.000174091
5 *893:D *726:B 0.000428462
6 *893:D *727:A 0.00027522
7 *893:D *814:B0 0.000313775
8 *893:D *888:D 3.84137e-06
9 *893:D *768:C 3.45017e-06
10 *893:D *671:A 6.75562e-07
11 *893:D *714:B 2.36593e-05
12 *893:D *913:D 4.76834e-06
13 *893:D *903:CK 5.18867e-06
14 *893:D x[8] 5.03323e-06
15 *893:D x[9] 1.37177e-06
*RES
1 *814:Y *893:D 26.4046 
*END

*D_NET *84 0.00150788
*CONN
*I *892:D I *D DFFHQD1
*I *815:Y O *D AOI211D1
*CAP
1 *892:D 0.000142034
2 *815:Y 0.000142034
3 *892:D *733:B 0.000264197
4 *892:D *815:B0 0.00029527
5 *892:D *733:A 0.000166705
6 *892:D rst 7.62295e-05
7 *892:D *733:C 4.60214e-05
8 *892:D x[13] 0.000151957
9 *892:D x[29] 0.00022343
*RES
1 *815:Y *892:D 26.6271 
*END

*D_NET *85 0.000652085
*CONN
*I *891:D I *D DFFHQD1
*I *816:Y O *D AOI211D1
*CAP
1 *891:D 6.18405e-05
2 *816:Y 6.18405e-05
3 *891:D y 0.000521116
4 *891:D x[21] 1.77786e-06
5 *891:D *778:C 1.34206e-06
6 *891:D x[5] 4.16764e-06
*RES
1 *816:Y *891:D 12.6986 
*END

*D_NET *86 0.000431867
*CONN
*I *890:D I *D DFFHQD1
*I *817:Y O *D AOI211D1
*CAP
1 *890:D 5.69078e-05
2 *817:Y 5.69078e-05
3 *890:D *817:B0 2.61732e-05
4 *890:D rst 0.000291877
*RES
1 *817:Y *890:D 12.5346 
*END

*D_NET *87 0.000947276
*CONN
*I *889:D I *D DFFHQD1
*I *818:Y O *D AOI211D1
*CAP
1 *889:D 9.84684e-05
2 *818:Y 9.84684e-05
3 *889:D x[26] 0.000413261
4 *889:D *739:B 1.17645e-05
5 *889:D x[30] 1.31923e-05
6 *889:D *928:A 0.000100669
7 *889:D *781:B 2.22568e-06
8 *889:D *756:A 6.86494e-05
9 *889:D y 9.275e-06
10 *889:D *692:A 1.56671e-05
11 *889:D rst 0.00011401
12 *889:D *837:B0 1.62509e-06
*RES
1 *818:Y *889:D 24.8583 
*END

*D_NET *88 0.00190428
*CONN
*I *888:D I *D DFFHQD1
*I *819:Y O *D AOI211D1
*CAP
1 *888:D 0.000146884
2 *819:Y 0.000146884
3 *888:D *922:A 0.00100854
4 *888:D rst 0.000331513
5 *888:D *768:C 1.95982e-05
6 *888:D *728:C 4.81638e-06
7 *888:D *671:A 1.56487e-06
8 *888:D *726:B 4.06685e-06
9 *888:D *714:B 3.25549e-06
10 *888:D *913:D 2.92525e-06
11 *888:D *727:A 3.03735e-06
12 *888:D *903:CK 1.54031e-05
13 *888:D x[8] 6.37173e-05
14 *888:D x[9] 6.60443e-06
15 *888:D x[16] 1.85424e-05
16 *888:D *781:A 1.45357e-06
17 *888:D *756:A 7.27939e-06
18 *888:D y 3.38061e-05
19 *888:D x[24] 3.2773e-05
20 *888:D *928:A 4.52891e-05
21 *888:D *734:B 6.32488e-06
*RES
1 *819:Y *888:D 26.8204 
*END

*D_NET *89 0.000775717
*CONN
*I *887:D I *D DFFHQD1
*I *820:Y O *D AOI211D1
*CAP
1 *887:D 4.7747e-05
2 *820:Y 4.7747e-05
3 *887:D *693:C 3.86272e-05
4 *887:D *820:B0 0.000369967
5 *887:D x[30] 0.000104148
6 *887:D *928:A 5.90764e-05
7 *887:D *820:A0 6.4003e-05
8 *887:D rst 4.17377e-05
9 *887:D *684:B 3.30272e-07
10 *887:D y 1.99163e-06
11 *887:D *688:C 3.42e-07
*RES
1 *820:Y *887:D 12.23 
*END

*D_NET *90 0.00409004
*CONN
*I *886:D I *D DFFHQD1
*I *821:Y O *D AOI211D1
*CAP
1 *886:D 0.000156583
2 *821:Y 0.000156583
3 *886:D *850:CK 0.00205758
4 *886:D *761:A 0.000367713
5 *886:D *761:B 0.00012737
6 *886:D x[15] 0.000366071
7 *886:D *821:B0 0.000391701
8 *886:D x[17] 3.35753e-05
9 *886:D *763:C 2.92571e-05
10 *886:D *829:B 5.84499e-06
11 *886:D x[10] 3.57746e-05
12 *886:D *821:A1 7.63859e-05
13 *886:D *828:A 2.98275e-06
14 *886:D y 1.76839e-05
15 *886:D x[4] 8.12204e-06
16 *886:D *830:B 6.50675e-07
17 *886:D x[13] 6.266e-05
18 *886:D *808:B0 6.56421e-06
19 *886:D x[2] 1.49345e-05
20 *886:D *829:C 7.64842e-06
21 *886:D *753:C 2.55434e-06
22 *886:D *759:B 5.52721e-06
23 *886:D *922:A 0.000145357
24 *886:D x[24] 7.70315e-06
25 *886:D *764:B 3.20684e-06
*RES
1 *821:Y *886:D 27.207 
*END

*D_NET *91 0.00117143
*CONN
*I *885:D I *D DFFHQD1
*I *822:Y O *D AOI211D1
*CAP
1 *885:D 0.000107754
2 *822:Y 0.000107754
3 *885:D *851:CK 0.000377943
4 *885:D rst 6.5158e-05
5 *885:D *768:A 0.000233804
6 *885:D *769:B 3.1904e-05
7 *885:D *883:D 3.16138e-06
8 *885:D *767:B 4.8438e-05
9 *885:D x[14] 8.90517e-05
10 *885:D *833:B0 6.31297e-07
11 *885:D *776:A 2.57209e-06
12 *885:D *768:C 2.74516e-05
13 *885:D *822:A1 7.58133e-05
*RES
1 *822:Y *885:D 25.3913 
*END

*D_NET *92 0.00293871
*CONN
*I *881:D I *D DFFHQD1
*I *825:Y O *D NOR3D1
*CAP
1 *881:D 0.000131603
2 *825:Y 0.000131603
3 *881:D *859:CK 0.00112047
4 *881:D *825:C 0.00100313
5 *881:D *825:B 5.15713e-05
6 *881:D *878:D 7.49332e-06
7 *881:D *843:A0 2.69121e-05
8 *881:D x[26] 4.45365e-05
9 *881:D *843:B0 4.04769e-06
10 *881:D *742:A 3.37748e-06
11 *881:D *734:B 2.18245e-05
12 *881:D x[31] 1.93865e-05
13 *881:D *841:B 3.51742e-06
14 *881:D rst 4.63102e-05
15 *881:D *913:D 6.41332e-06
16 *881:D y 0.000137785
17 *881:D *922:A 0.000120715
18 *881:D x[28] 5.80193e-05
*RES
1 *825:Y *881:D 15.018 
*END

*D_NET *93 0.000893624
*CONN
*I *850:D I *D DFFHQD1
*I *830:Y O *D NOR2D1
*CAP
1 *850:D 5.60269e-05
2 *830:Y 5.60269e-05
3 *850:D x[10] 0.00042911
4 *850:D x[6] 3.75628e-05
5 *850:D *830:B 0.000108213
6 *850:D *694:B 5.9987e-07
7 *850:D *819:A1 2.39578e-06
8 *850:D *749:B 1.39867e-06
9 *850:D *733:A 1.84455e-07
10 *850:D *850:CK 4.30832e-05
11 *850:D *819:B0 5.41091e-07
12 *850:D rst 5.43943e-05
13 *850:D x[15] 5.43413e-05
14 *850:D *829:C 4.97465e-05
*RES
1 *830:Y *850:D 12.5053 
*END

*D_NET *94 0.000849496
*CONN
*I *913:D I *D DFFHQD1
*I *831:Y O *D AND2D1
*CAP
1 *913:D 6.7654e-05
2 *831:Y 6.7654e-05
3 *913:D *922:A 0.000218866
4 *913:D *825:B 0.000206807
5 *913:D *768:C 3.72122e-06
6 *913:D *728:C 1.52853e-05
7 *913:D *671:A 1.00812e-06
8 *913:D *726:B 7.15406e-06
9 *913:D *714:B 3.28244e-06
10 *913:D *727:A 4.42188e-06
11 *913:D *903:CK 9.13431e-06
12 *913:D x[8] 6.89164e-06
13 *913:D x[9] 3.02671e-06
14 *913:D *825:C 2.97439e-06
15 *913:D y 0.000166896
16 *913:D x[28] 5.16866e-05
17 *913:D x[31] 1.30326e-05
*RES
1 *831:Y *913:D 12.8919 
*END

*D_NET *95 0.000208215
*CONN
*I *884:D I *D DFFHQD1
*I *832:Y O *D AOI211D1
*CAP
1 *884:D 4.29905e-05
2 *832:Y 4.29905e-05
3 *884:D *850:CK 0.000122234
*RES
1 *832:Y *884:D 12.0719 
*END

*D_NET *96 0.00128969
*CONN
*I *883:D I *D DFFHQD1
*I *833:Y O *D AOI211D1
*CAP
1 *883:D 0.000107754
2 *833:Y 0.000107754
3 *883:D *851:CK 0.000789428
4 *883:D *769:B 2.82568e-06
5 *883:D *767:B 7.20911e-07
6 *883:D rst 7.98918e-05
7 *883:D x[14] 5.18115e-05
8 *883:D *833:B0 1.81938e-05
9 *883:D *776:A 0.000131309
*RES
1 *833:Y *883:D 25.3913 
*END

*D_NET *97 0.00245413
*CONN
*I *882:D I *D DFFHQD1
*I *834:Y O *D AOI211D1
*CAP
1 *882:D 0.000137267
2 *834:Y 0.000137267
3 *882:D x[1] 0.00120698
4 *882:D x[2] 0.000123874
5 *882:D *829:C 0.000197999
6 *882:D y 8.02734e-05
7 *882:D *829:B 0.000349626
8 *882:D rst 3.40005e-05
9 *882:D *778:C 1.92288e-05
10 *882:D x[4] 0.000167609
*RES
1 *834:Y *882:D 26.4046 
*END

*D_NET *98 0.00183568
*CONN
*I *880:D I *D DFFHQD1
*I *837:Y O *D AOI21D1
*CAP
1 *880:D 0.000112521
2 *837:Y 0.000112521
3 *880:D *838:B 0.00101936
4 *880:D *783:A0 0.000240536
5 *880:D *785:A 5.99226e-06
6 *880:D *848:B0 6.53994e-05
7 *880:D x[27] 1.72523e-05
8 *880:D rst 9.73429e-05
9 *880:D *781:B 1.6397e-05
10 *880:D *836:A1 0.000139545
11 *880:D y 8.81245e-06
*RES
1 *837:Y *880:D 25.6139 
*END

*D_NET *99 0.000764447
*CONN
*I *879:D I *D DFFHQD1
*I *840:Y O *D AOI21D1
*CAP
1 *879:D 7.25867e-05
2 *840:Y 7.25867e-05
3 *879:D *789:A 6.02601e-05
4 *879:D *840:B0 0.000152682
5 *879:D *841:B 0.00013747
6 *879:D *791:A1 2.25857e-05
7 *879:D *848:B0 0.000104981
8 *879:D *843:A1 1.42579e-05
9 *879:D *839:A0 4.70442e-05
10 *879:D *840:A1 2.61979e-05
11 *879:D *861:CK 5.37957e-05
*RES
1 *840:Y *879:D 13.0559 
*END

*D_NET *100 0.00148698
*CONN
*I *878:D I *D DFFHQD1
*I *843:Y O *D AOI21D1
*CAP
1 *878:D 9.64994e-05
2 *843:Y 9.64994e-05
3 *878:D *859:CK 0.000588766
4 *878:D *843:A0 0.000100625
5 *878:D *843:B0 0.000573471
6 *878:D x[26] 9.12472e-06
7 *878:D *825:C 9.46592e-07
8 *878:D *734:B 1.70228e-06
9 *878:D x[31] 2.33142e-06
10 *878:D *841:B 1.11659e-05
11 *878:D rst 5.84339e-06
*RES
1 *843:Y *878:D 24.6006 
*END

*D_NET *101 0.000642942
*CONN
*I *877:D I *D DFFHQD1
*I *846:Y O *D AOI21D1
*CAP
1 *877:D 6.3426e-05
2 *846:Y 6.3426e-05
3 *877:D *846:A0 0.000133494
4 *877:D *849:A1 0.000249138
5 *877:D *845:A1 2.8399e-05
6 *877:D *846:B0 2.36956e-05
7 *877:D *848:B0 4.91018e-05
8 *877:D *848:A0 2.87874e-05
9 *877:D *876:D 3.47454e-06
*RES
1 *846:Y *877:D 12.7513 
*END

*D_NET *102 0.00114045
*CONN
*I *876:D I *D DFFHQD1
*I *849:Y O *D AOI21D1
*CAP
1 *876:D 0.000105706
2 *849:Y 0.000105706
3 *876:D *848:A0 0.000157423
4 *876:D *849:A1 6.51613e-05
5 *876:D *849:B0 0.000200496
6 *876:D *798:A 8.98459e-06
7 *876:D *797:B 1.00582e-05
8 *876:D *799:A1 5.62897e-06
9 *876:D *799:B0 4.32733e-06
10 *876:D *848:B0 4.59271e-05
11 *876:D rst 0.000428006
12 *876:D *846:B0 3.02037e-06
*RES
1 *849:Y *876:D 14.157 
*END

*D_NET *103 0.0133851
*CONN
*I *848:B0 I *D OAI21D1
*I *836:B0 I *D OAI21D1
*I *845:B0 I *D OAI21D1
*I *842:B0 I *D OAI21D1
*I *831:A I *D AND2D1
*I *839:B0 I *D OAI21D1
*I *654:Y O *D INVD1
*CAP
1 *848:B0 9.99235e-05
2 *836:B0 4.81847e-05
3 *845:B0 0.000122634
4 *842:B0 5.37588e-06
5 *831:A 0.000109844
6 *839:B0 2.20657e-05
7 *654:Y 3.29489e-05
8 *103:34 0.000364069
9 *103:22 0.000524485
10 *103:16 0.000595004
11 *103:12 0.000287947
12 *103:8 0.000187216
13 *848:B0 *846:A0 0.00273024
14 *848:B0 *843:A0 0.00106529
15 *848:B0 *838:B 0.00102227
16 *848:B0 *841:B 0.000995108
17 *848:B0 *861:CK 0.000847453
18 *848:B0 *791:B0 0.000443658
19 *848:B0 *783:A0 0.000617141
20 *848:B0 *791:A1 0.000352304
21 *848:B0 *795:B0 0.000384514
22 *848:B0 *840:B0 0.000204669
23 *848:B0 *793:A 0.000157054
24 *848:B0 *839:A0 0.000218649
25 *848:B0 rst 2.49475e-05
26 *848:B0 y 0.000290525
27 *848:B0 *848:A0 0.000282047
28 *848:B0 *849:A1 0.000116853
29 *848:B0 *794:B 0.0001349
30 *848:B0 *789:A 0.000121996
31 *848:B0 x[27] 9.50237e-05
32 *848:B0 *845:A1 0.00028206
33 *848:B0 *846:B0 0.000102678
34 *848:B0 *706:A 3.15829e-06
35 *848:B0 x[29] 2.95329e-05
36 *848:B0 *718:C 8.44258e-05
37 *848:B0 *922:A 3.76528e-05
38 *848:B0 *785:A 5.14981e-05
39 *848:B0 *798:A 3.00395e-06
40 *848:B0 *797:B 2.6394e-06
41 *848:B0 *799:A1 1.80281e-06
42 *848:B0 *799:B0 1.41397e-06
43 *848:B0 *795:A1 5.66923e-05
44 *848:B0 *843:A1 0.000120697
45 *848:B0 *781:B 2.04159e-05
46 *848:B0 *836:A1 4.87378e-05
47 *848:B0 *840:A1 3.43816e-05
*RES
1 *654:Y *103:8 11.738 
2 *103:8 *103:12 6.99383 
3 *103:12 *103:16 11.486 
4 *103:16 *103:22 14.1777 
5 *103:22 *103:34 24.2666 
6 *103:34 *839:B0 11.4686 
7 *103:34 *831:A 14.3093 
8 *103:22 *842:B0 5.5 
9 *103:16 *845:B0 14.501 
10 *103:12 *836:B0 6.92329 
11 *103:8 *848:B0 13.8517 
*END

*D_NET *104 0.00309573
*CONN
*I *658:C I *D XOR3D2
*I *800:A0 I *D AOI211D1
*I *655:Y O *D NAND2D1
*CAP
1 *658:C 6.08642e-05
2 *800:A0 0.000117243
3 *655:Y 3.43146e-05
4 *104:10 0.000212421
5 *658:C *658:B 0.000903216
6 *658:C *657:A 0.000481584
7 *658:C *800:B0 6.05029e-05
8 *658:C y 8.12828e-05
9 *658:C *922:A 0.000417136
10 *658:C rst 0.000459416
11 *658:C *927:A 0.000184994
12 *658:C *800:A1 6.00218e-05
13 *658:C *783:B0 5.73627e-06
14 *658:C *804:B0 1.69951e-06
15 *658:C *738:C 1.00759e-05
16 *658:C *748:C 5.22015e-06
*RES
1 *655:Y *104:10 11.9079 
2 *104:10 *800:A0 14.5553 
3 *104:10 *658:C 13.0149 
*END

*D_NET *105 0.00155466
*CONN
*I *800:A1 I *D AOI211D1
*I *656:Y O *D NAND2D1
*CAP
1 *800:A1 0.000125611
2 *656:Y 0.000125611
3 *800:A1 *658:B 0.000358288
4 *800:A1 rst 0.000641326
5 *800:A1 *657:A 6.73492e-05
6 *800:A1 *927:A 0.000189595
7 *800:A1 *800:B0 1.0163e-05
8 *800:A1 y 1.02892e-05
9 *800:A1 *922:A 5.50383e-06
10 *800:A1 *811:A1 1.7331e-06
11 *800:A1 *722:B 7.2177e-07
12 *800:A1 *721:A 6.48672e-06
13 *800:A1 x[9] 1.19829e-05
*RES
1 *656:Y *800:A1 25.3271 
*END

*D_NET *106 0.000910814
*CONN
*I *800:B0 I *D AOI211D1
*I *657:Y O *D NOR2D1
*CAP
1 *800:B0 0.000103945
2 *657:Y 0.000103945
3 *800:B0 *658:B 0.000101425
4 *800:B0 *657:A 0.000304427
5 *800:B0 *922:A 5.30797e-05
6 *800:B0 rst 0.000174273
7 *800:B0 *927:A 5.56179e-05
8 *800:B0 y 9.56885e-06
9 *800:B0 *783:B0 9.11131e-07
10 *800:B0 *804:B0 4.75375e-07
11 *800:B0 *738:C 1.94194e-06
12 *800:B0 *748:C 1.20602e-06
*RES
1 *657:Y *800:B0 14.0984 
*END

*D_NET *107 5.28614e-05
*CONN
*I *659:B I *D NOR2D1
*I *658:Y O *D XOR3D2
*CAP
1 *659:B 2.64307e-05
2 *658:Y 2.64307e-05
*RES
1 *658:Y *659:B 11.5213 
*END

*D_NET *108 0.00476973
*CONN
*I *663:C I *D XOR3D2
*I *801:A0 I *D AOI211D1
*I *660:Y O *D NAND2D1
*CAP
1 *663:C 0.000151456
2 *801:A0 1.03086e-05
3 *660:Y 0.000152036
4 *108:10 0.000313801
5 *663:C *736:A 0.000774228
6 *663:C *663:B 0.000558521
7 *663:C x[25] 0.000809974
8 *663:C *801:A1 0.000124953
9 *663:C rst 0.00136251
10 *663:C *677:B 3.02297e-06
11 *663:C *927:A 0.000375991
12 *663:C *673:B 6.77537e-06
13 *663:C x[3] 1.16756e-05
14 *663:C *689:B 2.74496e-06
15 *663:C x[22] 7.00077e-06
16 *663:C x[27] 1.95923e-05
17 *663:C *903:CK 8.07108e-05
18 *663:C *688:C 4.41719e-06
*RES
1 *660:Y *108:10 16.0781 
2 *108:10 *801:A0 11 
3 *108:10 *663:C 16.2831 
*END

*D_NET *109 0.000604112
*CONN
*I *801:A1 I *D AOI211D1
*I *661:Y O *D NAND2D1
*CAP
1 *801:A1 5.91726e-05
2 *661:Y 5.91726e-05
3 *801:A1 *663:B 0.000151676
4 *801:A1 rst 0.000299895
5 *801:A1 *736:A 1.22933e-05
6 *801:A1 x[25] 2.19023e-05
*RES
1 *661:Y *801:A1 23.4877 
*END

*D_NET *110 0.000562378
*CONN
*I *801:B0 I *D AOI211D1
*I *662:Y O *D NOR2D1
*CAP
1 *801:B0 8.10428e-05
2 *662:Y 8.10428e-05
3 *801:B0 *663:A 0.000210605
4 *801:B0 *663:B 0.000189687
*RES
1 *662:Y *801:B0 13.337 
*END

*D_NET *111 0.000614322
*CONN
*I *664:B I *D NOR2D1
*I *663:Y O *D XOR3D2
*CAP
1 *664:B 0.000145656
2 *663:Y 0.000145656
3 *664:B rst 0.000316044
4 *664:B *807:B0 3.84504e-06
5 *664:B *717:A 8.92533e-07
6 *664:B *772:B 9.26656e-07
7 *664:B *791:B0 1.30082e-06
*RES
1 *663:Y *664:B 25.9724 
*END

*D_NET *112 0.0143156
*CONN
*I *668:C I *D XOR3D2
*I *802:A0 I *D AOI211D1
*I *665:Y O *D NAND2D1
*CAP
1 *668:C 4.1465e-05
2 *802:A0 0.000106496
3 *665:Y 0.000559695
4 *112:16 0.000707657
5 *668:C *903:CK 0.000812945
6 *668:C rst 0.00184428
7 *668:C *678:A 0.000300794
8 *668:C *687:A 0.000477836
9 *668:C *802:A1 0.000116597
10 *668:C *679:B 0.000420775
11 *668:C *678:C 0.000596647
12 *668:C *804:A1 0.000209625
13 *668:C *683:B 0.000349678
14 *668:C *668:B 0.00162667
15 *668:C *671:A 0.000808037
16 *668:C *803:B0 0.000503718
17 *668:C *688:C 0.000717369
18 *668:C x[18] 0.000356958
19 *668:C x[19] 0.000214668
20 *668:C *820:A0 0.000471563
21 *668:C *673:B 0.000238358
22 *668:C *667:A 0.000369886
23 *668:C *803:A1 4.35924e-05
24 *668:C *806:B0 4.008e-05
25 *668:C *687:B 5.7156e-05
26 *668:C *677:B 0.000265792
27 *668:C x[22] 0.000363251
28 *668:C x[27] 0.000580671
29 *668:C x[21] 0.000104218
30 *668:C x[9] 2.89664e-05
31 *668:C *928:A 0.000112828
32 *668:C y 0.000294424
33 *668:C x[25] 0.000426675
34 *668:C *802:B0 9.33311e-05
35 *668:C *791:A1 4.89122e-06
36 *668:C *693:C 3.42863e-05
37 *668:C *724:B 1.37107e-05
*RES
1 *665:Y *112:16 41.7913 
2 *112:16 *802:A0 14.198 
3 *112:16 *668:C 12.2417 
*END

*D_NET *113 0.000609373
*CONN
*I *802:A1 I *D AOI211D1
*I *666:Y O *D NAND2D1
*CAP
1 *802:A1 0.000115432
2 *666:Y 0.000115432
3 *802:A1 *903:CK 0.000130312
4 *802:A1 rst 0.000227326
5 *802:A1 *678:A 3.58554e-06
6 *802:A1 *806:B0 7.39181e-06
7 *802:A1 *687:A 6.9956e-06
8 *802:A1 *687:B 2.89855e-06
*RES
1 *666:Y *802:A1 25.0098 
*END

*D_NET *114 0.000792558
*CONN
*I *802:B0 I *D AOI211D1
*I *667:Y O *D NOR2D1
*CAP
1 *802:B0 0.000134205
2 *667:Y 0.000134205
3 *802:B0 *668:B 0.000443695
4 *802:B0 *903:CK 1.60138e-05
5 *802:B0 *667:A 6.44382e-05
*RES
1 *667:Y *802:B0 25.5917 
*END

*D_NET *115 0.000230864
*CONN
*I *669:B I *D NOR2D1
*I *668:Y O *D XOR3D2
*CAP
1 *669:B 0.000115432
2 *668:Y 0.000115432
*RES
1 *668:Y *669:B 25.0098 
*END

*D_NET *116 0.00232767
*CONN
*I *673:C I *D XOR3D2
*I *803:A0 I *D AOI211D1
*I *670:Y O *D NAND2D1
*CAP
1 *673:C 7.3196e-05
2 *803:A0 3.74385e-05
3 *670:Y 9.96627e-05
4 *116:8 0.000210297
5 *673:C rst 0.00128274
6 *673:C *671:A 0.000559858
7 *673:C *663:B 1.50475e-05
8 *673:C *736:A 1.82985e-05
9 *673:C *774:B 1.71442e-05
10 *673:C *816:B0 2.34362e-06
11 *673:C *709:B 1.16431e-05
*RES
1 *670:Y *116:8 14.5611 
2 *116:8 *803:A0 11.902 
3 *116:8 *673:C 13.4249 
*END

*D_NET *117 0.000907653
*CONN
*I *803:A1 I *D AOI211D1
*I *671:Y O *D NAND2D1
*CAP
1 *803:A1 7.76956e-05
2 *671:Y 7.76956e-05
3 *803:A1 *671:A 4.04768e-05
4 *803:A1 rst 0.000317021
5 *803:A1 *903:CK 0.000266924
6 *803:A1 *668:B 1.59306e-05
7 *803:A1 *803:B0 4.18936e-05
8 *803:A1 *688:C 2.95677e-06
9 *803:A1 x[18] 1.80283e-07
10 *803:A1 x[19] 1.43512e-07
11 *803:A1 *820:A0 3.87894e-06
12 *803:A1 *673:B 4.96505e-05
13 *803:A1 *667:A 4.20225e-06
14 *803:A1 *678:A 7.91207e-06
15 *803:A1 *806:B0 1.09179e-06
*RES
1 *671:Y *803:A1 13.2257 
*END

*D_NET *118 0.0014252
*CONN
*I *803:B0 I *D AOI211D1
*I *672:Y O *D NOR2D1
*CAP
1 *803:B0 9.85513e-05
2 *672:Y 9.85513e-05
3 *803:B0 *671:A 9.96777e-05
4 *803:B0 *673:B 0.000777706
5 *803:B0 rst 0.000332332
6 *803:B0 *668:B 6.91483e-06
7 *803:B0 *688:C 5.20153e-06
8 *803:B0 x[18] 2.26505e-07
9 *803:B0 x[19] 5.47554e-07
10 *803:B0 *820:A0 3.10933e-06
11 *803:B0 *667:A 2.37955e-06
*RES
1 *672:Y *803:B0 24.829 
*END

*D_NET *119 5.28614e-05
*CONN
*I *674:B I *D NOR2D1
*I *673:Y O *D XOR3D2
*CAP
1 *674:B 2.64307e-05
2 *673:Y 2.64307e-05
*RES
1 *673:Y *674:B 11.5213 
*END

*D_NET *120 0.00494883
*CONN
*I *678:C I *D XOR3D2
*I *804:A0 I *D AOI211D1
*I *675:Y O *D NAND2D1
*CAP
1 *678:C 1.27749e-05
2 *804:A0 3.6698e-05
3 *675:Y 0.000170607
4 *120:12 0.00022008
5 *678:C *679:B 0.00140609
6 *678:C *677:B 0.000531353
7 *678:C *804:A1 6.88315e-05
8 *678:C *683:B 0.00109767
9 *678:C *678:A 0.000180847
10 *678:C *688:C 0.000106501
11 *678:C rst 7.7422e-05
12 *678:C x[22] 9.87396e-05
13 *678:C x[27] 0.000141574
14 *678:C *683:C 5.65092e-06
15 *678:C *683:A 1.67102e-06
16 *678:C *748:C 1.84372e-05
17 *678:C *805:B0 2.24673e-06
18 *678:C y 0.000150423
19 *678:C *813:A0 3.75892e-05
20 *678:C x[26] 5.0528e-05
21 *678:C x[30] 3.81689e-05
22 *678:C *820:A0 1.75086e-05
23 *678:C x[23] 1.05257e-05
24 *678:C x[7] 2.07442e-06
25 *678:C x[21] 1.93403e-05
26 *678:C x[9] 1.35275e-05
27 *678:C *928:A 7.33312e-05
28 *678:C *903:CK 1.58308e-05
29 *678:C x[25] 0.000342779
*RES
1 *675:Y *120:12 22.4801 
2 *120:12 *804:A0 17.3551 
3 *120:12 *678:C 5.746 
*END

*D_NET *121 0.00094743
*CONN
*I *804:A1 I *D AOI211D1
*I *676:Y O *D NAND2D1
*CAP
1 *804:A1 0.000110185
2 *676:Y 0.000110185
3 *804:A1 *679:B 0.000220517
4 *804:A1 rst 0.000213329
5 *804:A1 *804:B0 2.37522e-05
6 *804:A1 *677:B 9.37354e-05
7 *804:A1 *683:B 5.4218e-06
8 *804:A1 *678:A 0.000142604
9 *804:A1 x[22] 1.51177e-05
10 *804:A1 x[27] 1.25829e-05
*RES
1 *676:Y *804:A1 24.8565 
*END

*D_NET *122 0.000480338
*CONN
*I *804:B0 I *D AOI211D1
*I *677:Y O *D NOR2D1
*CAP
1 *804:B0 4.95559e-05
2 *677:Y 4.95559e-05
3 *804:B0 rst 0.00024922
4 *804:B0 *677:B 0.0001268
5 *804:B0 *783:B0 5.183e-07
6 *804:B0 *738:C 1.06253e-06
7 *804:B0 *748:C 3.62496e-06
*RES
1 *677:Y *804:B0 23.0719 
*END

*D_NET *123 0.00115212
*CONN
*I *679:B I *D NOR2D1
*I *678:Y O *D XOR3D2
*CAP
1 *679:B 0.000167412
2 *678:Y 0.000167412
3 *679:B *677:B 0.000176499
4 *679:B *683:B 0.000168575
5 *679:B *678:A 0.000179039
6 *679:B rst 5.71177e-05
7 *679:B x[22] 0.000140279
8 *679:B x[27] 9.57833e-05
*RES
1 *678:Y *679:B 27.535 
*END

*D_NET *124 0.00737345
*CONN
*I *683:C I *D XOR3D2
*I *805:A0 I *D AOI211D1
*I *680:Y O *D NAND2D1
*CAP
1 *683:C 0.000138544
2 *805:A0 8.84914e-05
3 *680:Y 4.23712e-05
4 *124:6 0.000269407
5 *683:C x[31] 0.000494442
6 *683:C *928:A 0.000798719
7 *683:C *683:B 0.00148474
8 *683:C *683:A 0.00132741
9 *683:C *748:C 0.00022182
10 *683:C y 0.000408134
11 *683:C *805:A1 0.000499023
12 *683:C rst 0.00041926
13 *683:C x[8] 0.00029047
14 *683:C x[20] 7.05658e-05
15 *683:C *813:A0 0.000193246
16 *683:C *742:B 6.22959e-06
17 *683:C p 5.88877e-05
18 *683:C x[28] 1.60177e-05
19 *683:C *747:A 4.21358e-05
20 *683:C *825:B 5.06055e-06
21 *683:C *805:B0 9.77917e-05
22 *683:C x[26] 0.000165747
23 *683:C x[30] 9.42903e-05
24 *683:C *820:A0 0.000101767
25 *683:C x[23] 1.54027e-05
26 *683:C x[7] 2.34909e-05
*RES
1 *680:Y *124:6 6.73 
2 *124:6 *805:A0 19.0771 
3 *124:6 *683:C 21.4141 
*END

*D_NET *125 0.000577835
*CONN
*I *805:A1 I *D AOI211D1
*I *681:Y O *D NAND2D1
*CAP
1 *805:A1 9.7539e-05
2 *681:Y 9.7539e-05
3 *805:A1 *928:A 9.72064e-05
4 *805:A1 rst 0.00021707
5 *805:A1 *813:A0 6.84804e-05
*RES
1 *681:Y *805:A1 24.4572 
*END

*D_NET *126 0.00151294
*CONN
*I *805:B0 I *D AOI211D1
*I *682:Y O *D NOR2D1
*CAP
1 *805:B0 0.000106235
2 *682:Y 0.000106235
3 *805:B0 *683:B 0.000517217
4 *805:B0 *683:A 0.000368437
5 *805:B0 *748:C 0.000300746
6 *805:B0 y 3.32871e-05
7 *805:B0 *813:A0 2.94898e-05
8 *805:B0 x[26] 2.42249e-05
9 *805:B0 x[30] 1.10964e-05
10 *805:B0 *820:A0 4.29208e-06
11 *805:B0 x[23] 6.39038e-06
12 *805:B0 x[7] 5.29096e-06
*RES
1 *682:Y *805:B0 14.1746 
*END

*D_NET *127 0.000616737
*CONN
*I *684:B I *D NOR2D1
*I *683:Y O *D XOR3D2
*CAP
1 *684:B 6.09596e-05
2 *683:Y 6.09596e-05
3 *684:B *693:C 0.000216113
4 *684:B y 9.64319e-05
5 *684:B *820:B0 5.83727e-06
6 *684:B x[30] 1.04476e-05
7 *684:B *928:A 7.73016e-06
8 *684:B *820:A0 3.39372e-05
9 *684:B *688:C 8.48878e-06
10 *684:B rst 0.000115832
*RES
1 *683:Y *684:B 12.6693 
*END

*D_NET *128 0.0042063
*CONN
*I *688:C I *D XOR3D2
*I *806:A0 I *D AOI211D1
*I *685:Y O *D NAND2D1
*CAP
1 *688:C 0.000103041
2 *806:A0 1.03086e-05
3 *685:Y 0.000305256
4 *128:22 0.000418606
5 *688:C x[27] 0.000546201
6 *688:C x[9] 0.000941877
7 *688:C *928:A 0.000863042
8 *688:C y 0.000207328
9 *688:C x[25] 1.79455e-05
10 *688:C *820:A0 0.000151237
11 *688:C rst 4.01624e-05
12 *688:C *693:C 2.47805e-05
13 *688:C *903:CK 2.24223e-05
14 *688:C x[21] 0.000122037
15 *688:C *806:A1 0.000118119
16 *688:C x[22] 7.45752e-06
17 *688:C *807:B0 5.25133e-06
18 *688:C *687:B 2.3168e-05
19 *688:C *783:A0 3.87872e-06
20 *688:C *736:A 2.15027e-05
21 *688:C *668:B 9.36771e-06
22 *688:C *671:A 7.17532e-06
23 *688:C x[18] 4.68739e-06
24 *688:C x[19] 3.0266e-06
25 *688:C *673:B 1.89574e-05
26 *688:C *667:A 4.28966e-06
27 *688:C *820:B0 3.42263e-06
28 *688:C x[30] 7.55415e-06
29 *688:C *677:B 8.51634e-06
30 *688:C *927:A 5.60326e-06
31 *688:C x[3] 1.00382e-05
32 *688:C *689:B 2.48419e-05
33 *688:C x[5] 5.63118e-05
34 *688:C *806:B0 6.12908e-05
35 *688:C *687:A 1.18204e-05
36 *688:C *739:B 1.57733e-05
*RES
1 *685:Y *128:22 31.922 
2 *128:22 *806:A0 11 
3 *128:22 *688:C 14.321 
*END

*D_NET *129 0.000618308
*CONN
*I *806:A1 I *D AOI211D1
*I *686:Y O *D NAND2D1
*CAP
1 *806:A1 7.25867e-05
2 *686:Y 7.25867e-05
3 *806:A1 x[27] 0.000254201
4 *806:A1 *687:B 9.71265e-05
5 *806:A1 *687:A 3.65926e-05
6 *806:A1 x[9] 5.32203e-05
7 *806:A1 *928:A 5.20914e-06
8 *806:A1 y 1.03341e-05
9 *806:A1 x[25] 2.19755e-06
10 *806:A1 x[22] 9.89566e-07
11 *806:A1 *807:B0 1.27517e-06
12 *806:A1 *783:A0 1.18574e-06
13 *806:A1 *736:A 6.10498e-06
14 *806:A1 *739:B 4.69853e-06
*RES
1 *686:Y *806:A1 13.0559 
*END

*D_NET *130 0.00103723
*CONN
*I *806:B0 I *D AOI211D1
*I *687:Y O *D NOR2D1
*CAP
1 *806:B0 0.000100421
2 *687:Y 0.000100421
3 *806:B0 *903:CK 8.35529e-05
4 *806:B0 rst 0.000508203
5 *806:B0 *687:A 0.000184385
6 *806:B0 *687:B 4.57238e-05
7 *806:B0 *678:A 4.57897e-06
8 *806:B0 *668:B 7.01548e-06
9 *806:B0 *667:A 2.92381e-06
*RES
1 *687:Y *806:B0 13.9813 
*END

*D_NET *131 0.000660154
*CONN
*I *689:B I *D NOR2D1
*I *688:Y O *D XOR3D2
*CAP
1 *689:B 7.01204e-05
2 *688:Y 7.01204e-05
3 *689:B x[25] 6.5132e-05
4 *689:B rst 0.000400233
5 *689:B *903:CK 2.74655e-05
6 *689:B *677:B 1.26622e-06
7 *689:B *927:A 2.55856e-06
8 *689:B *673:B 3.1253e-06
9 *689:B x[3] 2.9677e-06
10 *689:B x[22] 2.88942e-06
11 *689:B x[27] 1.42749e-05
*RES
1 *688:Y *689:B 12.9739 
*END

*D_NET *132 0.00635639
*CONN
*I *693:C I *D XOR3D2
*I *807:A0 I *D AOI211D1
*I *690:Y O *D NAND2D1
*CAP
1 *693:C 5.37588e-06
2 *807:A0 5.64646e-05
3 *690:Y 0.000380438
4 *132:14 0.000442278
5 *693:C rst 0.00204705
6 *693:C *820:B0 0.000902853
7 *693:C x[30] 0.000780045
8 *693:C *928:A 0.000158748
9 *693:C y 0.000251032
10 *693:C *820:A0 0.000369434
11 *693:C *724:B 2.91584e-05
12 *693:C *927:A 5.30511e-05
13 *693:C *691:B 0.000245511
14 *693:C *820:A1 6.91048e-05
15 *693:C *922:A 0.000289837
16 *693:C *692:A 0.000101898
17 *693:C *781:A 1.12191e-05
18 *693:C x[26] 0.000113134
19 *693:C *791:A1 2.23621e-06
20 *693:C *687:A 1.38085e-05
21 *693:C *903:CK 3.37094e-05
*RES
1 *690:Y *132:14 17.9699 
2 *132:14 *807:A0 7.19857 
3 *132:14 *693:C 5.5 
*END

*D_NET *133 5.28616e-05
*CONN
*I *807:A1 I *D AOI211D1
*I *691:Y O *D NAND2D1
*CAP
1 *807:A1 2.64307e-05
2 *691:Y 2.64307e-05
*RES
1 *691:Y *807:A1 11.5213 
*END

*D_NET *134 0.00118428
*CONN
*I *807:B0 I *D AOI211D1
*I *692:Y O *D NOR2D1
*CAP
1 *807:B0 6.3426e-05
2 *692:Y 6.3426e-05
3 *807:B0 x[27] 0.000103463
4 *807:B0 x[9] 0.00038897
5 *807:B0 *692:A 0.000229888
6 *807:B0 rst 0.000180201
7 *807:B0 *928:A 1.42175e-06
8 *807:B0 y 1.35169e-05
9 *807:B0 x[25] 1.23714e-06
10 *807:B0 x[22] 3.5383e-07
11 *807:B0 *687:B 2.32399e-06
12 *807:B0 *783:A0 2.23073e-06
13 *807:B0 *736:A 2.06483e-05
14 *807:B0 *691:B 5.00594e-05
15 *807:B0 *903:CK 3.57319e-06
16 *807:B0 x[26] 7.50697e-06
17 *807:B0 x[30] 1.7794e-05
18 *807:B0 *687:A 1.30648e-06
19 *807:B0 *739:B 2.60475e-05
20 *807:B0 *717:A 1.81944e-06
21 *807:B0 *772:B 2.14747e-06
22 *807:B0 *791:B0 2.91716e-06
*RES
1 *692:Y *807:B0 12.7513 
*END

*D_NET *135 0.004085
*CONN
*I *694:B I *D NOR2D1
*I *693:Y O *D XOR3D2
*CAP
1 *694:B 0.000282761
2 *693:Y 0.000282761
3 *694:B clk 0.000230955
4 *694:B *698:B 0.000659995
5 *694:B rst 0.000838022
6 *694:B x[10] 0.000556393
7 *694:B x[11] 7.06475e-05
8 *694:B y 2.7805e-05
9 *694:B *698:C 1.15774e-05
10 *694:B *928:A 9.25167e-05
11 *694:B *813:A0 0.000242625
12 *694:B x[28] 0.000136552
13 *694:B x[6] 3.0639e-05
14 *694:B *819:A1 5.96614e-06
15 *694:B *749:B 0.000210911
16 *694:B *733:A 1.95879e-05
17 *694:B *850:CK 5.28107e-05
18 *694:B *819:B0 5.15188e-06
19 *694:B *697:A 7.19594e-06
20 *694:B x[24] 0.000161398
21 *694:B *922:A 0.000158727
*RES
1 *693:Y *694:B 32.2031 
*END

*D_NET *136 0.00400394
*CONN
*I *698:C I *D XOR3D2
*I *808:A0 I *D AOI211D1
*I *695:Y O *D NAND2D1
*CAP
1 *698:C 5.37588e-06
2 *808:A0 8.83256e-05
3 *695:Y 8.34758e-05
4 *136:12 0.000177177
5 *698:C x[13] 0.000403069
6 *698:C x[29] 0.000447405
7 *698:C x[15] 5.87849e-05
8 *698:C *850:CK 0.000163838
9 *698:C clk 0.00036566
10 *698:C y 0.000263793
11 *698:C *698:B 0.000550109
12 *698:C rst 0.000127646
13 *698:C *699:B 0.000861087
14 *698:C x[2] 4.8326e-06
15 *698:C *763:C 9.90374e-06
16 *698:C *752:B 2.4161e-06
17 *698:C x[17] 7.37279e-05
18 *698:C *764:B 5.02445e-05
19 *698:C *733:B 4.45693e-05
20 *698:C *829:C 4.45605e-06
21 *698:C *861:CK 1.99808e-05
22 *698:C x[11] 5.02556e-05
23 *698:C *928:A 1.03754e-05
24 *698:C *813:A0 3.22107e-05
25 *698:C x[28] 7.82738e-06
26 *698:C *697:A 3.92705e-05
27 *698:C x[24] 2.16493e-05
28 *698:C *922:A 3.64817e-05
*RES
1 *695:Y *136:12 18.9424 
2 *136:12 *808:A0 19.1357 
3 *136:12 *698:C 5.5 
*END

*D_NET *137 5.28614e-05
*CONN
*I *808:A1 I *D AOI211D1
*I *696:Y O *D NAND2D1
*CAP
1 *808:A1 2.64307e-05
2 *696:Y 2.64307e-05
*RES
1 *696:Y *808:A1 11.5213 
*END

*D_NET *138 0.00230353
*CONN
*I *808:B0 I *D AOI211D1
*I *697:Y O *D NOR2D1
*CAP
1 *808:B0 0.00010782
2 *697:Y 0.00010782
3 *808:B0 x[15] 0.000111168
4 *808:B0 y 0.000443684
5 *808:B0 *697:A 0.000388248
6 *808:B0 rst 0.000823403
7 *808:B0 *821:B0 3.5272e-06
8 *808:B0 *761:B 3.04016e-06
9 *808:B0 *830:B 4.44758e-07
10 *808:B0 x[13] 5.90237e-05
11 *808:B0 x[17] 1.14403e-05
12 *808:B0 x[2] 2.59661e-06
13 *808:B0 *829:C 1.61316e-06
14 *808:B0 *850:CK 2.01143e-05
15 *808:B0 *763:C 8.47953e-06
16 *808:B0 *698:B 0.00016689
17 *808:B0 x[11] 4.42224e-05
*RES
1 *697:Y *808:B0 14.2273 
*END

*D_NET *139 0.00273107
*CONN
*I *699:B I *D NOR2D1
*I *698:Y O *D XOR3D2
*CAP
1 *699:B 0.000214864
2 *698:Y 0.000214864
3 *699:B x[29] 0.000533622
4 *699:B x[13] 0.000128624
5 *699:B x[15] 0.000556221
6 *699:B y 0.000132117
7 *699:B rst 0.000801402
8 *699:B *834:B0 6.44052e-06
9 *699:B *787:B0 2.65151e-06
10 *699:B *761:A 1.28943e-05
11 *699:B x[4] 3.22204e-06
12 *699:B *821:A1 1.97125e-05
13 *699:B x[17] 3.85135e-05
14 *699:B *861:CK 5.36274e-05
15 *699:B *718:C 1.22945e-05
*RES
1 *698:Y *699:B 29.4971 
*END

*D_NET *140 0.00321491
*CONN
*I *703:C I *D XOR3D2
*I *809:A0 I *D AOI211D1
*I *700:Y O *D NAND2D1
*CAP
1 *703:C 5.37588e-06
2 *809:A0 0.000141839
3 *700:Y 0.000114072
4 *140:10 0.000261287
5 *703:C x[14] 0.00161823
6 *703:C *851:CK 0.000317485
7 *703:C *704:B 0.000448368
8 *703:C x[16] 5.15659e-05
9 *703:C x[11] 2.98695e-05
10 *703:C x[3] 1.49709e-05
11 *703:C x[13] 1.8556e-05
12 *703:C rst 4.18438e-05
13 *703:C x[12] 4.55736e-06
14 *703:C y 0.000101429
15 *703:C x[31] 9.44867e-06
16 *703:C *706:B 3.60172e-05
*RES
1 *700:Y *140:10 9.11386 
2 *140:10 *809:A0 21.2033 
3 *140:10 *703:C 5.5 
*END

*D_NET *141 0.000229029
*CONN
*I *809:A1 I *D AOI211D1
*I *701:Y O *D NAND2D1
*CAP
1 *809:A1 0.000114515
2 *701:Y 0.000114515
*RES
1 *701:Y *809:A1 14.4499 
*END

*D_NET *142 0.00182697
*CONN
*I *809:B0 I *D AOI211D1
*I *702:Y O *D NOR2D1
*CAP
1 *809:B0 0.000117862
2 *702:Y 0.000117862
3 *809:B0 *702:A 0.000312567
4 *809:B0 rst 0.00108995
5 *809:B0 *703:B 0.000188724
*RES
1 *702:Y *809:B0 14.5611 
*END

*D_NET *143 0.00182693
*CONN
*I *704:B I *D NOR2D1
*I *703:Y O *D XOR3D2
*CAP
1 *704:B 0.000184211
2 *703:Y 0.000184211
3 *704:B x[14] 0.000744112
4 *704:B *706:B 0.000163001
5 *704:B rst 0.000377351
6 *704:B *772:B 6.25867e-06
7 *704:B *832:A1 2.45094e-06
8 *704:B x[2] 3.23752e-06
9 *704:B *772:A 6.37835e-06
10 *704:B *832:A0 7.73496e-06
11 *704:B *779:B 1.00841e-06
12 *704:B *778:C 5.37765e-06
13 *704:B x[16] 4.47166e-05
14 *704:B x[11] 3.65768e-05
15 *704:B x[3] 2.25769e-05
16 *704:B *851:CK 3.77237e-05
*RES
1 *703:Y *704:B 27.9333 
*END

*D_NET *144 0.00172024
*CONN
*I *810:A0 I *D AOI211D1
*I *708:C I *D XOR3D2
*I *705:Y O *D NAND2D1
*CAP
1 *810:A0 5.37588e-06
2 *708:C 8.2009e-05
3 *705:Y 0.000173776
4 *144:16 0.000261161
5 *810:A0 *706:A 0.000324546
6 *810:A0 *810:A1 0.00015141
7 *810:A0 rst 0.000448812
8 *810:A0 *706:B 8.28164e-05
9 *810:A0 *810:B0 8.86287e-05
10 *810:A0 *861:CK 0.000101706
*RES
1 *705:Y *144:16 21.5015 
2 *144:16 *708:C 8.04786 
3 *144:16 *810:A0 5.5 
*END

*D_NET *145 0.000298437
*CONN
*I *810:A1 I *D AOI211D1
*I *706:Y O *D NAND2D1
*CAP
1 *810:A1 5.35606e-05
2 *706:Y 5.35606e-05
3 *810:A1 *706:A 0.000116302
4 *810:A1 *706:B 4.33964e-05
5 *810:A1 *810:B0 2.11498e-05
6 *810:A1 *861:CK 1.04679e-05
*RES
1 *706:Y *810:A1 12.4233 
*END

*D_NET *146 0.00047827
*CONN
*I *810:B0 I *D AOI211D1
*I *707:Y O *D NOR2D1
*CAP
1 *810:B0 4.20739e-05
2 *707:Y 4.20739e-05
3 *810:B0 *706:A 0.000369578
4 *810:B0 *706:B 1.41987e-05
5 *810:B0 *861:CK 1.03451e-05
*RES
1 *707:Y *810:B0 22.8551 
*END

*D_NET *147 0.00315071
*CONN
*I *709:B I *D NOR2D1
*I *708:Y O *D XOR3D2
*CAP
1 *709:B 0.000234346
2 *708:Y 0.000234346
3 *709:B *893:CK 0.00137132
4 *709:B rst 0.000842461
5 *709:B *717:B 1.72505e-05
6 *709:B *711:B 0.000108414
7 *709:B *922:A 0.000219623
8 *709:B *712:A 2.67216e-05
9 *709:B *663:B 1.40574e-05
10 *709:B *736:A 2.49312e-05
11 *709:B *774:B 5.45004e-05
12 *709:B *816:B0 2.73493e-06
*RES
1 *708:Y *709:B 30.241 
*END

*D_NET *148 0.00170528
*CONN
*I *713:C I *D XOR3D2
*I *811:A0 I *D AOI211D1
*I *710:Y O *D NAND2D1
*CAP
1 *713:C 5.37588e-06
2 *811:A0 9.75279e-05
3 *710:Y 0.000144509
4 *148:22 0.000247412
5 *713:C *712:A 0.000698504
6 *713:C *811:B0 6.61567e-05
7 *713:C *922:A 0.000280392
8 *713:C rst 0.000105524
9 *713:C *893:CK 5.98842e-05
*RES
1 *710:Y *148:22 20.613 
2 *148:22 *811:A0 19.698 
3 *148:22 *713:C 5.5 
*END

*D_NET *149 0.00112365
*CONN
*I *811:A1 I *D AOI211D1
*I *711:Y O *D NAND2D1
*CAP
1 *811:A1 9.7539e-05
2 *711:Y 9.7539e-05
3 *811:A1 rst 0.000499403
4 *811:A1 *711:B 0.000269016
5 *811:A1 *722:B 2.96913e-06
6 *811:A1 *721:A 1.49233e-05
7 *811:A1 x[9] 5.24902e-06
8 *811:A1 *893:CK 0.000137016
*RES
1 *711:Y *811:A1 24.4572 
*END

*D_NET *150 0.000740388
*CONN
*I *811:B0 I *D AOI211D1
*I *712:Y O *D NOR2D1
*CAP
1 *811:B0 6.75354e-05
2 *712:Y 6.75354e-05
3 *811:B0 *712:A 0.000553323
4 *811:B0 rst 2.24509e-05
5 *811:B0 *893:CK 2.95428e-05
*RES
1 *712:Y *811:B0 23.7337 
*END

*D_NET *151 0.00120744
*CONN
*I *714:B I *D NOR2D1
*I *713:Y O *D XOR3D2
*CAP
1 *714:B 0.000202599
2 *713:Y 0.000202599
3 *714:B *922:A 0.000208106
4 *714:B *717:A 0.000198109
5 *714:B *768:C 4.61054e-06
6 *714:B *728:C 9.79569e-06
7 *714:B *671:A 4.15485e-07
8 *714:B *726:B 1.49464e-05
9 *714:B *727:A 9.758e-06
10 *714:B *903:CK 4.41538e-06
11 *714:B x[8] 5.07689e-06
12 *714:B x[9] 1.43662e-06
13 *714:B *812:B0 6.9703e-06
14 *714:B *717:B 4.76342e-05
15 *714:B rst 0.000290972
*RES
1 *713:Y *714:B 17.3784 
*END

*D_NET *152 0.00827072
*CONN
*I *718:C I *D XOR3D2
*I *812:A0 I *D AOI211D1
*I *715:Y O *D NAND2D1
*CAP
1 *718:C 1.03086e-05
2 *812:A0 9.64397e-05
3 *715:Y 0.00044033
4 *152:10 0.000547079
5 *718:C *721:A 0.00174375
6 *718:C x[29] 0.000578065
7 *718:C *813:B0 0.000323289
8 *718:C *813:A0 0.000673494
9 *718:C *717:B 0.000513831
10 *718:C *722:B 0.000229622
11 *718:C *840:A1 0.000112089
12 *718:C y 0.001158
13 *718:C *861:CK 0.00112192
14 *718:C *706:A 4.87037e-06
15 *718:C rst 7.43411e-05
16 *718:C *839:A0 0.000215959
17 *718:C *922:A 4.60358e-05
18 *718:C *834:B0 1.35374e-06
19 *718:C *787:B0 3.25663e-05
20 *718:C *761:A 1.06743e-06
21 *718:C x[4] 6.91781e-07
22 *718:C *821:A1 1.48911e-06
23 *718:C x[13] 2.33522e-05
24 *718:C x[17] 3.13988e-06
25 *718:C x[15] 1.08785e-05
26 *718:C *840:B0 5.67649e-05
27 *718:C *717:A 0.000185928
28 *718:C *893:CK 6.40545e-05
*RES
1 *715:Y *152:10 26.7206 
2 *152:10 *812:A0 14.1336 
3 *152:10 *718:C 11 
*END

*D_NET *153 5.28614e-05
*CONN
*I *812:A1 I *D AOI211D1
*I *716:Y O *D NAND2D1
*CAP
1 *812:A1 2.64307e-05
2 *716:Y 2.64307e-05
*RES
1 *716:Y *812:A1 11.5213 
*END

*D_NET *154 0.00038443
*CONN
*I *812:B0 I *D AOI211D1
*I *717:Y O *D NOR2D1
*CAP
1 *812:B0 4.29905e-05
2 *717:Y 4.29905e-05
3 *812:B0 *717:A 7.45333e-05
4 *812:B0 *717:B 0.000189773
5 *812:B0 rst 3.41435e-05
*RES
1 *717:Y *812:B0 12.0719 
*END

*D_NET *155 0.000143412
*CONN
*I *719:B I *D NOR2D1
*I *718:Y O *D XOR3D2
*CAP
1 *719:B 7.17059e-05
2 *718:Y 7.17059e-05
*RES
1 *718:Y *719:B 13.0266 
*END

*D_NET *156 0.0189615
*CONN
*I *813:A0 I *D AOI211D1
*I *723:C I *D XOR3D2
*I *720:Y O *D NAND2D1
*CAP
1 *813:A0 5.12475e-05
2 *723:C 7.03819e-05
3 *720:Y 0.000870335
4 *156:32 0.000350239
5 *156:24 0.00109895
6 *813:A0 x[31] 0.00168062
7 *813:A0 x[20] 0.000117451
8 *813:A0 *742:B 0.000119066
9 *813:A0 p 6.70429e-05
10 *813:A0 x[28] 0.00332115
11 *813:A0 x[24] 0.00054089
12 *813:A0 *734:B 0.000219661
13 *813:A0 rst 0.00120617
14 *813:A0 clk 0.000383199
15 *813:A0 y 0.000127922
16 *813:A0 *721:A 0.000287502
17 *813:A0 *813:B0 0.000176404
18 *813:A0 *861:CK 0.000855903
19 *813:A0 *683:B 0.000247118
20 *813:A0 *752:B 0.00134309
21 *813:A0 *753:C 0.000207897
22 *813:A0 *841:B 0.000696505
23 *813:A0 *823:C 6.80389e-05
24 *813:A0 *754:B 0.000103119
25 *813:A0 *843:A0 0.000189983
26 *813:A0 x[8] 0.000569441
27 *813:A0 *928:A 0.000632081
28 *813:A0 *747:A 9.6293e-05
29 *813:A0 *825:B 0.000196152
30 *813:A0 *733:C 9.19087e-05
31 *813:A0 *922:A 0.000572315
32 *813:A0 *749:B 0.000259411
33 *813:A0 *698:B 4.51599e-05
34 *813:A0 x[11] 0.000292793
35 *813:A0 x[29] 8.22562e-05
36 *813:A0 *717:B 3.09318e-05
37 *813:A0 *722:B 8.45695e-05
38 *813:A0 *840:A1 4.72925e-05
39 *813:A0 *683:A 3.01356e-05
40 *813:A0 *748:C 0.00031866
41 *813:A0 x[26] 0.000167712
42 *813:A0 x[30] 5.31381e-05
43 *813:A0 *820:A0 2.88551e-05
44 *813:A0 x[23] 3.72681e-05
45 *813:A0 x[7] 2.57984e-05
46 *813:A0 *753:A 1.31589e-05
47 *813:A0 *819:B0 1.0659e-05
48 *813:A0 *759:B 0.000343804
49 *813:A0 x[10] 0.000121565
50 *813:A0 x[13] 9.0996e-05
51 *813:A0 *850:CK 6.58478e-05
52 *813:A0 *739:B 0.000110158
53 *813:A0 *742:A 0.000110639
54 *813:A0 *829:C 2.39647e-05
55 *813:A0 x[0] 8.68491e-06
*RES
1 *720:Y *156:24 45.1356 
2 *156:24 *156:32 19.3757 
3 *156:32 *723:C 7.66129 
4 *156:32 *813:A0 17.935 
*END

*D_NET *157 0.000808365
*CONN
*I *813:A1 I *D AOI211D1
*I *721:Y O *D NAND2D1
*CAP
1 *813:A1 7.17059e-05
2 *721:Y 7.17059e-05
3 *813:A1 *722:B 0.000338794
4 *813:A1 *721:A 0.000326158
*RES
1 *721:Y *813:A1 13.0266 
*END

*D_NET *158 0.000198907
*CONN
*I *813:B0 I *D AOI211D1
*I *722:Y O *D NOR2D1
*CAP
1 *813:B0 4.9473e-05
2 *722:Y 4.9473e-05
3 *813:B0 *721:A 4.27938e-05
4 *813:B0 *722:B 4.44536e-05
5 *813:B0 *861:CK 7.71226e-06
6 *813:B0 x[29] 1.57891e-06
7 *813:B0 *717:B 2.58771e-06
8 *813:B0 *840:A1 2.25668e-07
9 *813:B0 y 6.0889e-07
*RES
1 *722:Y *813:B0 23.1011 
*END

*D_NET *159 0.00282252
*CONN
*I *724:B I *D NOR2D1
*I *723:Y O *D XOR3D2
*CAP
1 *724:B 0.000342759
2 *723:Y 0.000342759
3 *724:B rst 0.00204092
4 *724:B *927:A 3.54515e-05
5 *724:B *791:A1 2.39868e-05
6 *724:B y 6.24368e-06
7 *724:B *687:A 8.67264e-06
8 *724:B *903:CK 2.17328e-05
*RES
1 *723:Y *724:B 32.3142 
*END

*D_NET *160 0.00172511
*CONN
*I *728:C I *D XOR3D2
*I *814:A0 I *D AOI211D1
*I *725:Y O *D NAND2D1
*CAP
1 *728:C 5.37588e-06
2 *814:A0 0.000136664
3 *725:Y 6.13973e-05
4 *160:8 0.000203437
5 *728:C *922:A 0.000567211
6 *728:C *814:A1 4.10086e-05
7 *728:C *814:B0 0.000118834
8 *728:C rst 0.000381926
9 *728:C *768:C 5.75714e-06
10 *728:C *671:A 1.28776e-06
11 *728:C *726:B 9.48788e-05
12 *728:C *727:A 8.38322e-05
13 *728:C *903:CK 1.04828e-05
14 *728:C x[8] 9.49409e-06
15 *728:C x[9] 3.51883e-06
*RES
1 *725:Y *160:8 7.36257 
2 *160:8 *814:A0 31.6527 
3 *160:8 *728:C 5.5 
*END

*D_NET *161 0.000944803
*CONN
*I *814:A1 I *D AOI211D1
*I *726:Y O *D NAND2D1
*CAP
1 *814:A1 0.000114515
2 *726:Y 0.000114515
3 *814:A1 *727:A 0.000497182
4 *814:A1 *726:B 0.000218593
*RES
1 *726:Y *814:A1 14.4499 
*END

*D_NET *162 0.000192026
*CONN
*I *814:B0 I *D AOI211D1
*I *727:Y O *D NOR2D1
*CAP
1 *814:B0 5.60269e-05
2 *727:Y 5.60269e-05
3 *814:B0 *727:A 7.99718e-05
*RES
1 *727:Y *814:B0 12.5053 
*END

*D_NET *163 0.000199965
*CONN
*I *729:B I *D NOR2D1
*I *728:Y O *D XOR3D2
*CAP
1 *729:B 3.96433e-05
2 *728:Y 3.96433e-05
3 *729:B rst 0.000120678
*RES
1 *728:Y *729:B 11.9606 
*END

*D_NET *164 0.00161001
*CONN
*I *733:C I *D XOR3D2
*I *815:A0 I *D AOI211D1
*I *730:Y O *D NAND2D1
*CAP
1 *733:C 5.37588e-06
2 *815:A0 0.00011274
3 *730:Y 7.85431e-05
4 *164:12 0.000196659
5 *733:C x[28] 0.000141811
6 *733:C *734:B 0.00029384
7 *733:C *922:A 7.65349e-05
8 *733:C *733:B 0.000240637
9 *733:C *815:B0 5.43554e-05
10 *733:C x[24] 6.69841e-05
11 *733:C rst 0.000174572
12 *733:C clk 2.80039e-05
13 *733:C *749:B 7.24366e-06
14 *733:C *698:B 2.82663e-05
15 *733:C x[31] 3.06469e-05
16 *733:C *825:B 2.37723e-05
17 *733:C *733:A 1.44933e-05
18 *733:C x[13] 1.807e-05
19 *733:C x[29] 1.74577e-05
*RES
1 *730:Y *164:12 18.7784 
2 *164:12 *815:A0 20.0436 
3 *164:12 *733:C 5.5 
*END

*D_NET *165 5.28614e-05
*CONN
*I *815:A1 I *D AOI211D1
*I *731:Y O *D NAND2D1
*CAP
1 *815:A1 2.64307e-05
2 *731:Y 2.64307e-05
*RES
1 *731:Y *815:A1 11.5213 
*END

*D_NET *166 0.00081571
*CONN
*I *815:B0 I *D AOI211D1
*I *732:Y O *D NOR2D1
*CAP
1 *815:B0 0.000102888
2 *732:Y 0.000102888
3 *815:B0 *733:B 0.000210982
4 *815:B0 rst 0.000122211
5 *815:B0 *733:A 0.000217489
6 *815:B0 x[13] 3.33445e-05
7 *815:B0 x[29] 2.59088e-05
*RES
1 *732:Y *815:B0 14.0633 
*END

*D_NET *167 0.00305548
*CONN
*I *734:B I *D NOR2D1
*I *733:Y O *D XOR3D2
*CAP
1 *734:B 0.000205993
2 *733:Y 0.000205993
3 *734:B x[28] 0.000988889
4 *734:B rst 0.000365472
5 *734:B *922:A 0.000520613
6 *734:B *859:CK 0.0002313
7 *734:B x[24] 7.0416e-05
8 *734:B clk 1.15119e-05
9 *734:B *749:B 5.66871e-06
10 *734:B *698:B 7.53565e-06
11 *734:B x[31] 4.08839e-05
12 *734:B *825:B 5.33865e-05
13 *734:B *843:A0 1.27012e-05
14 *734:B x[26] 2.67402e-05
15 *734:B *843:B0 3.1249e-06
16 *734:B *742:A 1.13665e-05
17 *734:B *825:C 0.000109409
18 *734:B *841:B 2.07643e-06
19 *734:B x[16] 9.8316e-06
20 *734:B *781:A 1.46627e-05
21 *734:B *756:A 1.117e-05
22 *734:B y 0.0001117
23 *734:B *928:A 3.5042e-05
*RES
1 *733:Y *734:B 28.8177 
*END

*D_NET *168 0.000631517
*CONN
*I *738:C I *D XOR3D2
*I *816:A0 I *D AOI211D1
*I *735:Y O *D NAND2D1
*CAP
1 *738:C 5.37588e-06
2 *816:A0 6.54492e-05
3 *735:Y 5.06511e-05
4 *168:8 0.000121476
5 *738:C rst 0.000378599
6 *738:C *783:B0 4.3994e-06
7 *738:C *748:C 5.56662e-06
*RES
1 *735:Y *168:8 7.00529 
2 *168:8 *816:A0 7.49729 
3 *168:8 *738:C 5.5 
*END

*D_NET *169 5.28614e-05
*CONN
*I *816:A1 I *D AOI211D1
*I *736:Y O *D NAND2D1
*CAP
1 *816:A1 2.64307e-05
2 *736:Y 2.64307e-05
*RES
1 *736:Y *816:A1 11.5213 
*END

*D_NET *170 0.00110423
*CONN
*I *816:B0 I *D AOI211D1
*I *737:Y O *D NOR2D1
*CAP
1 *816:B0 5.66234e-05
2 *737:Y 5.66234e-05
3 *816:B0 rst 0.000573594
4 *816:B0 *736:A 0.000167561
5 *816:B0 *738:B 0.000165032
6 *816:B0 *663:B 5.87885e-06
7 *816:B0 *774:B 2.46175e-06
8 *816:B0 x[27] 7.64598e-05
*RES
1 *737:Y *816:B0 23.435 
*END

*D_NET *171 0.00249751
*CONN
*I *739:B I *D NOR2D1
*I *738:Y O *D XOR3D2
*CAP
1 *739:B 0.000171299
2 *738:Y 0.000171299
3 *739:B *742:B 0.000892112
4 *739:B x[26] 0.000395356
5 *739:B x[27] 0.000479425
6 *739:B *742:A 9.7577e-05
7 *739:B y 2.25276e-05
8 *739:B rst 4.07888e-05
9 *739:B x[31] 3.15876e-05
10 *739:B x[30] 1.7049e-05
11 *739:B *928:A 1.44435e-05
12 *739:B *781:B 1.1609e-05
13 *739:B *756:A 1.66383e-05
14 *739:B *692:A 4.17958e-05
15 *739:B *837:B0 6.88711e-06
16 *739:B *687:A 3.54238e-06
17 *739:B x[9] 7.50563e-05
18 *739:B x[25] 5.90178e-06
19 *739:B x[22] 2.61854e-06
*RES
1 *738:Y *739:B 27.7283 
*END

*D_NET *172 0.00214318
*CONN
*I *743:C I *D XOR3D2
*I *817:A0 I *D AOI211D1
*I *740:Y O *D NAND2D1
*CAP
1 *743:C 4.63977e-05
2 *817:A0 5.06511e-05
3 *740:Y 4.73039e-05
4 *172:6 0.000144353
5 *743:C *742:A 0.000145453
6 *743:C x[31] 6.86541e-05
7 *743:C y 0.000581659
8 *743:C x[24] 0.000608543
9 *743:C rst 0.000450167
*RES
1 *740:Y *172:6 6.894 
2 *172:6 *817:A0 7.00529 
3 *172:6 *743:C 17.7417 
*END

*D_NET *173 5.28614e-05
*CONN
*I *817:A1 I *D AOI211D1
*I *741:Y O *D NAND2D1
*CAP
1 *817:A1 2.64307e-05
2 *741:Y 2.64307e-05
*RES
1 *741:Y *817:A1 11.5213 
*END

*D_NET *174 0.000217982
*CONN
*I *817:B0 I *D AOI211D1
*I *742:Y O *D NOR2D1
*CAP
1 *817:B0 4.54569e-05
2 *742:Y 4.54569e-05
3 *817:B0 rst 0.000127068
*RES
1 *742:Y *817:B0 12.1539 
*END

*D_NET *175 0.00109446
*CONN
*I *744:B I *D NOR2D1
*I *743:Y O *D XOR3D2
*CAP
1 *744:B 9.85513e-05
2 *743:Y 9.85513e-05
3 *744:B rst 0.000897357
*RES
1 *743:Y *744:B 24.829 
*END

*D_NET *176 0.00547144
*CONN
*I *748:C I *D XOR3D2
*I *818:A0 I *D AOI211D1
*I *745:Y O *D NAND2D1
*CAP
1 *748:C 1.94693e-05
2 *818:A0 4.23712e-05
3 *745:Y 0.000298131
4 *176:14 0.000359972
5 *748:C *683:B 0.000642498
6 *748:C *683:A 0.000507833
7 *748:C *756:A 0.000675122
8 *748:C *756:B 0.000350946
9 *748:C *747:A 0.000370047
10 *748:C rst 0.000400168
11 *748:C y 0.000125319
12 *748:C x[26] 0.000315187
13 *748:C x[30] 5.39411e-05
14 *748:C *820:A0 3.50744e-05
15 *748:C x[23] 2.00757e-05
16 *748:C x[7] 2.34562e-05
17 *748:C *928:A 0.000269304
18 *748:C *922:A 0.000172679
19 *748:C *820:A1 1.5096e-05
20 *748:C *749:B 0.00014685
21 *748:C *748:B 9.42429e-05
22 *748:C x[9] 5.94857e-05
23 *748:C x[27] 4.48188e-05
24 *748:C x[31] 0.000347387
25 *748:C x[8] 7.95445e-05
26 *748:C *783:B0 2.4185e-06
*RES
1 *745:Y *176:14 26.0471 
2 *176:14 *818:A0 6.73 
3 *176:14 *748:C 5.96857 
*END

*D_NET *177 0.000675805
*CONN
*I *818:A1 I *D AOI211D1
*I *746:Y O *D NAND2D1
*CAP
1 *818:A1 4.9473e-05
2 *746:Y 4.9473e-05
3 *818:A1 *748:B 0.000371976
4 *818:A1 *818:B0 0.000117618
5 *818:A1 x[31] 8.92981e-06
6 *818:A1 rst 1.34789e-05
7 *818:A1 *747:A 5.87787e-05
8 *818:A1 x[8] 6.0771e-06
*RES
1 *746:Y *818:A1 23.1011 
*END

*D_NET *178 0.000363429
*CONN
*I *818:B0 I *D AOI211D1
*I *747:Y O *D NOR2D1
*CAP
1 *818:B0 4.9473e-05
2 *747:Y 4.9473e-05
3 *818:B0 *748:B 0.000129688
4 *818:B0 rst 3.63385e-05
5 *818:B0 *747:A 8.38151e-05
6 *818:B0 x[31] 1.0367e-05
7 *818:B0 x[8] 4.27457e-06
*RES
1 *747:Y *818:B0 23.1011 
*END

*D_NET *179 0.00312625
*CONN
*I *749:B I *D NOR2D1
*I *748:Y O *D XOR3D2
*CAP
1 *749:B 0.000190615
2 *748:Y 0.000190615
3 *749:B x[28] 0.000269998
4 *749:B *922:A 0.000235729
5 *749:B x[10] 0.000276704
6 *749:B *747:A 0.000985747
7 *749:B x[24] 0.000169821
8 *749:B rst 0.000187026
9 *749:B clk 5.15131e-05
10 *749:B *698:B 1.81323e-05
11 *749:B x[31] 7.68956e-06
12 *749:B *825:B 4.41806e-06
13 *749:B x[6] 2.51744e-05
14 *749:B *819:A1 8.09308e-06
15 *749:B *733:A 6.28169e-06
16 *749:B *850:CK 8.02236e-05
17 *749:B *819:B0 7.04565e-06
18 *749:B *748:B 0.000123227
19 *749:B *820:A1 1.32222e-05
20 *749:B x[9] 1.95108e-05
21 *749:B x[27] 1.58315e-05
22 *749:B x[8] 0.000239628
*RES
1 *748:Y *749:B 28.5307 
*END

*D_NET *180 0.00318139
*CONN
*I *753:C I *D XOR3D2
*I *819:A0 I *D AOI211D1
*I *750:Y O *D NAND2D1
*CAP
1 *753:C 5.37588e-06
2 *819:A0 0.000127373
3 *750:Y 0.000117419
4 *180:8 0.000250167
5 *753:C *752:B 0.000281191
6 *753:C *759:B 0.000236562
7 *753:C *922:A 0.000294903
8 *753:C rst 0.000703637
9 *753:C *761:B 0.000170981
10 *753:C *754:B 3.86034e-05
11 *753:C y 0.000316496
12 *753:C x[24] 0.000144327
13 *753:C *753:A 2.7893e-05
14 *753:C *819:B0 3.54877e-05
15 *753:C x[10] 0.000296331
16 *753:C x[13] 5.65922e-05
17 *753:C *850:CK 3.97942e-05
18 *753:C *761:A 2.5593e-06
19 *753:C *821:B0 2.22964e-06
20 *753:C x[15] 1.19813e-05
21 *753:C *764:B 2.55449e-06
22 *753:C *763:C 1.89324e-05
*RES
1 *750:Y *180:8 9.22514 
2 *180:8 *819:A0 20.5941 
3 *180:8 *753:C 5.5 
*END

*D_NET *181 0.00131073
*CONN
*I *819:A1 I *D AOI211D1
*I *751:Y O *D NAND2D1
*CAP
1 *819:A1 0.000108701
2 *751:Y 0.000108701
3 *819:A1 x[10] 0.000289791
4 *819:A1 *819:B0 0.000136227
5 *819:A1 rst 0.000135639
6 *819:A1 *753:A 0.000290665
7 *819:A1 *922:A 0.000208846
8 *819:A1 x[6] 1.04803e-05
9 *819:A1 *733:A 8.1646e-07
10 *819:A1 *850:CK 2.08636e-05
*RES
1 *751:Y *819:A1 14.2566 
*END

*D_NET *182 0.000867992
*CONN
*I *819:B0 I *D AOI211D1
*I *752:Y O *D NOR2D1
*CAP
1 *819:B0 7.47243e-05
2 *752:Y 7.47243e-05
3 *819:B0 *752:B 0.000224119
4 *819:B0 *753:A 2.30418e-05
5 *819:B0 x[10] 0.000220009
6 *819:B0 rst 0.000100327
7 *819:B0 x[24] 7.71995e-06
8 *819:B0 *759:B 6.89112e-06
9 *819:B0 *922:A 9.3076e-05
10 *819:B0 x[13] 2.26051e-05
11 *819:B0 *850:CK 1.46735e-05
12 *819:B0 x[6] 5.09092e-06
13 *819:B0 *733:A 9.89017e-07
*RES
1 *752:Y *819:B0 23.9446 
*END

*D_NET *183 0.000234024
*CONN
*I *754:B I *D NOR2D1
*I *753:Y O *D XOR3D2
*CAP
1 *754:B 4.46232e-05
2 *753:Y 4.46232e-05
3 *754:B *841:B 2.32274e-07
4 *754:B x[28] 7.43947e-07
5 *754:B *752:B 2.14672e-05
6 *754:B rst 7.81065e-05
7 *754:B x[31] 9.24135e-06
8 *754:B x[24] 2.92624e-05
9 *754:B y 5.34953e-06
10 *754:B p 3.74346e-07
*RES
1 *753:Y *754:B 22.9079 
*END

*D_NET *184 0.00327958
*CONN
*I *820:A0 I *D AOI211D1
*I *758:C I *D XOR3D2
*I *755:Y O *D NAND2D1
*CAP
1 *820:A0 1.94693e-05
2 *758:C 3.42674e-05
3 *755:Y 0.000286349
4 *184:16 0.000340086
5 *820:A0 *683:B 0.000144281
6 *820:A0 y 0.000122988
7 *820:A0 x[26] 0.000142677
8 *820:A0 x[30] 0.000587401
9 *820:A0 x[18] 5.99374e-05
10 *820:A0 x[19] 0.000303424
11 *820:A0 *928:A 0.000198873
12 *820:A0 *922:A 0.000242864
13 *820:A0 x[21] 0.000219219
14 *820:A0 *683:A 1.07365e-05
15 *820:A0 x[23] 1.2449e-05
16 *820:A0 x[7] 2.93611e-06
17 *820:A0 *668:B 1.15648e-05
18 *820:A0 *671:A 6.36505e-06
19 *820:A0 *673:B 1.5071e-05
20 *820:A0 *667:A 5.23074e-06
21 *820:A0 rst 4.16344e-05
22 *820:A0 *820:B0 0.000233741
23 *820:A0 *691:B 1.94865e-05
24 *820:A0 *820:A1 7.53306e-05
25 *820:A0 *692:A 6.10074e-06
26 *820:A0 *781:A 4.33437e-06
27 *820:A0 x[5] 0.00013276
*RES
1 *755:Y *184:16 25.7836 
2 *184:16 *758:C 6.46057 
3 *184:16 *820:A0 5.96857 
*END

*D_NET *185 0.00155474
*CONN
*I *820:A1 I *D AOI211D1
*I *756:Y O *D NAND2D1
*CAP
1 *820:A1 9.61679e-05
2 *756:Y 9.61679e-05
3 *820:A1 *756:A 5.07435e-05
4 *820:A1 *756:B 2.27542e-05
5 *820:A1 *928:A 0.000119859
6 *820:A1 x[26] 0.000118638
7 *820:A1 *747:A 0.000280458
8 *820:A1 x[30] 0.000515143
9 *820:A1 *922:A 1.44207e-05
10 *820:A1 *748:B 1.30364e-05
11 *820:A1 x[9] 5.55067e-05
12 *820:A1 x[27] 2.86735e-05
13 *820:A1 x[31] 2.63834e-05
14 *820:A1 x[8] 1.26788e-05
15 *820:A1 *691:B 1.81036e-05
16 *820:A1 *692:A 8.59826e-06
17 *820:A1 *781:A 1.78756e-06
18 *820:A1 *820:B0 2.13676e-05
19 *820:A1 rst 5.17057e-05
20 *820:A1 y 2.5509e-06
*RES
1 *756:Y *820:A1 24.7177 
*END

*D_NET *186 0.00172944
*CONN
*I *820:B0 I *D AOI211D1
*I *757:Y O *D NOR2D1
*CAP
1 *820:B0 0.000176894
2 *757:Y 0.000176894
3 *820:B0 x[30] 0.000202319
4 *820:B0 *928:A 0.000458592
5 *820:B0 rst 0.000183647
6 *820:B0 y 1.96842e-05
7 *820:B0 *691:B 8.02904e-06
8 *820:B0 *922:A 0.000277196
9 *820:B0 *692:A 2.11081e-06
10 *820:B0 *781:A 1.47538e-06
11 *820:B0 x[26] 0.000222592
*RES
1 *757:Y *820:B0 27.658 
*END

*D_NET *187 0.00190816
*CONN
*I *759:B I *D NOR2D1
*I *758:Y O *D XOR3D2
*CAP
1 *759:B 0.000246222
2 *758:Y 0.000246222
3 *759:B *752:B 0.000112274
4 *759:B x[24] 0.000484349
5 *759:B *922:A 0.000152017
6 *759:B rst 0.000244934
7 *759:B *761:B 0.000234781
8 *759:B *753:A 4.45214e-06
9 *759:B x[10] 5.48722e-05
10 *759:B x[13] 3.76048e-05
11 *759:B *850:CK 2.68646e-05
12 *759:B *761:A 2.07898e-06
13 *759:B *821:B0 6.51902e-06
14 *759:B x[15] 2.97204e-05
15 *759:B *764:B 3.07188e-06
16 *759:B *763:C 2.21784e-05
*RES
1 *758:Y *759:B 30.5397 
*END

*D_NET *188 0.00633002
*CONN
*I *763:C I *D XOR3D2
*I *821:A0 I *D AOI211D1
*I *760:Y O *D NAND2D1
*CAP
1 *763:C 5.37588e-06
2 *821:A0 9.8191e-05
3 *760:Y 0.000151067
4 *188:8 0.000254634
5 *763:C x[13] 0.000121122
6 *763:C x[29] 0.000626454
7 *763:C x[15] 0.000263681
8 *763:C *850:CK 0.00146155
9 *763:C *752:B 3.15508e-05
10 *763:C x[17] 0.0018373
11 *763:C *764:B 0.000330246
12 *763:C *821:A1 0.000502443
13 *763:C *761:B 9.29637e-05
14 *763:C x[2] 1.65016e-05
15 *763:C *733:B 3.53815e-06
16 *763:C *829:C 8.27076e-06
17 *763:C *861:CK 3.00138e-06
18 *763:C *767:B 6.61351e-06
19 *763:C rst 0.000112236
20 *763:C y 8.33781e-06
21 *763:C *761:A 3.43982e-05
22 *763:C *821:B0 8.77747e-05
23 *763:C *830:B 3.07848e-06
24 *763:C *922:A 0.000220515
25 *763:C x[24] 2.77101e-05
26 *763:C x[14] 8.46675e-06
27 *763:C x[16] 6.74987e-06
28 *763:C x[11] 6.24626e-06
*RES
1 *760:Y *188:8 10.3439 
2 *188:8 *821:A0 19.4637 
3 *188:8 *763:C 5.5 
*END

*D_NET *189 0.00253115
*CONN
*I *821:A1 I *D AOI211D1
*I *761:Y O *D NAND2D1
*CAP
1 *821:A1 0.000147723
2 *761:Y 0.000147723
3 *821:A1 *850:CK 0.000385885
4 *821:A1 x[13] 0.000379103
5 *821:A1 x[29] 0.00016801
6 *821:A1 *764:B 0.000774209
7 *821:A1 *829:B 2.91477e-06
8 *821:A1 *761:A 2.45544e-05
9 *821:A1 *761:B 3.86283e-05
10 *821:A1 x[10] 8.67019e-05
11 *821:A1 *828:A 1.48192e-06
12 *821:A1 y 1.12411e-05
13 *821:A1 x[4] 4.61497e-06
14 *821:A1 *830:B 5.51018e-07
15 *821:A1 *834:B0 2.94542e-06
16 *821:A1 *787:B0 1.86471e-07
17 *821:A1 x[17] 0.000104299
18 *821:A1 *861:CK 6.61687e-06
19 *821:A1 x[15] 0.000164871
20 *821:A1 *767:B 2.92211e-06
21 *821:A1 rst 7.59663e-05
*RES
1 *761:Y *821:A1 26.592 
*END

*D_NET *190 0.00139575
*CONN
*I *821:B0 I *D AOI211D1
*I *762:Y O *D NOR2D1
*CAP
1 *821:B0 0.000100421
2 *762:Y 0.000100421
3 *821:B0 x[15] 0.000265922
4 *821:B0 *761:B 0.000326618
5 *821:B0 x[17] 5.29381e-05
6 *821:B0 *761:A 0.000113474
7 *821:B0 rst 0.000205714
8 *821:B0 *830:B 6.80396e-07
9 *821:B0 x[13] 1.61046e-05
10 *821:B0 y 2.97666e-05
11 *821:B0 x[2] 4.75353e-06
12 *821:B0 *829:C 4.57724e-06
13 *821:B0 *850:CK 0.000115079
14 *821:B0 *922:A 4.65872e-05
15 *821:B0 x[24] 6.76596e-06
16 *821:B0 *764:B 5.92798e-06
*RES
1 *762:Y *821:B0 13.9813 
*END

*D_NET *191 0.00329717
*CONN
*I *764:B I *D NOR2D1
*I *763:Y O *D XOR3D2
*CAP
1 *764:B 0.000246761
2 *763:Y 0.000246761
3 *764:B x[13] 0.000564072
4 *764:B x[29] 0.000561999
5 *764:B *850:CK 0.000339559
6 *764:B x[17] 0.000119969
7 *764:B *767:B 0.000253426
8 *764:B rst 0.00040085
9 *764:B y 8.40381e-05
10 *764:B *761:B 4.81405e-05
11 *764:B *761:A 7.90707e-05
12 *764:B x[15] 0.000225242
13 *764:B x[2] 3.35516e-05
14 *764:B *752:B 1.13357e-05
15 *764:B *733:B 2.17386e-05
16 *764:B *829:C 1.77881e-05
17 *764:B *861:CK 2.13724e-05
18 *764:B *922:A 1.56133e-05
19 *764:B x[24] 5.88329e-06
*RES
1 *763:Y *764:B 30.6217 
*END

*D_NET *192 0.00172544
*CONN
*I *768:C I *D XOR3D2
*I *822:A0 I *D AOI211D1
*I *765:Y O *D NAND2D1
*CAP
1 *768:C 5.37588e-06
2 *822:A0 7.12627e-05
3 *765:Y 0.000127041
4 *192:12 0.00020368
5 *768:C *922:A 0.000618461
6 *768:C *768:A 0.000202402
7 *768:C rst 0.000185673
8 *768:C *822:B0 5.49395e-05
9 *768:C *671:A 1.62142e-06
10 *768:C *726:B 6.01772e-06
11 *768:C *727:A 5.79037e-06
12 *768:C *903:CK 9.88822e-06
13 *768:C x[8] 1.95921e-05
14 *768:C x[9] 3.69145e-06
15 *768:C *822:A1 4.3151e-05
16 *768:C *767:B 0.000166853
*RES
1 *765:Y *192:12 20.7113 
2 *192:12 *822:A0 7.69057 
3 *192:12 *768:C 5.5 
*END

*D_NET *193 0.000401897
*CONN
*I *822:A1 I *D AOI211D1
*I *766:Y O *D NAND2D1
*CAP
1 *822:A1 5.10942e-05
2 *766:Y 5.10942e-05
3 *822:A1 *768:A 0.000163404
4 *822:A1 *767:B 3.22801e-05
5 *822:A1 *822:B0 4.63577e-05
6 *822:A1 rst 5.76679e-05
*RES
1 *766:Y *822:A1 12.3413 
*END

*D_NET *194 0.000190829
*CONN
*I *822:B0 I *D AOI211D1
*I *767:Y O *D NOR2D1
*CAP
1 *822:B0 4.29905e-05
2 *767:Y 4.29905e-05
3 *822:B0 *767:B 0.000104849
*RES
1 *767:Y *822:B0 12.0719 
*END

*D_NET *195 0.00137559
*CONN
*I *769:B I *D NOR2D1
*I *768:Y O *D XOR3D2
*CAP
1 *769:B 0.000143163
2 *768:Y 0.000143163
3 *769:B *851:CK 0.000845893
4 *769:B *767:B 2.86142e-05
5 *769:B rst 0.000154
6 *769:B x[14] 5.7754e-05
7 *769:B *776:A 3.00636e-06
*RES
1 *768:Y *769:B 26.5686 
*END

*D_NET *196 0.00261038
*CONN
*I *832:A0 I *D AOI211D1
*I *773:C I *D XOR3D2
*I *770:Y O *D NAND2D1
*CAP
1 *832:A0 5.06511e-05
2 *773:C 5.37588e-06
3 *770:Y 0.000102295
4 *196:12 0.000158322
5 *832:A0 x[14] 0.000120654
6 *832:A0 *832:A1 0.000111502
7 *832:A0 x[3] 0.000318909
8 *832:A0 *774:B 0.000252851
9 *832:A0 rst 0.00078345
10 *832:A0 y 0.000290841
11 *832:A0 *772:B 1.91944e-05
12 *832:A0 x[2] 5.01423e-06
13 *832:A0 *772:A 1.87333e-05
14 *832:A0 *779:B 3.03518e-06
15 *832:A0 *778:C 3.59007e-05
16 *832:A0 x[16] 0.000121933
17 *832:A0 x[11] 0.000211715
*RES
1 *770:Y *196:12 19.9206 
2 *196:12 *773:C 5.5 
3 *196:12 *832:A0 7.00529 
*END

*D_NET *197 0.00109337
*CONN
*I *832:A1 I *D AOI211D1
*I *771:Y O *D NAND2D1
*CAP
1 *832:A1 6.18047e-05
2 *771:Y 6.18047e-05
3 *832:A1 x[14] 0.000193908
4 *832:A1 *772:B 4.20061e-05
5 *832:A1 *772:A 2.18362e-05
6 *832:A1 x[16] 6.98836e-05
7 *832:A1 x[3] 0.000193665
8 *832:A1 *832:B0 0.000220712
9 *832:A1 rst 0.000216646
10 *832:A1 x[2] 2.87827e-07
11 *832:A1 *779:B 4.97457e-07
12 *832:A1 *778:C 2.78451e-06
13 *832:A1 x[11] 7.53795e-06
*RES
1 *771:Y *832:A1 23.5111 
*END

*D_NET *198 0.000543445
*CONN
*I *832:B0 I *D AOI211D1
*I *772:Y O *D NOR2D1
*CAP
1 *832:B0 5.92555e-05
2 *772:Y 5.92555e-05
3 *832:B0 *772:A 0.000157515
4 *832:B0 rst 0.000267419
*RES
1 *772:Y *832:B0 23.4584 
*END

*D_NET *199 0.000937503
*CONN
*I *774:B I *D NOR2D1
*I *773:Y O *D XOR3D2
*CAP
1 *774:B 0.000194967
2 *773:Y 0.000194967
3 *774:B rst 0.0002811
4 *774:B x[3] 0.000105865
5 *774:B x[16] 0.000133947
6 *774:B *663:B 1.17481e-05
7 *774:B *736:A 1.49071e-05
*RES
1 *773:Y *774:B 28.8997 
*END

*D_NET *200 0.00247682
*CONN
*I *778:C I *D XOR3D2
*I *833:A0 I *D AOI211D1
*I *775:Y O *D NAND2D1
*CAP
1 *778:C 2.26403e-05
2 *833:A0 8.92339e-05
3 *775:Y 6.35792e-05
4 *200:10 0.000175453
5 *778:C *776:A 0.000267114
6 *778:C *777:B 0.000195177
7 *778:C *833:A1 0.00023958
8 *778:C rst 5.33439e-05
9 *778:C y 0.000163761
10 *778:C x[14] 0.000181914
11 *778:C x[16] 0.000349824
12 *778:C x[3] 0.000106801
13 *778:C x[1] 0.00025014
14 *778:C *779:B 8.64901e-05
15 *778:C *833:B0 2.36424e-05
16 *778:C *851:CK 9.0944e-05
17 *778:C x[21] 3.73137e-06
18 *778:C x[5] 1.64679e-05
19 *778:C *772:B 2.4597e-05
20 *778:C x[2] 2.86781e-06
21 *778:C *772:A 1.78424e-05
22 *778:C x[11] 4.5347e-05
23 *778:C x[4] 6.32992e-06
*RES
1 *775:Y *200:10 13.009 
2 *200:10 *833:A0 13.9989 
3 *200:10 *778:C 11.41 
*END

*D_NET *201 0.000467373
*CONN
*I *833:A1 I *D AOI211D1
*I *776:Y O *D NAND2D1
*CAP
1 *833:A1 4.28143e-05
2 *776:Y 4.28143e-05
3 *833:A1 *776:A 0.00027234
4 *833:A1 *777:B 3.72881e-05
5 *833:A1 *779:B 2.17083e-06
6 *833:A1 *833:B0 2.05145e-06
7 *833:A1 *851:CK 5.8385e-05
8 *833:A1 rst 9.50929e-06
*RES
1 *776:Y *833:A1 12.066 
*END

*D_NET *202 0.000606721
*CONN
*I *833:B0 I *D AOI211D1
*I *777:Y O *D NOR2D1
*CAP
1 *833:B0 4.9473e-05
2 *777:Y 4.9473e-05
3 *833:B0 *776:A 6.22614e-05
4 *833:B0 *777:B 4.79658e-05
5 *833:B0 *851:CK 0.00034222
6 *833:B0 *779:B 2.02046e-05
7 *833:B0 rst 1.76054e-05
8 *833:B0 x[14] 1.75172e-05
*RES
1 *777:Y *833:B0 23.1011 
*END

*D_NET *203 0.000967501
*CONN
*I *779:B I *D NOR2D1
*I *778:Y O *D XOR3D2
*CAP
1 *779:B 7.59339e-05
2 *778:Y 7.59339e-05
3 *779:B *776:A 4.24451e-05
4 *779:B rst 0.000510603
5 *779:B x[14] 8.8042e-05
6 *779:B x[16] 3.90499e-05
7 *779:B *777:B 4.24367e-05
8 *779:B *851:CK 6.11296e-05
9 *779:B *772:B 4.40293e-06
10 *779:B x[2] 5.28921e-07
11 *779:B *772:A 2.89079e-06
12 *779:B x[11] 7.73645e-06
13 *779:B x[3] 1.63683e-05
*RES
1 *778:Y *779:B 13.1671 
*END

*D_NET *204 0.00250805
*CONN
*I *783:A0 I *D AOI211D1
*I *836:A0 I *D OAI21D1
*I *837:A0 I *D AOI21D1
*I *780:Y O *D NAND2D1
*CAP
1 *783:A0 5.37588e-06
2 *836:A0 5.37588e-06
3 *837:A0 0.000122274
4 *780:Y 5.64646e-05
5 *204:24 0.000209216
6 *204:12 0.000143406
7 *783:A0 x[27] 0.000208133
8 *783:A0 y 0.000205202
9 *783:A0 *836:A1 0.000121272
10 *783:A0 *781:B 0.000135208
11 *783:A0 rst 0.000328839
12 *783:A0 x[9] 8.55537e-06
13 *783:A0 *928:A 9.86299e-07
14 *783:A0 x[25] 2.40355e-06
15 *783:A0 x[22] 1.16804e-06
16 *783:A0 *687:B 8.85367e-07
17 *783:A0 *736:A 2.01075e-05
18 *783:A0 *846:A0 0.00011474
19 *783:A0 *843:A0 1.5789e-05
20 *783:A0 *838:B 9.45798e-05
21 *783:A0 *841:B 1.80989e-05
22 *783:A0 *861:CK 1.43161e-05
23 *783:A0 *791:B0 2.1183e-06
24 *783:A0 *791:A1 2.38667e-06
25 *783:A0 *795:B0 1.76073e-05
26 *783:A0 *840:B0 1.51129e-06
27 *783:A0 *793:A 4.48611e-05
28 *783:A0 *839:A0 1.02269e-05
29 *783:A0 *837:B0 0.000308264
30 *783:A0 x[26] 0.00026397
31 *783:A0 *781:A 2.47029e-05
*RES
1 *780:Y *204:12 7.19857 
2 *204:12 *204:24 2.71186 
3 *204:24 *837:A0 20.4887 
4 *204:24 *836:A0 5.5 
5 *204:12 *783:A0 5.5 
*END

*D_NET *205 5.28614e-05
*CONN
*I *783:A1 I *D AOI211D1
*I *781:Y O *D NAND2D1
*CAP
1 *783:A1 2.64307e-05
2 *781:Y 2.64307e-05
*RES
1 *781:Y *783:A1 11.5213 
*END

*D_NET *206 0.00046258
*CONN
*I *783:B0 I *D AOI211D1
*I *782:Y O *D NOR2D1
*CAP
1 *783:B0 5.66234e-05
2 *782:Y 5.66234e-05
3 *783:B0 rst 0.000349333
*RES
1 *782:Y *783:B0 23.435 
*END

*D_NET *207 0.00311859
*CONN
*I *839:A0 I *D OAI21D1
*I *840:A0 I *D AOI21D1
*I *787:A0 I *D AOI211D1
*I *784:Y O *D NAND2D1
*CAP
1 *839:A0 5.37588e-06
2 *840:A0 5.71693e-05
3 *787:A0 4.96949e-05
4 *784:Y 1.03086e-05
5 *207:25 0.000150179
6 *207:6 0.000147637
7 *839:A0 *861:CK 0.000325007
8 *839:A0 *840:B0 0.00020626
9 *839:A0 rst 0.000160588
10 *839:A0 y 0.000969507
11 *839:A0 *840:A1 0.000571117
12 *839:A0 *846:A0 9.49146e-06
13 *839:A0 *843:A0 1.46812e-05
14 *839:A0 *838:B 0.00028903
15 *839:A0 *841:B 4.92006e-05
16 *839:A0 *791:B0 7.99443e-06
17 *839:A0 *791:A1 1.81557e-05
18 *839:A0 *795:B0 1.68827e-06
19 *839:A0 *793:A 2.19926e-06
20 *839:A0 *706:A 1.99984e-06
21 *839:A0 x[29] 5.78593e-05
22 *839:A0 *922:A 1.34431e-05
*RES
1 *784:Y *207:6 11 
2 *207:6 *787:A0 12.5697 
3 *207:6 *207:25 8.55157 
4 *207:25 *840:A0 7.222 
5 *207:25 *839:A0 5.5 
*END

*D_NET *208 0.00045364
*CONN
*I *787:A1 I *D AOI211D1
*I *785:Y O *D NAND2D1
*CAP
1 *787:A1 4.28143e-05
2 *785:Y 4.28143e-05
3 *787:A1 *785:A 0.000277583
4 *787:A1 *838:B 4.6414e-05
5 *787:A1 *861:CK 4.40145e-05
*RES
1 *785:Y *787:A1 12.066 
*END

*D_NET *209 0.000462086
*CONN
*I *787:B0 I *D AOI211D1
*I *786:Y O *D NOR2D1
*CAP
1 *787:B0 6.43068e-05
2 *786:Y 6.43068e-05
3 *787:B0 x[29] 9.70793e-05
4 *787:B0 *834:B0 3.86955e-07
5 *787:B0 *761:A 3.4838e-07
6 *787:B0 x[4] 3.05893e-07
7 *787:B0 x[13] 2.47474e-06
8 *787:B0 x[17] 1.06689e-06
9 *787:B0 *861:CK 0.000194125
10 *787:B0 x[15] 3.16555e-06
11 *787:B0 y 3.452e-05
*RES
1 *786:Y *787:B0 12.7806 
*END

*D_NET *210 0.00272055
*CONN
*I *843:A0 I *D AOI21D1
*I *842:A0 I *D OAI21D1
*I *791:A0 I *D AOI211D1
*I *788:Y O *D NAND2D1
*CAP
1 *843:A0 5.37588e-06
2 *842:A0 1.36558e-05
3 *791:A0 7.80458e-05
4 *788:Y 0.000153884
5 *210:20 0.000194584
6 *210:14 0.000262142
7 *843:A0 *841:B 9.60888e-05
8 *843:A0 *859:CK 0.000508522
9 *843:A0 *843:B0 0.000397574
10 *843:A0 *843:A1 0.000609046
11 *843:A0 *846:A0 2.27205e-05
12 *843:A0 *838:B 5.45057e-05
13 *843:A0 *861:CK 1.0916e-05
14 *843:A0 *791:B0 4.92372e-05
15 *843:A0 *791:A1 1.5373e-05
16 *843:A0 *795:B0 5.21156e-06
17 *843:A0 *840:B0 4.26634e-06
18 *843:A0 *793:A 5.69927e-06
19 *843:A0 x[26] 4.14538e-05
20 *843:A0 *742:A 5.97617e-06
21 *843:A0 *825:C 3.93063e-05
22 *843:A0 x[31] 1.2413e-05
23 *843:A0 rst 2.90592e-05
24 *843:A0 *823:C 7.78289e-06
25 *843:A0 x[28] 2.73884e-05
26 *843:A0 x[24] 1.01156e-05
27 *843:A0 y 3.3852e-05
28 *843:A0 *789:A 2.63595e-05
*RES
1 *788:Y *210:14 20.9458 
2 *210:14 *210:20 3.42057 
3 *210:20 *791:A0 18.9541 
4 *210:20 *842:A0 5.77529 
5 *210:14 *843:A0 5.5 
*END

*D_NET *211 0.00102495
*CONN
*I *791:A1 I *D AOI211D1
*I *789:Y O *D NAND2D1
*CAP
1 *791:A1 0.000114515
2 *789:Y 0.000114515
3 *791:A1 *841:B 0.000117672
4 *791:A1 *791:B0 2.38587e-05
5 *791:A1 *789:A 0.000424411
6 *791:A1 rst 0.000140112
7 *791:A1 *846:A0 3.70226e-06
8 *791:A1 *838:B 1.75133e-05
9 *791:A1 *861:CK 4.83705e-06
10 *791:A1 *795:B0 5.44803e-07
11 *791:A1 *840:B0 6.16134e-06
12 *791:A1 *793:A 6.70074e-07
13 *791:A1 *843:A1 4.33045e-05
14 *791:A1 y 1.52995e-06
15 *791:A1 *687:A 3.40535e-06
16 *791:A1 *903:CK 8.19428e-06
*RES
1 *789:Y *791:A1 14.4499 
*END

*D_NET *212 0.000340945
*CONN
*I *791:B0 I *D AOI211D1
*I *790:Y O *D NOR2D1
*CAP
1 *791:B0 5.02134e-05
2 *790:Y 5.02134e-05
3 *791:B0 rst 0.000151987
4 *791:B0 *846:A0 3.19145e-06
5 *791:B0 *838:B 8.38365e-06
6 *791:B0 *841:B 6.712e-05
7 *791:B0 *861:CK 2.67298e-06
8 *791:B0 *795:B0 2.31203e-07
9 *791:B0 *840:B0 1.75612e-06
10 *791:B0 *793:A 3.12855e-07
11 *791:B0 *717:A 3.41121e-06
12 *791:B0 *772:B 1.45134e-06
*RES
1 *790:Y *791:B0 12.312 
*END

*D_NET *213 0.00174053
*CONN
*I *846:A0 I *D AOI21D1
*I *845:A0 I *D OAI21D1
*I *795:A0 I *D AOI211D1
*I *792:Y O *D NAND2D1
*CAP
1 *846:A0 5.32936e-05
2 *845:A0 5.37588e-06
3 *795:A0 0.000198639
4 *792:Y 0.000227874
5 *213:16 0.000216347
6 *213:14 0.000293499
7 *846:A0 *845:A1 0.00045939
8 *846:A0 *846:B0 0.00010102
9 *846:A0 *838:B 4.37073e-05
10 *846:A0 *841:B 1.94449e-05
11 *846:A0 *861:CK 1.10041e-05
12 *846:A0 *795:B0 6.32261e-05
13 *846:A0 *840:B0 1.81496e-06
14 *846:A0 *793:A 4.58889e-05
*RES
1 *792:Y *213:14 23.4058 
2 *213:14 *213:16 0.41 
3 *213:16 *795:A0 22.2436 
4 *213:16 *845:A0 5.5 
5 *213:14 *846:A0 7.09314 
*END

*D_NET *214 0.00128794
*CONN
*I *795:A1 I *D AOI211D1
*I *793:Y O *D NAND2D1
*CAP
1 *795:A1 0.000108701
2 *793:Y 0.000108701
3 *795:A1 *794:B 0.000372995
4 *795:A1 *793:A 0.000454525
5 *795:A1 *795:B0 0.000132558
6 *795:A1 rst 0.000110463
*RES
1 *793:Y *795:A1 14.2566 
*END

*D_NET *215 0.000791403
*CONN
*I *795:B0 I *D AOI211D1
*I *794:Y O *D NOR2D1
*CAP
1 *795:B0 0.000128602
2 *794:Y 0.000128602
3 *795:B0 *793:A 0.000387074
4 *795:B0 *794:B 7.04605e-05
5 *795:B0 *838:B 9.41021e-06
6 *795:B0 *841:B 3.09889e-06
7 *795:B0 *861:CK 1.97971e-06
8 *795:B0 *840:B0 1.68798e-07
9 *795:B0 rst 6.20082e-05
*RES
1 *794:Y *795:B0 25.9126 
*END

*D_NET *216 0.00293571
*CONN
*I *848:A0 I *D OAI21D1
*I *849:A0 I *D AOI21D1
*I *799:A0 I *D AOI211D1
*I *796:Y O *D NAND2D1
*CAP
1 *848:A0 1.77076e-05
2 *849:A0 4.23712e-05
3 *799:A0 0.000166201
4 *796:Y 7.79571e-05
5 *216:16 0.000275062
6 *216:8 0.000162154
7 *848:A0 *849:A1 0.00113498
8 *848:A0 *798:A 0.000275693
9 *848:A0 *797:B 0.000209233
10 *848:A0 *799:A1 0.000152334
11 *848:A0 *799:B0 4.06773e-05
12 *848:A0 rst 0.000364049
13 *848:A0 *846:B0 1.7295e-05
*RES
1 *796:Y *216:8 7.91314 
2 *216:8 *216:16 12.7612 
3 *216:16 *799:A0 21.2496 
4 *216:16 *849:A0 6.73 
5 *216:8 *848:A0 5.91 
*END

*D_NET *217 0.000974626
*CONN
*I *799:A1 I *D AOI211D1
*I *797:Y O *D NAND2D1
*CAP
1 *799:A1 8.57993e-05
2 *797:Y 8.57993e-05
3 *799:A1 *798:A 0.00011216
4 *799:A1 *797:B 9.88908e-05
5 *799:A1 rst 0.000561779
6 *799:A1 *849:A1 1.0636e-05
7 *799:A1 *799:B0 1.95622e-05
*RES
1 *797:Y *799:A1 13.4951 
*END

*D_NET *218 0.000666054
*CONN
*I *799:B0 I *D AOI211D1
*I *798:Y O *D NOR2D1
*CAP
1 *799:B0 6.18405e-05
2 *798:Y 6.18405e-05
3 *799:B0 *798:A 0.000419532
4 *799:B0 *849:A1 1.20995e-05
5 *799:B0 *797:B 4.81436e-05
6 *799:B0 rst 6.25984e-05
*RES
1 *798:Y *799:B0 12.6986 
*END

*D_NET *219 0.00225713
*CONN
*I *825:B I *D NOR3D1
*I *831:B I *D AND2D1
*I *823:Y O *D AND3D1
*CAP
1 *825:B 6.05165e-05
2 *831:B 0.000156979
3 *823:Y 5.37588e-06
4 *219:4 0.000222872
5 *825:B x[31] 0.000473124
6 *825:B x[28] 0.000231904
7 *825:B *922:A 0.000292879
8 *825:B *825:C 0.000197289
9 *825:B y 0.00045914
10 *825:B x[8] 8.59771e-06
11 *825:B x[20] 1.20943e-06
12 *825:B *928:A 7.62503e-06
13 *825:B *742:B 2.53655e-05
14 *825:B p 4.69872e-06
15 *825:B *747:A 1.2576e-05
16 *825:B x[24] 3.24152e-05
17 *825:B rst 4.64157e-05
18 *825:B clk 9.833e-06
19 *825:B *698:B 8.31378e-06
*RES
1 *823:Y *219:4 5.5 
2 *219:4 *831:B 21.6426 
3 *219:4 *825:B 7.33329 
*END

*D_NET *220 0.00109328
*CONN
*I *825:C I *D NOR3D1
*I *824:Y O *D AOI21D1
*CAP
1 *825:C 0.000167225
2 *824:Y 0.000167225
3 *825:C *859:CK 0.000191165
4 *825:C rst 9.90157e-05
5 *825:C x[26] 4.92298e-05
6 *825:C *843:B0 7.68007e-06
7 *825:C *742:A 9.00168e-06
8 *825:C x[31] 8.77595e-05
9 *825:C *841:B 5.84285e-06
10 *825:C y 0.000151009
11 *825:C *922:A 0.000120986
12 *825:C x[28] 3.71411e-05
*RES
1 *824:Y *825:C 26.7318 
*END

*D_NET *221 0.0038887
*CONN
*I *829:C I *D XOR3D2
*I *834:A0 I *D AOI211D1
*I *826:Y O *D NAND2D1
*CAP
1 *829:C 5.37588e-06
2 *834:A0 0.000110108
3 *826:Y 0.000200148
4 *221:14 0.000315632
5 *829:C x[13] 0.000215769
6 *829:C x[15] 0.000982157
7 *829:C x[2] 0.000324062
8 *829:C x[1] 0.000145261
9 *829:C y 7.21179e-05
10 *829:C rst 9.0987e-05
11 *829:C *830:B 0.000114338
12 *829:C *828:A 5.05254e-05
13 *829:C *834:B0 0.000176516
14 *829:C p 9.07182e-05
15 *829:C x[29] 3.99623e-05
16 *829:C *850:CK 0.000375943
17 *829:C *752:B 2.30563e-05
18 *829:C x[17] 0.000217444
19 *829:C *733:B 8.86473e-06
20 *829:C *861:CK 5.86723e-06
21 *829:C *829:B 4.11739e-05
22 *829:C *761:B 2.58979e-06
23 *829:C x[4] 6.84066e-05
24 *829:C x[11] 6.47932e-05
25 *829:C x[8] 5.95942e-05
26 *829:C x[20] 2.35255e-05
27 *829:C x[31] 2.55585e-05
28 *829:C x[0] 3.82022e-05
*RES
1 *826:Y *221:14 22.2515 
2 *221:14 *834:A0 20.0201 
3 *221:14 *829:C 5.5 
*END

*D_NET *222 5.28614e-05
*CONN
*I *834:A1 I *D AOI211D1
*I *827:Y O *D NAND2D1
*CAP
1 *834:A1 2.64307e-05
2 *827:Y 2.64307e-05
*RES
1 *827:Y *834:A1 11.5213 
*END

*D_NET *223 0.0021201
*CONN
*I *834:B0 I *D AOI211D1
*I *828:Y O *D NOR2D1
*CAP
1 *834:B0 0.000119447
2 *828:Y 0.000119447
3 *834:B0 x[29] 0.000978446
4 *834:B0 x[17] 0.000174767
5 *834:B0 *828:A 0.000258584
6 *834:B0 *761:A 2.66453e-06
7 *834:B0 x[4] 3.41683e-05
8 *834:B0 x[13] 9.40175e-06
9 *834:B0 *861:CK 8.3658e-06
10 *834:B0 x[15] 1.39515e-05
11 *834:B0 y 8.86186e-05
12 *834:B0 *829:B 7.41395e-05
13 *834:B0 x[11] 8.42876e-05
14 *834:B0 *850:CK 0.000153809
*RES
1 *828:Y *834:B0 14.6139 
*END

*D_NET *224 0.000624571
*CONN
*I *830:B I *D NOR2D1
*I *829:Y O *D XOR3D2
*CAP
1 *830:B 7.92294e-05
2 *829:Y 7.92294e-05
3 *830:B *850:CK 6.42493e-05
4 *830:B x[15] 6.67707e-05
5 *830:B rst 0.000122224
6 *830:B *829:B 1.55589e-06
7 *830:B *761:A 6.52993e-07
8 *830:B *761:B 1.81082e-06
9 *830:B x[10] 0.000101992
10 *830:B *828:A 1.80371e-06
11 *830:B y 3.61861e-05
12 *830:B x[4] 4.37953e-06
13 *830:B x[13] 3.98261e-05
14 *830:B x[17] 1.4595e-05
15 *830:B x[2] 1.00679e-05
*RES
1 *829:Y *830:B 24.173 
*END

*D_NET *225 0.0019095
*CONN
*I *836:A1 I *D OAI21D1
*I *837:A1 I *D AOI21D1
*I *835:Y O *D XNOR2D1
*CAP
1 *836:A1 2.59875e-05
2 *837:A1 0.000102709
3 *835:Y 5.37588e-06
4 *225:4 0.000134073
5 *836:A1 *837:B0 0.000935804
6 *836:A1 x[26] 0.00037803
7 *836:A1 *781:B 0.00011776
8 *836:A1 rst 0.000133961
9 *836:A1 *781:A 4.12398e-05
10 *836:A1 x[27] 2.09492e-05
11 *836:A1 y 1.36104e-05
*RES
1 *835:Y *225:4 5.5 
2 *225:4 *837:A1 19.7741 
3 *225:4 *836:A1 6.18529 
*END

*D_NET *226 0.000790489
*CONN
*I *837:B0 I *D AOI21D1
*I *836:Y O *D OAI21D1
*CAP
1 *837:B0 0.000125932
2 *836:Y 0.000125932
3 *837:B0 x[26] 0.000243003
4 *837:B0 *781:B 3.30238e-05
5 *837:B0 rst 0.000161291
6 *837:B0 *781:A 1.57915e-05
7 *837:B0 x[30] 4.96548e-06
8 *837:B0 *928:A 3.32276e-06
9 *837:B0 *756:A 3.02271e-06
10 *837:B0 y 7.16977e-05
11 *837:B0 *692:A 2.50655e-06
*RES
1 *836:Y *837:B0 26.018 
*END

*D_NET *227 0.000343279
*CONN
*I *840:A1 I *D AOI21D1
*I *839:A1 I *D OAI21D1
*I *838:Y O *D XNOR2D1
*CAP
1 *840:A1 6.54492e-05
2 *839:A1 5.37588e-06
3 *838:Y 3.26819e-05
4 *227:8 0.000103507
5 *840:A1 *861:CK 2.99431e-05
6 *840:A1 *840:B0 6.34273e-05
7 *840:A1 *721:A 1.75639e-06
8 *840:A1 x[29] 5.13452e-06
9 *840:A1 *717:B 1.06562e-06
10 *840:A1 *722:B 5.71861e-07
11 *840:A1 y 3.43657e-05
*RES
1 *838:Y *227:8 6.40786 
2 *227:8 *839:A1 5.5 
3 *227:8 *840:A1 7.49729 
*END

*D_NET *228 0.000308213
*CONN
*I *840:B0 I *D AOI21D1
*I *839:Y O *D OAI21D1
*CAP
1 *840:B0 7.82241e-05
2 *839:Y 7.82241e-05
3 *840:B0 *861:CK 2.67425e-05
4 *840:B0 *838:B 9.98803e-05
5 *840:B0 *841:B 2.48835e-05
6 *840:B0 *793:A 2.5887e-07
*RES
1 *839:Y *840:B0 13.2433 
*END

*D_NET *229 0.000520837
*CONN
*I *843:A1 I *D AOI21D1
*I *842:A1 I *D OAI21D1
*I *841:Y O *D XNOR2D1
*CAP
1 *843:A1 5.15319e-05
2 *842:A1 0.000101916
3 *841:Y 5.37588e-06
4 *229:4 0.000158824
5 *843:A1 *789:A 5.3992e-05
6 *843:A1 *841:B 0.000149198
*RES
1 *841:Y *229:4 5.5 
2 *229:4 *842:A1 8.70971 
3 *229:4 *843:A1 7.03457 
*END

*D_NET *230 0.000307597
*CONN
*I *843:B0 I *D AOI21D1
*I *842:Y O *D OAI21D1
*CAP
1 *843:B0 9.54445e-05
2 *842:Y 9.54445e-05
3 *843:B0 *859:CK 8.20857e-05
4 *843:B0 x[26] 1.31637e-05
5 *843:B0 *742:A 1.44805e-06
6 *843:B0 x[31] 9.0066e-07
7 *843:B0 *841:B 1.44819e-05
8 *843:B0 rst 4.62799e-06
*RES
1 *842:Y *843:B0 13.8158 
*END

*D_NET *231 0.00029738
*CONN
*I *845:A1 I *D OAI21D1
*I *846:A1 I *D AOI21D1
*I *844:Y O *D XNOR2D1
*CAP
1 *845:A1 5.37588e-06
2 *846:A1 4.89469e-05
3 *844:Y 7.54907e-05
4 *231:10 0.000129814
5 *845:A1 *846:B0 3.77528e-05
*RES
1 *844:Y *231:10 7.83114 
2 *231:10 *846:A1 17.7944 
3 *231:10 *845:A1 5.5 
*END

*D_NET *232 0.000221694
*CONN
*I *846:B0 I *D AOI21D1
*I *845:Y O *D OAI21D1
*CAP
1 *846:B0 5.03896e-05
2 *845:Y 5.03896e-05
3 *846:B0 *849:A1 0.000120915
*RES
1 *845:Y *846:B0 12.3179 
*END

*D_NET *233 0.00108093
*CONN
*I *849:A1 I *D AOI21D1
*I *848:A1 I *D OAI21D1
*I *847:Y O *D XNOR2D1
*CAP
1 *849:A1 1.27749e-05
2 *848:A1 4.49779e-05
3 *847:Y 0.000360523
4 *233:14 0.000418276
5 *849:A1 *798:A 5.78415e-05
6 *849:A1 *797:B 3.05045e-05
7 *849:A1 rst 0.000156037
*RES
1 *847:Y *233:14 27.5201 
2 *233:14 *848:A1 17.6304 
3 *233:14 *849:A1 5.746 
*END

*D_NET *234 0.000100779
*CONN
*I *849:B0 I *D AOI21D1
*I *848:Y O *D OAI21D1
*CAP
1 *849:B0 5.03896e-05
2 *848:Y 5.03896e-05
*RES
1 *848:Y *849:B0 12.3179 
*END

*D_NET *235 0.00192539
*CONN
*I *828:A I *D NOR2D1
*I *829:A I *D XOR3D2
*I *827:A I *D NAND2D1
*I *882:Q O *D DFFHQD1
*CAP
1 *828:A 3.25058e-05
2 *829:A 5.15319e-05
3 *827:A 5.22366e-05
4 *882:Q 5.37588e-06
5 *235:23 0.000131072
6 *235:4 0.000104647
7 *828:A *850:CK 0.000272355
8 *828:A *829:B 0.00077018
9 *828:A x[4] 0.000171978
10 *828:A x[11] 0.000114379
11 *828:A *761:A 3.62725e-06
12 *828:A *761:B 4.83393e-06
13 *828:A x[10] 3.29528e-05
14 *828:A y 4.95879e-05
15 *828:A x[13] 6.00703e-05
16 *828:A x[14] 1.32013e-06
17 *828:A clk 5.10319e-05
18 *828:A x[3] 4.81407e-06
19 *828:A x[31] 6.16131e-06
20 *828:A x[16] 1.76015e-06
21 *828:A *698:B 6.57945e-07
22 *828:A x[12] 2.31152e-06
*RES
1 *882:Q *235:4 5.5 
2 *235:4 *827:A 7.058 
3 *235:4 *235:23 12.3999 
4 *235:23 *829:A 7.03457 
5 *235:23 *828:A 6.402 
*END

*D_NET *236 0.00179694
*CONN
*I *733:A I *D XOR3D2
*I *732:A I *D NOR2D1
*I *731:A I *D NAND2D1
*I *892:Q O *D DFFHQD1
*CAP
1 *733:A 2.52829e-05
2 *732:A 6.47445e-05
3 *731:A 5.22366e-05
4 *892:Q 1.36558e-05
5 *236:15 0.000107292
6 *236:6 8.31568e-05
7 *733:A x[10] 8.92892e-05
8 *733:A *733:B 0.00084864
9 *733:A y 0.000303728
10 *733:A x[6] 2.56019e-06
11 *733:A *850:CK 6.62262e-06
12 *733:A rst 5.12163e-05
13 *733:A x[13] 0.000100281
14 *733:A x[29] 4.82331e-05
*RES
1 *892:Q *236:6 5.77529 
2 *236:6 *731:A 7.058 
3 *236:6 *236:15 0.574 
4 *236:15 *732:A 7.47386 
5 *236:15 *733:A 6.16186 
*END

*D_NET *237 0.00108403
*CONN
*I *727:A I *D NOR2D1
*I *726:A I *D NAND2D1
*I *728:A I *D XOR3D2
*I *893:Q O *D DFFHQD1
*CAP
1 *727:A 2.48424e-05
2 *726:A 5.35578e-05
3 *728:A 4.15478e-05
4 *893:Q 1.27749e-05
5 *237:21 0.000114691
6 *237:6 9.06134e-05
7 *727:A *922:A 0.000270946
8 *727:A *726:B 0.000462462
9 *727:A *671:A 6.64623e-07
10 *727:A *903:CK 5.21445e-06
11 *727:A x[8] 5.08819e-06
12 *727:A x[9] 1.6321e-06
*RES
1 *893:Q *237:6 5.746 
2 *237:6 *728:A 17.5484 
3 *237:6 *237:21 1.20657 
4 *237:21 *726:A 7.10193 
5 *237:21 *727:A 6.14721 
*END

*D_NET *238 0.00163255
*CONN
*I *721:A I *D NAND2D1
*I *722:A I *D NOR2D1
*I *723:A I *D XOR3D2
*I *894:Q O *D DFFHQD1
*CAP
1 *721:A 7.8626e-05
2 *722:A 5.37588e-06
3 *723:A 7.61954e-05
4 *894:Q 0.000114295
5 *238:25 9.1401e-05
6 *238:10 0.000197889
7 *721:A *722:B 0.000639222
8 *721:A rst 0.000224161
9 *721:A x[29] 2.19699e-05
10 *721:A *717:B 2.24232e-05
11 *721:A y 2.05628e-05
12 *721:A *861:CK 0.000118194
13 *721:A x[9] 2.22379e-05
*RES
1 *894:Q *238:10 20.4477 
2 *238:10 *723:A 7.85457 
3 *238:10 *238:25 0.246 
4 *238:25 *722:A 5.5 
5 *238:25 *721:A 18.7491 
*END

*D_NET *239 0.000933868
*CONN
*I *717:A I *D NOR2D1
*I *716:A I *D NAND2D1
*I *718:A I *D XOR3D2
*I *895:Q O *D DFFHQD1
*CAP
1 *717:A 8.37706e-05
2 *716:A 5.37588e-06
3 *718:A 5.73454e-05
4 *895:Q 5.37588e-06
5 *239:8 0.000129489
6 *239:4 0.000155914
7 *717:A *717:B 0.000364388
8 *717:A rst 3.45911e-05
9 *717:A *922:A 3.76825e-05
10 *717:A *893:CK 5.74688e-05
11 *717:A *772:B 2.46688e-06
*RES
1 *895:Q *239:4 5.5 
2 *239:4 *239:8 2.21986 
3 *239:8 *718:A 7.22786 
4 *239:8 *716:A 5.5 
5 *239:4 *717:A 8.10643 
*END

*D_NET *240 0.000903272
*CONN
*I *712:A I *D NOR2D1
*I *711:A I *D NAND2D1
*I *713:A I *D XOR3D2
*I *896:Q O *D DFFHQD1
*CAP
1 *712:A 6.34963e-05
2 *711:A 7.86618e-05
3 *713:A 5.37588e-06
4 *896:Q 4.748e-05
5 *240:15 0.000149557
6 *240:8 6.0255e-05
7 *712:A *893:CK 0.000152429
8 *712:A rst 0.00020111
9 *712:A *717:B 9.22602e-06
10 *712:A *711:B 9.62362e-05
11 *712:A *922:A 3.94451e-05
*RES
1 *896:Q *240:8 6.89986 
2 *240:8 *713:A 5.5 
3 *240:8 *240:15 0.246 
4 *240:15 *711:A 7.93657 
5 *240:15 *712:A 18.3743 
*END

*D_NET *241 0.00300658
*CONN
*I *706:A I *D NAND2D1
*I *707:A I *D NOR2D1
*I *708:A I *D XOR3D2
*I *897:Q O *D DFFHQD1
*CAP
1 *706:A 6.87964e-05
2 *707:A 5.37588e-06
3 *708:A 8.2139e-05
4 *897:Q 0.000109362
5 *241:25 8.6504e-05
6 *241:8 0.000203833
7 *706:A *861:CK 0.00109969
8 *706:A *706:B 0.000914664
9 *706:A rst 0.000166485
10 *706:A y 0.00017256
11 *706:A x[29] 4.53601e-05
12 *706:A *922:A 5.1802e-05
*RES
1 *897:Q *241:8 14.9477 
2 *241:8 *708:A 13.4659 
3 *241:8 *241:25 5.746 
4 *241:25 *707:A 5.5 
5 *241:25 *706:A 7.60857 
*END

*D_NET *242 0.00170398
*CONN
*I *702:A I *D NOR2D1
*I *701:A I *D NAND2D1
*I *703:A I *D XOR3D2
*I *898:Q O *D DFFHQD1
*CAP
1 *702:A 5.37588e-06
2 *701:A 7.80458e-05
3 *703:A 5.37588e-06
4 *898:Q 2.68684e-05
5 *242:19 0.000136977
6 *242:8 8.57993e-05
7 *702:A *703:B 0.00128536
8 *702:A *851:CK 8.01835e-05
*RES
1 *898:Q *242:8 6.21457 
2 *242:8 *703:A 5.5 
3 *242:8 *242:19 1.78057 
4 *242:19 *701:A 18.9541 
5 *242:19 *702:A 5.5 
*END

*D_NET *243 0.00136111
*CONN
*I *697:A I *D NOR2D1
*I *698:A I *D XOR3D2
*I *696:A I *D NAND2D1
*I *899:Q O *D DFFHQD1
*CAP
1 *697:A 8.2009e-05
2 *698:A 5.37588e-06
3 *696:A 3.74385e-05
4 *899:Q 2.68684e-05
5 *243:8 0.000151692
6 *697:A *698:B 0.000633331
7 *697:A rst 0.000109852
8 *697:A x[11] 0.000143796
9 *697:A clk 0.00015391
10 *697:A x[24] 4.49075e-06
11 *697:A *922:A 7.19366e-06
12 *697:A x[28] 5.15666e-06
*RES
1 *899:Q *243:8 6.21457 
2 *243:8 *696:A 6.566 
3 *243:8 *698:A 5.5 
4 *243:8 *697:A 8.04786 
*END

*D_NET *244 0.00390022
*CONN
*I *692:A I *D NOR2D1
*I *691:A I *D NAND2D1
*I *693:A I *D XOR3D2
*I *900:Q O *D DFFHQD1
*CAP
1 *692:A 7.58497e-05
2 *691:A 2.26403e-05
3 *693:A 9.65226e-05
4 *900:Q 0.000109362
5 *244:10 0.00013092
6 *244:8 0.000196969
7 *692:A x[30] 0.000211896
8 *692:A *691:B 0.00135621
9 *692:A x[26] 1.30214e-05
10 *692:A x[27] 0.000207613
11 *692:A x[9] 0.000167626
12 *692:A *903:CK 0.0011316
13 *692:A *922:A 3.53301e-05
14 *692:A *781:A 1.72792e-05
15 *692:A *928:A 3.82325e-06
16 *692:A rst 9.20913e-05
17 *692:A y 1.52181e-05
18 *692:A *781:B 3.93971e-06
19 *692:A *756:A 1.23157e-05
*RES
1 *900:Q *244:8 14.9477 
2 *244:8 *244:10 0.468571 
3 *244:10 *693:A 14.1043 
4 *244:10 *691:A 11.41 
5 *244:8 *692:A 13.2199 
*END

*D_NET *245 0.00215791
*CONN
*I *687:A I *D NOR2D1
*I *688:A I *D XOR3D2
*I *686:A I *D NAND2D1
*I *901:Q O *D DFFHQD1
*CAP
1 *687:A 9.02889e-05
2 *688:A 5.37588e-06
3 *686:A 3.26819e-05
4 *901:Q 0.000158855
5 *245:16 4.63377e-05
6 *245:14 0.000257424
7 *687:A *903:CK 0.000116159
8 *687:A rst 0.00128493
9 *687:A *687:B 2.49162e-05
10 *687:A x[27] 9.35782e-05
11 *687:A x[9] 3.1671e-05
12 *687:A *678:A 6.48738e-06
13 *687:A *928:A 1.95978e-06
14 *687:A y 5.87951e-06
15 *687:A x[25] 1.01134e-06
16 *687:A x[22] 3.50896e-07
*RES
1 *901:Q *245:14 21.8651 
2 *245:14 *245:16 0.275286 
3 *245:16 *686:A 6.40786 
4 *245:16 *688:A 5.5 
5 *245:14 *687:A 8.32314 
*END

*D_NET *246 0.00110432
*CONN
*I *776:A I *D NAND2D1
*I *777:A I *D NOR2D1
*I *778:A I *D XOR3D2
*I *883:Q O *D DFFHQD1
*CAP
1 *776:A 5.37588e-06
2 *777:A 8.20561e-05
3 *778:A 5.37588e-06
4 *883:Q 3.25058e-05
5 *246:16 0.000132002
6 *246:6 8.24521e-05
7 *776:A *777:B 0.000552491
8 *776:A *851:CK 0.000104771
9 *776:A rst 3.75814e-05
10 *776:A *767:B 6.97425e-07
11 *776:A x[14] 6.90094e-05
*RES
1 *883:Q *246:6 6.402 
2 *246:6 *246:16 1.48186 
3 *246:16 *778:A 5.5 
4 *246:16 *777:A 18.8311 
5 *246:6 *776:A 5.5 
*END

*D_NET *247 0.00136603
*CONN
*I *683:A I *D XOR3D2
*I *682:A I *D NOR2D1
*I *681:A I *D NAND2D1
*I *902:Q O *D DFFHQD1
*CAP
1 *683:A 3.43146e-05
2 *682:A 6.05165e-05
3 *681:A 6.5714e-05
4 *902:Q 2.26403e-05
5 *247:10 0.000147687
6 *247:8 7.84117e-05
7 *683:A *683:B 0.000478641
8 *683:A y 0.000255194
9 *683:A x[26] 7.47135e-05
10 *683:A x[23] 0.000112119
11 *683:A x[30] 1.71202e-05
12 *683:A x[7] 1.89611e-05
*RES
1 *902:Q *247:8 11.41 
2 *247:8 *247:10 0.855143 
3 *247:10 *681:A 13.2081 
4 *247:10 *682:A 12.6693 
5 *247:8 *683:A 11.9079 
*END

*D_NET *248 0.00283273
*CONN
*I *678:A I *D XOR3D2
*I *676:A I *D NAND2D1
*I *677:A I *D NOR2D1
*I *903:Q O *D DFFHQD1
*CAP
1 *678:A 7.10612e-05
2 *676:A 1.77076e-05
3 *677:A 1.36558e-05
4 *903:Q 0.000111155
5 *248:31 0.00023511
6 *248:14 0.000271152
7 *678:A *903:CK 0.00102806
8 *678:A *677:B 0.000199382
9 *678:A x[25] 0.000665206
10 *678:A rst 8.85023e-05
11 *678:A *687:B 1.28911e-05
12 *678:A *683:B 2.83075e-05
13 *678:A x[22] 4.18317e-05
14 *678:A x[27] 3.27654e-05
15 *678:A *668:B 9.44777e-06
16 *678:A *667:A 6.49427e-06
*RES
1 *903:Q *248:14 19.9909 
2 *248:14 *677:A 5.77529 
3 *248:14 *248:31 15.2469 
4 *248:31 *676:A 5.91 
5 *248:31 *678:A 18.5617 
*END

*D_NET *249 0.0020048
*CONN
*I *671:A I *D NAND2D1
*I *673:A I *D XOR3D2
*I *672:A I *D NOR2D1
*I *904:Q O *D DFFHQD1
*CAP
1 *671:A 4.90298e-05
2 *673:A 2.7573e-05
3 *672:A 7.37762e-05
4 *904:Q 5.37588e-06
5 *249:23 0.000130122
6 *249:4 0.000132671
7 *671:A *673:B 0.000181798
8 *671:A rst 0.000824332
9 *671:A *922:A 0.000350401
10 *671:A *903:CK 0.000192672
11 *671:A *668:B 1.25102e-05
12 *671:A x[18] 2.65452e-07
13 *671:A x[19] 1.39661e-07
14 *671:A *667:A 4.5743e-06
15 *671:A *726:B 8.4957e-07
16 *671:A x[8] 8.04111e-06
17 *671:A x[9] 1.06679e-05
*RES
1 *904:Q *249:4 5.5 
2 *249:4 *672:A 18.5559 
3 *249:4 *249:23 7.25714 
4 *249:23 *673:A 11.574 
5 *249:23 *671:A 12.4291 
*END

*D_NET *250 0.0010617
*CONN
*I *667:A I *D NOR2D1
*I *668:A I *D XOR3D2
*I *666:A I *D NAND2D1
*I *905:Q O *D DFFHQD1
*CAP
1 *667:A 3.43146e-05
2 *668:A 4.23712e-05
3 *666:A 3.66151e-05
4 *905:Q 2.26403e-05
5 *250:10 0.000129542
6 *250:8 0.000107511
7 *667:A *668:B 0.000187543
8 *667:A rst 0.000212925
9 *667:A *903:CK 0.000281847
10 *667:A x[19] 2.54258e-07
11 *667:A *673:B 6.13248e-06
*RES
1 *905:Q *250:8 11.41 
2 *250:8 *250:10 2.01486 
3 *250:10 *666:A 12.0484 
4 *250:10 *668:A 12.066 
5 *250:8 *667:A 11.9079 
*END

*D_NET *251 0.000605
*CONN
*I *663:A I *D XOR3D2
*I *662:A I *D NOR2D1
*I *661:A I *D NAND2D1
*I *906:Q O *D DFFHQD1
*CAP
1 *663:A 3.22443e-05
2 *662:A 2.4358e-05
3 *661:A 1.36558e-05
4 *906:Q 8.44808e-05
5 *251:6 9.02503e-05
6 *663:A *663:B 0.000360011
*RES
1 *906:Q *251:6 7.058 
2 *251:6 *661:A 5.77529 
3 *251:6 *662:A 6.13111 
4 *906:Q *663:A 11.7146 
*END

*D_NET *252 0.00155647
*CONN
*I *657:A I *D NOR2D1
*I *658:A I *D XOR3D2
*I *656:A I *D NAND2D1
*I *907:Q O *D DFFHQD1
*CAP
1 *657:A 5.37588e-06
2 *658:A 8.82427e-05
3 *656:A 6.05165e-05
4 *907:Q 6.57969e-05
5 *252:21 0.000135547
6 *252:10 0.000168241
7 *657:A *658:B 0.000659502
8 *657:A *922:A 0.000212755
9 *657:A *927:A 0.000133527
10 *657:A y 2.69648e-05
*RES
1 *907:Q *252:10 18.5149 
2 *252:10 *656:A 7.33329 
3 *252:10 *252:21 1.394 
4 *252:21 *658:A 19.165 
5 *252:21 *657:A 5.5 
*END

*D_NET *253 0.00107747
*CONN
*I *798:A I *D NOR2D1
*I *797:A I *D NAND2D1
*I *847:A I *D XNOR2D1
*I *908:Q O *D DFFHQD1
*CAP
1 *798:A 1.77076e-05
2 *797:A 5.37588e-06
3 *847:A 0.000132217
4 *908:Q 0.000168729
5 *253:18 0.000177231
6 *253:12 0.000226074
7 *798:A *797:B 9.59652e-05
8 *798:A rst 0.000254175
*RES
1 *908:Q *253:12 21.2703 
2 *253:12 *253:18 1.31786 
3 *253:18 *847:A 9.71714 
4 *253:18 *797:A 5.5 
5 *253:12 *798:A 5.91 
*END

*D_NET *254 0.00111786
*CONN
*I *793:A I *D NAND2D1
*I *794:A I *D NOR2D1
*I *844:A I *D XNOR2D1
*I *909:Q O *D DFFHQD1
*CAP
1 *793:A 5.37588e-06
2 *794:A 1.27749e-05
3 *844:A 4.18427e-05
4 *909:Q 5.22366e-05
5 *254:12 8.10899e-05
6 *254:6 8.40848e-05
7 *793:A *794:B 0.000553045
8 *793:A rst 0.000262644
9 *793:A *838:B 1.74379e-05
10 *793:A *841:B 4.57237e-06
11 *793:A *861:CK 2.75125e-06
*RES
1 *909:Q *254:6 7.058 
2 *254:6 *254:12 11.6619 
3 *254:12 *844:A 6.71243 
4 *254:12 *794:A 5.746 
5 *254:6 *793:A 5.5 
*END

*D_NET *255 0.000829014
*CONN
*I *789:A I *D NAND2D1
*I *841:A I *D XNOR2D1
*I *790:A I *D NOR2D1
*I *910:Q O *D DFFHQD1
*CAP
1 *789:A 6.96772e-05
2 *841:A 3.91644e-05
3 *790:A 1.03086e-05
4 *910:Q 1.27749e-05
5 *255:10 7.10126e-05
6 *255:6 0.000103992
7 *789:A *841:B 0.000522085
*RES
1 *910:Q *255:6 5.746 
2 *255:6 *255:10 6.16186 
3 *255:10 *790:A 11 
4 *255:10 *841:A 12.1011 
5 *255:6 *789:A 7.63786 
*END

*D_NET *256 0.00105304
*CONN
*I *785:A I *D NAND2D1
*I *838:A I *D XNOR2D1
*I *786:A I *D NOR2D1
*I *911:Q O *D DFFHQD1
*CAP
1 *785:A 5.37588e-06
2 *838:A 3.91644e-05
3 *786:A 1.03086e-05
4 *911:Q 3.25058e-05
5 *256:12 7.84117e-05
6 *256:6 6.68203e-05
7 *785:A *838:B 0.000737098
8 *785:A *861:CK 8.33597e-05
*RES
1 *911:Q *256:6 6.402 
2 *256:6 *256:12 6.40786 
3 *256:12 *786:A 11 
4 *256:12 *838:A 12.1011 
5 *256:6 *785:A 5.5 
*END

*D_NET *257 0.00275148
*CONN
*I *772:A I *D NOR2D1
*I *771:A I *D NAND2D1
*I *773:A I *D XOR3D2
*I *884:Q O *D DFFHQD1
*CAP
1 *772:A 1.77076e-05
2 *771:A 2.26403e-05
3 *773:A 7.36933e-05
4 *884:Q 0.000109362
5 *257:10 0.000112941
6 *257:8 0.000143677
7 *772:A x[14] 0.000337316
8 *772:A *772:B 0.000409333
9 *772:A x[16] 0.000199573
10 *772:A x[3] 6.71977e-05
11 *772:A rst 0.000533736
12 *772:A y 0.000703907
13 *772:A x[2] 1.13556e-06
14 *772:A x[11] 1.92572e-05
*RES
1 *884:Q *257:8 14.9477 
2 *257:8 *257:10 0.661857 
3 *257:10 *773:A 13.2491 
4 *257:10 *771:A 11.41 
5 *257:8 *772:A 11.246 
*END

*D_NET *258 0.00450604
*CONN
*I *781:A I *D NAND2D1
*I *782:A I *D NOR2D1
*I *835:A I *D XNOR2D1
*I *912:Q O *D DFFHQD1
*CAP
1 *781:A 1.77076e-05
2 *782:A 5.37588e-06
3 *835:A 6.54492e-05
4 *912:Q 0.000185239
5 *258:16 0.000107996
6 *258:12 0.000240118
7 *781:A y 0.00131147
8 *781:A *922:A 0.000985992
9 *781:A x[30] 0.000219635
10 *781:A rst 9.29865e-05
11 *781:A *927:A 0.000498117
12 *781:A *781:B 0.000425214
13 *781:A x[24] 3.09271e-05
14 *781:A x[26] 3.38262e-05
15 *781:A *691:B 3.19903e-05
16 *781:A *928:A 1.76914e-06
17 *781:A *797:B 1.55869e-06
18 *781:A *736:A 2.11674e-05
19 *781:A *658:B 1.77965e-05
20 *781:A x[25] 0.000108775
21 *781:A x[16] 4.07416e-06
22 *781:A *756:A 5.40333e-06
23 *781:A x[27] 9.34457e-05
*RES
1 *912:Q *258:12 23.0307 
2 *258:12 *258:16 1.23586 
3 *258:16 *835:A 7.49729 
4 *258:16 *782:A 5.5 
5 *258:12 *781:A 5.91 
*END

*D_NET *259 0.00062071
*CONN
*I *823:C I *D AND3D1
*I *824:B0 I *D AOI21D1
*I *913:Q O *D DFFHQD1
*CAP
1 *823:C 3.76146e-05
2 *824:B0 3.25058e-05
3 *913:Q 5.37588e-06
4 *259:4 7.54963e-05
5 *823:C x[31] 5.06487e-05
6 *823:C y 0.000352972
7 *823:C *841:B 7.52497e-06
8 *823:C x[28] 2.68304e-05
9 *823:C *752:B 2.29572e-07
10 *823:C rst 1.80374e-05
11 *823:C x[24] 1.34749e-05
*RES
1 *913:Q *259:4 5.5 
2 *259:4 *824:B0 6.402 
3 *259:4 *823:C 6.57186 
*END

*D_NET *260 0.00230809
*CONN
*I *768:A I *D XOR3D2
*I *767:A I *D NOR2D1
*I *766:A I *D NAND2D1
*I *885:Q O *D DFFHQD1
*CAP
1 *768:A 8.28898e-05
2 *767:A 5.60973e-05
3 *766:A 4.73039e-05
4 *885:Q 5.37588e-06
5 *260:6 0.0001108
6 *260:4 9.56647e-05
7 *768:A *767:B 0.00104573
8 *768:A rst 0.000864229
*RES
1 *885:Q *260:4 5.5 
2 *260:4 *260:6 0.246 
3 *260:6 *766:A 6.894 
4 *260:6 *767:A 18.1283 
5 *260:4 *768:A 8.07714 
*END

*D_NET *261 0.00317511
*CONN
*I *761:A I *D NAND2D1
*I *762:A I *D NOR2D1
*I *763:A I *D XOR3D2
*I *886:Q O *D DFFHQD1
*CAP
1 *761:A 6.82633e-05
2 *762:A 4.73039e-05
3 *763:A 1.03086e-05
4 *886:Q 3.43146e-05
5 *261:19 0.000132174
6 *261:10 6.12301e-05
7 *761:A *850:CK 0.00039536
8 *761:A *761:B 0.0011007
9 *761:A x[13] 0.000115696
10 *761:A x[29] 0.000227209
11 *761:A x[11] 0.000239392
12 *761:A *829:B 2.95064e-06
13 *761:A x[10] 2.91535e-05
14 *761:A y 2.56201e-05
15 *761:A x[4] 7.86905e-06
16 *761:A x[17] 0.000123929
17 *761:A *861:CK 5.67685e-06
18 *761:A x[15] 0.000172214
19 *761:A *767:B 6.81006e-06
20 *761:A rst 2.34399e-05
21 *761:A x[14] 4.88495e-06
22 *761:A clk 0.000170199
23 *761:A x[3] 7.37434e-06
24 *761:A x[31] 1.29852e-05
25 *761:A x[16] 4.34054e-06
26 *761:A *698:B 1.23679e-05
27 *761:A x[12] 5.07351e-06
28 *761:A *922:A 0.000124414
29 *761:A x[24] 3.85106e-06
*RES
1 *886:Q *261:10 11.9079 
2 *261:10 *763:A 11 
3 *261:10 *261:19 0.661857 
4 *261:19 *762:A 12.23 
5 *261:19 *761:A 13.2609 
*END

*D_NET *262 0.00504792
*CONN
*I *756:A I *D NAND2D1
*I *757:A I *D NOR2D1
*I *758:A I *D XOR3D2
*I *887:Q O *D DFFHQD1
*CAP
1 *756:A 0.000111429
2 *757:A 5.55838e-05
3 *758:A 5.55838e-05
4 *887:Q 0.000109362
5 *262:12 0.000147257
6 *262:8 0.00025688
7 *756:A *756:B 0.00123406
8 *756:A *928:A 0.000926009
9 *756:A *922:A 0.00105956
10 *756:A x[26] 0.000831544
11 *756:A x[30] 0.000109821
12 *756:A *781:B 3.61579e-06
13 *756:A y 2.80768e-05
14 *756:A rst 7.65332e-05
15 *756:A x[16] 7.72129e-06
16 *756:A x[24] 3.48863e-05
*RES
1 *887:Q *262:8 14.9477 
2 *262:8 *262:12 6.74171 
3 *262:12 *758:A 7.16929 
4 *262:12 *757:A 7.16929 
5 *262:8 *756:A 14.362 
*END

*D_NET *263 0.00105198
*CONN
*I *753:A I *D XOR3D2
*I *752:A I *D NOR2D1
*I *751:A I *D NAND2D1
*I *888:Q O *D DFFHQD1
*CAP
1 *753:A 3.18482e-05
2 *752:A 1.77076e-05
3 *751:A 5.48791e-05
4 *888:Q 1.36558e-05
5 *263:21 7.10484e-05
6 *263:6 9.00274e-05
7 *753:A *752:B 0.000428142
8 *753:A x[10] 0.00014807
9 *753:A x[13] 6.16533e-05
10 *753:A x[24] 4.87959e-06
11 *753:A *922:A 1.09101e-05
12 *753:A rst 7.10853e-05
13 *753:A *850:CK 4.80769e-05
*RES
1 *888:Q *263:6 5.77529 
2 *263:6 *751:A 7.14586 
3 *263:6 *263:21 0.714571 
4 *263:21 *752:A 5.91 
5 *263:21 *753:A 17.1619 
*END

*D_NET *264 0.00262141
*CONN
*I *747:A I *D NOR2D1
*I *746:A I *D NAND2D1
*I *748:A I *D XOR3D2
*I *889:Q O *D DFFHQD1
*CAP
1 *747:A 5.22366e-05
2 *746:A 4.57184e-05
3 *748:A 5.37588e-06
4 *889:Q 0.000145943
5 *264:16 8.48827e-05
6 *264:10 0.000231968
7 *747:A x[31] 0.000412801
8 *747:A x[8] 0.000110386
9 *747:A *748:B 0.000746414
10 *747:A x[9] 0.000218688
11 *747:A x[27] 9.60992e-05
12 *747:A x[20] 6.01532e-06
13 *747:A *928:A 0.000149918
14 *747:A *742:B 1.73488e-05
15 *747:A p 1.62661e-05
16 *747:A x[28] 4.96716e-05
17 *747:A rst 0.000231673
*RES
1 *889:Q *264:10 16.3241 
2 *264:10 *264:16 6.60114 
3 *264:16 *748:A 5.5 
4 *264:16 *746:A 6.84129 
5 *264:10 *747:A 12.394 
*END

*D_NET *265 0.00211544
*CONN
*I *742:A I *D NOR2D1
*I *743:A I *D XOR3D2
*I *741:A I *D NAND2D1
*I *890:Q O *D DFFHQD1
*CAP
1 *742:A 1.03086e-05
2 *743:A 4.57184e-05
3 *741:A 5.37588e-06
4 *890:Q 8.82427e-05
5 *265:16 0.000104282
6 *265:10 0.000151739
7 *742:A *859:CK 0.000289196
8 *742:A x[31] 2.31056e-05
9 *742:A *742:B 0.000918694
10 *742:A x[26] 0.000146484
11 *742:A *841:B 1.16395e-06
12 *742:A rst 7.38015e-05
13 *742:A y 0.000139516
14 *742:A x[24] 0.000117807
*RES
1 *890:Q *265:10 13.829 
2 *265:10 *265:16 7.37429 
3 *265:16 *741:A 5.5 
4 *265:16 *743:A 6.84129 
5 *265:10 *742:A 11 
*END

*D_NET *266 0.0036453
*CONN
*I *736:A I *D NAND2D1
*I *738:A I *D XOR3D2
*I *737:A I *D NOR2D1
*I *891:Q O *D DFFHQD1
*CAP
1 *736:A 1.77076e-05
2 *738:A 7.61954e-05
3 *737:A 5.37588e-06
4 *891:Q 0.000131559
5 *266:16 0.000115443
6 *266:10 0.000183139
7 *736:A x[27] 0.000710799
8 *736:A rst 0.00118566
9 *736:A *927:A 0.000415281
10 *736:A *738:B 0.000398903
11 *736:A x[9] 8.12128e-05
12 *736:A *928:A 3.54681e-06
13 *736:A y 0.000173708
14 *736:A x[25] 9.74838e-06
15 *736:A x[22] 3.62259e-06
16 *736:A *687:B 6.22746e-06
17 *736:A *663:B 7.29617e-05
18 *736:A *797:B 1.10237e-06
19 *736:A *658:B 1.9425e-05
20 *736:A *922:A 3.36949e-05
*RES
1 *891:Q *266:10 15.6857 
2 *266:10 *266:16 6.57186 
3 *266:16 *737:A 5.5 
4 *266:16 *738:A 7.85457 
5 *266:10 *736:A 11.246 
*END

*D_NET *1 0.0102652
*CONN
*P clk I
*I *914:A I *D CLKBUFD8
*CAP
1 clk 0.000926751
2 *914:A 2.95549e-05
3 *1:22 0.000956306
4 clk x[28] 0.000139032
5 clk rst 0.000609443
6 clk *698:B 0.000792877
7 clk x[11] 0.00380267
8 clk y 0.000997605
9 clk *928:A 0.00014365
10 clk x[24] 0.00017712
11 clk *922:A 0.00022754
12 clk x[31] 2.32671e-05
13 clk *829:B 0.000333219
14 clk x[14] 0.000314319
15 clk x[3] 0.000232287
16 clk x[16] 0.000260049
17 clk x[13] 0.000264218
18 clk x[12] 3.53322e-05
*RES
1 clk *1:22 42.7794 
2 *1:22 *914:A 6.30389 
*END

*D_NET *267 0.0147515
*CONN
*I *922:A I *D CLKBUFD8
*I *921:A I *D CLKBUFD8
*I *918:A I *D CLKBUFD8
*I *917:A I *D CLKBUFD8
*I *919:A I *D CLKBUFD8
*I *920:A I *D CLKBUFD8
*I *915:A I *D CLKBUFD8
*I *916:A I *D CLKBUFD8
*I *914:Y O *D CLKBUFD8
*CAP
1 *922:A 2.7573e-05
2 *921:A 2.70005e-05
3 *918:A 2.26403e-05
4 *917:A 2.26403e-05
5 *919:A 5.37588e-06
6 *920:A 2.75731e-05
7 *915:A 2.75731e-05
8 *916:A 4.16665e-05
9 *914:Y 1.94693e-05
10 *267:166 0.000251252
11 *267:150 3.49721e-05
12 *267:146 0.000402203
13 *267:119 0.000286588
14 *267:117 0.000341038
15 *267:115 0.000438663
16 *267:100 0.000247705
17 *267:84 0.000325576
18 *267:71 0.000302936
19 *267:69 2.99073e-05
20 *267:65 0.000172547
21 *267:49 0.000309199
22 *267:29 8.44753e-05
23 *267:23 0.000382721
24 *267:17 0.000409247
25 *267:8 0.000205588
26 *267:6 6.1089e-05
27 *922:A y 0.00101302
28 *922:A x[24] 0.000201936
29 *922:A x[26] 0.000334776
30 *922:A x[28] 0.000668669
31 *922:A rst 0.000936529
32 *922:A *698:B 0.000237859
33 *922:A *752:B 0.000141861
34 *922:A x[13] 6.11593e-05
35 *922:A *928:A 0.000508199
36 *922:A *861:CK 0.000697779
37 *922:A *893:CK 0.000557347
38 *922:A *658:B 0.000152905
39 *922:A *927:A 3.24104e-05
40 *922:A x[30] 0.000365856
41 *922:A *726:B 0.000311834
42 *922:A *903:CK 0.000849512
43 *922:A x[8] 0.000626507
44 *922:A x[9] 0.0004235
45 *922:A *761:B 0.00037337
46 *922:A x[16] 0.000305998
47 *922:A x[31] 8.63283e-05
48 *922:A x[10] 0.000112683
49 *922:A *850:CK 3.75543e-05
50 *922:A *756:B 0.00010463
51 *922:A x[29] 0.000186874
52 *922:A *717:B 4.58294e-05
53 *922:A *711:B 5.9599e-05
54 *922:A *691:B 8.34468e-05
55 *922:A *797:B 6.04876e-06
56 *922:A x[25] 0.000146738
57 *922:A x[15] 0.000289196
58 *922:A x[11] 5.6572e-05
59 *922:A x[27] 0.000227751
*RES
1 *914:Y *267:6 5.96857 
2 *267:6 *267:8 0.251857 
3 *267:8 *267:17 11.9194 
4 *267:17 *267:23 7.47971 
5 *267:23 *267:29 1.42329 
6 *267:29 *916:A 6.70657 
7 *267:23 *267:49 21.619 
8 *267:49 *915:A 6.238 
9 *267:17 *267:65 11.2678 
10 *267:65 *267:69 0.651607 
11 *267:69 *267:71 5.5 
12 *267:71 *267:84 16.9683 
13 *267:84 *920:A 6.238 
14 *267:69 *919:A 5.5 
15 *267:6 *267:100 1.13189 
16 *267:100 *267:115 23.4422 
17 *267:115 *267:117 2.17007 
18 *267:117 *267:119 10.5194 
19 *267:119 *917:A 11.41 
20 *267:117 *918:A 11.41 
21 *267:115 *267:146 6.79721 
22 *267:146 *267:150 5.60104 
23 *267:150 *921:A 6.21896 
24 *267:146 *267:166 8.91457 
25 *267:166 *922:A 11.574 
*END

*D_NET *268 0.00368925
*CONN
*I *893:CK I *D DFFHQD1
*I *862:CK I *D DFFHQD1
*I *863:CK I *D DFFHQD1
*I *864:CK I *D DFFHQD1
*I *923:A I *D CLKINVD1
*I *896:CK I *D DFFHQD1
*I *865:CK I *D DFFHQD1
*I *866:CK I *D DFFHQD1
*I *895:CK I *D DFFHQD1
*I *915:Y O *D CLKBUFD8
*CAP
1 *893:CK 8.67655e-05
2 *862:CK 1.36558e-05
3 *863:CK 0.000141025
4 *864:CK 2.26403e-05
5 *923:A 2.26403e-05
6 *896:CK 1.36558e-05
7 *865:CK 5.37588e-06
8 *866:CK 0.000136907
9 *895:CK 7.03819e-05
10 *915:Y 3.74385e-05
11 *268:80 0.000167013
12 *268:78 0.000154586
13 *268:31 0.000286212
14 *268:27 0.00019458
15 *268:16 0.000153166
16 *268:12 8.98858e-05
17 *268:10 6.55538e-05
18 *268:8 0.000114384
19 *893:CK *717:B 0.00110208
20 *893:CK *711:B 0.000594375
21 *893:CK rst 0.000216928
*RES
1 *915:Y *268:8 11.902 
2 *268:8 *268:10 0.855143 
3 *268:10 *268:12 0.855143 
4 *268:12 *268:16 7.12829 
5 *268:16 *895:CK 7.66129 
6 *268:16 *268:27 1.23 
7 *268:27 *268:31 4.78529 
8 *268:31 *866:CK 21.0393 
9 *268:31 *865:CK 5.5 
10 *268:27 *896:CK 5.77529 
11 *268:12 *923:A 11.41 
12 *268:10 *864:CK 11.41 
13 *268:8 *268:78 7.51486 
14 *268:78 *268:80 0.41 
15 *268:80 *863:CK 10.01 
16 *268:80 *862:CK 5.77529 
17 *268:78 *893:CK 8.206 
*END

*D_NET *269 0.00819295
*CONN
*I *861:CK I *D DFFHQD1
*I *892:CK I *D DFFHQD1
*I *897:CK I *D DFFHQD1
*I *913:CK I *D DFFHQD1
*I *924:A I *D CLKINVD1
*I *879:CK I *D DFFHQD1
*I *894:CK I *D DFFHQD1
*I *910:CK I *D DFFHQD1
*I *911:CK I *D DFFHQD1
*I *916:Y O *D CLKBUFD8
*CAP
1 *861:CK 1.77076e-05
2 *892:CK 5.37588e-06
3 *897:CK 9.0046e-05
4 *913:CK 8.03463e-05
5 *924:A 5.37588e-06
6 *879:CK 0.000122357
7 *894:CK 0.000166576
8 *910:CK 3.74385e-05
9 *911:CK 0.000107723
10 *916:Y 1.94693e-05
11 *269:94 0.000212983
12 *269:88 0.000203752
13 *269:71 0.00019569
14 *269:33 0.000319933
15 *269:29 0.000259071
16 *269:16 0.000179338
17 *269:8 7.02886e-05
18 *269:6 8.04235e-05
19 *861:CK x[13] 0.000248417
20 *861:CK x[29] 0.00112508
21 *861:CK y 0.0019112
22 *861:CK rst 0.00235042
23 *861:CK x[15] 1.18186e-05
24 *861:CK x[2] 7.26893e-06
25 *861:CK *850:CK 1.29922e-05
26 *861:CK *752:B 1.70554e-06
27 *861:CK x[17] 9.55282e-06
28 *861:CK *733:B 8.69814e-05
29 *861:CK *717:B 2.90685e-05
30 *861:CK *722:B 3.60087e-05
31 *861:CK *838:B 0.000125908
32 *861:CK *841:B 2.53566e-05
33 *861:CK x[4] 5.41098e-06
34 *861:CK *706:B 3.18547e-05
*RES
1 *916:Y *269:6 5.96857 
2 *269:6 *269:8 0.468571 
3 *269:8 *269:16 7.08436 
4 *269:16 *911:CK 14.8335 
5 *269:16 *269:29 0.828786 
6 *269:29 *269:33 9.19 
7 *269:33 *910:CK 6.566 
8 *269:33 *894:CK 21.1776 
9 *269:29 *879:CK 15.1234 
10 *269:8 *924:A 5.5 
11 *269:6 *269:71 1.558 
12 *269:71 *913:CK 19.0947 
13 *269:71 *269:88 7.69057 
14 *269:88 *269:94 9.41843 
15 *269:94 *897:CK 19.4813 
16 *269:94 *892:CK 5.5 
17 *269:88 *861:CK 11.246 
*END

*D_NET *270 0.00629157
*CONN
*I *851:CK I *D DFFHQD1
*I *883:CK I *D DFFHQD1
*I *852:CK I *D DFFHQD1
*I *853:CK I *D DFFHQD1
*I *854:CK I *D DFFHQD1
*I *867:CK I *D DFFHQD1
*I *899:CK I *D DFFHQD1
*I *885:CK I *D DFFHQD1
*I *898:CK I *D DFFHQD1
*I *917:Y O *D CLKBUFD8
*CAP
1 *851:CK 0.000123912
2 *883:CK 2.69155e-05
3 *852:CK 2.59875e-05
4 *853:CK 2.59875e-05
5 *854:CK 5.37588e-06
6 *867:CK 5.37588e-06
7 *899:CK 9.0046e-05
8 *885:CK 5.37588e-06
9 *898:CK 0.000157585
10 *917:Y 5.37588e-06
11 *270:89 0.00023715
12 *270:76 0.00016745
13 *270:63 0.00015688
14 *270:38 0.000239351
15 *270:34 0.000233892
16 *270:14 0.000245911
17 *270:8 0.000214398
18 *270:4 0.000127989
19 *851:CK x[14] 0.000773296
20 *851:CK rst 0.00103562
21 *851:CK *703:B 0.00138771
22 *851:CK *767:B 0.000136406
23 *851:CK x[16] 0.000245005
24 *851:CK x[11] 0.00010026
25 *851:CK x[3] 0.000122257
26 *851:CK x[13] 4.91238e-05
27 *851:CK x[12] 6.91216e-06
28 *851:CK y 0.000197633
29 *851:CK x[31] 1.9733e-05
30 *851:CK *777:B 0.000122655
*RES
1 *917:Y *270:4 5.5 
2 *270:4 *270:8 6.894 
3 *270:8 *270:14 8.29971 
4 *270:14 *898:CK 10.5606 
5 *270:14 *885:CK 5.5 
6 *270:8 *270:34 8.67457 
7 *270:34 *270:38 4.78529 
8 *270:38 *899:CK 19.4813 
9 *270:38 *867:CK 5.5 
10 *270:34 *854:CK 5.5 
11 *270:4 *270:63 2.51857 
12 *270:63 *853:CK 6.18529 
13 *270:63 *270:76 1.83329 
14 *270:76 *852:CK 6.18529 
15 *270:76 *270:89 8.206 
16 *270:89 *883:CK 11.6619 
17 *270:89 *851:CK 15.5276 
*END

*D_NET *271 0.010886
*CONN
*I *850:CK I *D DFFHQD1
*I *882:CK I *D DFFHQD1
*I *925:A I *D CLKINVD1
*I *888:CK I *D DFFHQD1
*I *855:CK I *D DFFHQD1
*I *857:CK I *D DFFHQD1
*I *868:CK I *D DFFHQD1
*I *884:CK I *D DFFHQD1
*I *886:CK I *D DFFHQD1
*I *918:Y O *D CLKBUFD8
*CAP
1 *850:CK 5.45947e-05
2 *882:CK 0.000119062
3 *925:A 4.418e-05
4 *888:CK 6.57969e-05
5 *855:CK 2.69155e-05
6 *857:CK 5.37588e-06
7 *868:CK 0.000127284
8 *884:CK 0.000107377
9 *886:CK 5.37588e-06
10 *918:Y 5.37588e-06
11 *271:99 0.000259979
12 *271:82 0.000187228
13 *271:69 0.000169384
14 *271:40 0.000184453
15 *271:36 0.000114715
16 *271:18 0.000261467
17 *271:8 0.000236514
18 *271:4 0.00010403
19 *850:CK x[13] 0.00201484
20 *850:CK x[29] 0.000580862
21 *850:CK x[15] 0.000782892
22 *850:CK x[2] 0.000880165
23 *850:CK *752:B 0.00010815
24 *850:CK x[17] 0.000988481
25 *850:CK *829:B 0.000735263
26 *850:CK *761:B 0.00047438
27 *850:CK x[10] 0.000759509
28 *850:CK y 0.000590215
29 *850:CK x[4] 0.000332656
30 *850:CK *733:B 3.08835e-05
31 *850:CK x[24] 2.67467e-05
32 *850:CK rst 8.39148e-05
33 *850:CK x[6] 6.73893e-05
34 *850:CK *767:B 7.60792e-06
35 *850:CK x[11] 0.000268224
36 *850:CK x[14] 4.06642e-05
37 *850:CK x[16] 3.40437e-05
*RES
1 *918:Y *271:4 5.5 
2 *271:4 *271:8 7.058 
3 *271:8 *271:18 11.1814 
4 *271:18 *886:CK 5.5 
5 *271:18 *884:CK 8.89129 
6 *271:8 *271:36 1.435 
7 *271:36 *271:40 7.058 
8 *271:40 *868:CK 9.55314 
9 *271:40 *857:CK 5.5 
10 *271:36 *855:CK 11.6619 
11 *271:4 *271:69 1.558 
12 *271:69 *888:CK 18.5149 
13 *271:69 *271:82 1.886 
14 *271:82 *925:A 17.5719 
15 *271:82 *271:99 8.206 
16 *271:99 *882:CK 15.3343 
17 *271:99 *850:CK 12.7103 
*END

*D_NET *272 0.00302217
*CONN
*I *859:CK I *D DFFHQD1
*I *860:CK I *D DFFHQD1
*I *890:CK I *D DFFHQD1
*I *926:A I *D CLKINVD16
*I *881:CK I *D DFFHQD1
*I *909:CK I *D DFFHQD1
*I *878:CK I *D DFFHQD1
*I *880:CK I *D DFFHQD1
*I *919:Y O *D CLKBUFD8
*CAP
1 *859:CK 9.32225e-05
2 *860:CK 2.84586e-05
3 *890:CK 7.68248e-05
4 *926:A 5.37588e-06
5 *881:CK 5.37588e-06
6 *909:CK 6.5714e-05
7 *878:CK 3.17653e-05
8 *880:CK 3.18011e-05
9 *919:Y 0.000114339
10 *272:83 0.000165697
11 *272:66 0.000192808
12 *272:29 0.000183802
13 *272:16 0.000183129
14 *272:12 0.000153533
15 *272:6 0.000130898
16 *859:CK x[26] 0.00055297
17 *859:CK x[31] 8.73048e-05
18 *859:CK *841:B 5.09637e-05
19 *859:CK rst 0.000868196
*RES
1 *919:Y *272:6 6.73 
2 *272:6 *272:12 2.76457 
3 *272:12 *272:16 2.16129 
4 *272:16 *880:CK 6.37857 
5 *272:16 *272:29 8.206 
6 *272:29 *878:CK 11.8551 
7 *272:29 *909:CK 13.2081 
8 *272:12 *881:CK 5.5 
9 *272:6 *926:A 5.5 
10 *919:Y *272:66 13.05 
11 *272:66 *890:CK 13.4717 
12 *272:66 *272:83 1.75421 
13 *272:83 *860:CK 11.7234 
14 *272:83 *859:CK 13.8319 
*END

*D_NET *273 0.00527611
*CONN
*I *927:A I *D CLKINVD1
*I *891:CK I *D DFFHQD1
*I *875:CK I *D DFFHQD1
*I *906:CK I *D DFFHQD1
*I *912:CK I *D DFFHQD1
*I *876:CK I *D DFFHQD1
*I *907:CK I *D DFFHQD1
*I *908:CK I *D DFFHQD1
*I *877:CK I *D DFFHQD1
*I *920:Y O *D CLKBUFD8
*CAP
1 *927:A 5.37588e-06
2 *891:CK 5.37588e-06
3 *875:CK 7.54136e-05
4 *906:CK 0.000101564
5 *912:CK 3.43975e-05
6 *876:CK 6.29828e-05
7 *907:CK 6.57969e-05
8 *908:CK 6.5714e-05
9 *877:CK 6.5714e-05
10 *920:Y 1.36558e-05
11 *273:89 0.000237315
12 *273:85 0.000107642
13 *273:70 0.000149741
14 *273:53 0.000212111
15 *273:45 0.000113327
16 *273:12 0.00027201
17 *273:8 0.000243374
18 *273:6 8.28898e-05
19 *927:A rst 0.00135713
20 *927:A *658:B 0.000746363
21 *927:A y 8.60413e-05
22 *927:A x[25] 0.00068011
23 *927:A *797:B 0.000332519
24 *927:A *677:B 6.38803e-06
25 *927:A *673:B 1.03248e-05
26 *927:A x[3] 1.84328e-05
27 *927:A x[22] 1.13035e-05
28 *927:A x[27] 3.03954e-05
29 *927:A *903:CK 8.26982e-05
*RES
1 *920:Y *273:6 5.77529 
2 *273:6 *273:8 1.23 
3 *273:8 *273:12 10.01 
4 *273:12 *877:CK 13.2081 
5 *273:12 *908:CK 13.2081 
6 *273:8 *907:CK 18.5149 
7 *273:6 *273:45 1.07186 
8 *273:45 *273:53 13.0044 
9 *273:53 *876:CK 7.41529 
10 *273:53 *273:70 7.85457 
11 *273:70 *912:CK 11.8786 
12 *273:70 *273:85 6.73 
13 *273:85 *273:89 7.70814 
14 *273:89 *906:CK 14.034 
15 *273:89 *875:CK 13.5947 
16 *273:85 *891:CK 5.5 
17 *273:45 *927:A 5.5 
*END

*D_NET *274 0.00984386
*CONN
*I *928:A I *D CLKINVD16
*I *871:CK I *D DFFHQD1
*I *870:CK I *D DFFHQD1
*I *887:CK I *D DFFHQD1
*I *889:CK I *D DFFHQD1
*I *902:CK I *D DFFHQD1
*I *856:CK I *D DFFHQD1
*I *858:CK I *D DFFHQD1
*I *921:Y O *D CLKBUFD8
*CAP
1 *928:A 5.71693e-05
2 *871:CK 0.000198855
3 *870:CK 1.03086e-05
4 *887:CK 5.37588e-06
5 *889:CK 0.000107377
6 *902:CK 0.000150891
7 *856:CK 1.27749e-05
8 *858:CK 0.000180487
9 *921:Y 5.37588e-06
10 *274:67 0.000296964
11 *274:56 0.000136664
12 *274:37 0.000172322
13 *274:12 0.000209952
14 *274:8 0.000237535
15 *274:6 9.63443e-05
16 *274:4 6.74779e-05
17 *928:A x[31] 0.00142878
18 *928:A x[8] 0.00117415
19 *928:A x[27] 0.00171612
20 *928:A rst 0.000286365
21 *928:A *756:B 0.000709266
22 *928:A x[26] 0.00116232
23 *928:A x[30] 0.000584865
24 *928:A x[21] 6.94763e-05
25 *928:A x[20] 9.36194e-06
26 *928:A *742:B 9.17299e-06
27 *928:A p 2.47875e-05
28 *928:A x[28] 9.08974e-05
29 *928:A x[9] 5.32746e-05
30 *928:A y 0.000121079
31 *928:A x[25] 1.02752e-05
32 *928:A x[22] 4.49287e-06
33 *928:A *687:B 3.42436e-06
34 *928:A x[11] 6.03751e-05
35 *928:A *698:B 1.03361e-05
36 *928:A *691:B 8.11814e-06
37 *928:A *903:CK 2.30039e-05
38 *928:A *781:B 3.97736e-06
39 *928:A x[19] 1.40379e-06
40 *928:A x[5] 3.34409e-05
41 *928:A x[16] 2.56345e-05
42 *928:A x[24] 0.000273594
*RES
1 *921:Y *274:4 5.5 
2 *274:4 *274:6 5.5 
3 *274:6 *274:8 2.788 
4 *274:8 *274:12 5.96857 
5 *274:12 *858:CK 11.322 
6 *274:12 *856:CK 5.746 
7 *274:8 *902:CK 15.674 
8 *274:6 *274:37 0.855143 
9 *274:37 *889:CK 14.2273 
10 *274:37 *274:56 6.98771 
11 *274:56 *887:CK 5.5 
12 *274:56 *274:67 8.493 
13 *274:67 *870:CK 11 
14 *274:67 *871:CK 17.3784 
15 *274:4 *928:A 7.222 
*END

*D_NET *275 0.00821522
*CONN
*I *903:CK I *D DFFHQD1
*I *872:CK I *D DFFHQD1
*I *873:CK I *D DFFHQD1
*I *905:CK I *D DFFHQD1
*I *874:CK I *D DFFHQD1
*I *901:CK I *D DFFHQD1
*I *904:CK I *D DFFHQD1
*I *869:CK I *D DFFHQD1
*I *900:CK I *D DFFHQD1
*I *922:Y O *D CLKBUFD8
*CAP
1 *903:CK 0.000155295
2 *872:CK 5.37588e-06
3 *873:CK 5.37588e-06
4 *905:CK 5.37588e-06
5 *874:CK 5.37588e-06
6 *901:CK 1.36558e-05
7 *904:CK 0.000104911
8 *869:CK 5.37588e-06
9 *900:CK 7.54136e-05
10 *922:Y 2.26403e-05
11 *275:89 0.00029632
12 *275:82 0.000201451
13 *275:52 0.000276589
14 *275:41 0.000225938
15 *275:24 0.00022739
16 *275:20 0.000208441
17 *275:14 0.000264695
18 *275:6 0.000228757
19 *903:CK rst 0.00173312
20 *903:CK *687:B 0.000325181
21 *903:CK x[25] 0.000690821
22 *903:CK *677:B 1.10795e-05
23 *903:CK *673:B 1.6802e-05
24 *903:CK *668:B 0.000407802
25 *903:CK *691:B 0.00232317
26 *903:CK *726:B 7.42403e-06
27 *903:CK x[8] 6.67254e-05
28 *903:CK x[9] 0.000108787
29 *903:CK x[3] 2.29507e-05
30 *903:CK x[22] 1.98379e-05
31 *903:CK x[27] 6.2263e-05
32 *903:CK x[21] 2.04266e-06
33 *903:CK y 1.87665e-05
34 *903:CK x[26] 1.74052e-05
35 *903:CK x[30] 5.2671e-05
*RES
1 *922:Y *275:6 6.074 
2 *275:6 *275:14 4.84386 
3 *275:14 *275:20 3.77786 
4 *275:20 *275:24 8.86786 
5 *275:24 *900:CK 13.5947 
6 *275:24 *275:41 7.41529 
7 *275:41 *869:CK 5.5 
8 *275:41 *275:52 5.25386 
9 *275:52 *904:CK 8.80929 
10 *275:52 *901:CK 5.77529 
11 *275:20 *874:CK 5.5 
12 *275:14 *905:CK 5.5 
13 *275:6 *275:82 2.009 
14 *275:82 *873:CK 5.5 
15 *275:82 *275:89 4.51 
16 *275:89 *872:CK 5.5 
17 *275:89 *903:CK 10.4844 
*END

*D_NET *2 0.00449152
*CONN
*P p O
*I *850:Q O *D DFFHQD1
*CAP
1 p 0.000499795
2 *850:Q 0.000499795
3 p x[31] 0.000338177
4 p x[8] 0.00185672
5 p x[20] 0.000288073
6 p x[0] 0.00042065
7 p y 0.000533977
8 p *742:B 3.58322e-06
9 p x[28] 1.87043e-05
10 p *752:B 1.36172e-06
11 p rst 2.69178e-05
12 p x[24] 3.76343e-06
*RES
1 *850:Q p 32.1083 
*END

*D_NET *3 0.0409375
*CONN
*P rst I
*I *805:C0 I *D AOI211D1
*I *754:A I *D NOR2D1
*I *749:A I *D NOR2D1
*I *694:A I *D NOR2D1
*I *821:C0 I *D AOI211D1
*I *808:C0 I *D AOI211D1
*I *818:C0 I *D AOI211D1
*I *802:C0 I *D AOI211D1
*I *801:C0 I *D AOI211D1
*I *659:A I *D NOR2D1
*I *664:A I *D NOR2D1
*I *804:C0 I *D AOI211D1
*I *674:A I *D NOR2D1
*I *669:A I *D NOR2D1
*I *803:C0 I *D AOI211D1
*I *806:C0 I *D AOI211D1
*I *684:A I *D NOR2D1
*I *679:A I *D NOR2D1
*I *820:C0 I *D AOI211D1
*I *689:A I *D NOR2D1
*I *807:C0 I *D AOI211D1
*I *744:A I *D NOR2D1
*I *817:C0 I *D AOI211D1
*I *825:A I *D NOR3D1
*I *739:A I *D NOR2D1
*I *816:C0 I *D AOI211D1
*I *783:C0 I *D AOI211D1
*I *795:C0 I *D AOI211D1
*I *654:A I *D INVD1
*I *800:C0 I *D AOI211D1
*I *799:C0 I *D AOI211D1
*I *734:A I *D NOR2D1
*I *815:C0 I *D AOI211D1
*I *729:A I *D NOR2D1
*I *787:C0 I *D AOI211D1
*I *814:C0 I *D AOI211D1
*I *791:C0 I *D AOI211D1
*I *813:C0 I *D AOI211D1
*I *719:A I *D NOR2D1
*I *724:A I *D NOR2D1
*I *714:A I *D NOR2D1
*I *812:C0 I *D AOI211D1
*I *810:C0 I *D AOI211D1
*I *819:C0 I *D AOI211D1
*I *759:A I *D NOR2D1
*I *830:A I *D NOR2D1
*I *834:C0 I *D AOI211D1
*I *832:C0 I *D AOI211D1
*I *833:C0 I *D AOI211D1
*I *779:A I *D NOR2D1
*I *764:A I *D NOR2D1
*I *699:A I *D NOR2D1
*I *822:C0 I *D AOI211D1
*I *809:C0 I *D AOI211D1
*I *704:A I *D NOR2D1
*I *709:A I *D NOR2D1
*I *811:C0 I *D AOI211D1
*I *774:A I *D NOR2D1
*I *769:A I *D NOR2D1
*CAP
1 rst 0.000397922
2 *805:C0 1.27335e-05
3 *754:A 5.37588e-06
4 *749:A 3.00394e-05
5 *694:A 5.37588e-06
6 *821:C0 0.000155823
7 *808:C0 2.20657e-05
8 *818:C0 3.25058e-05
9 *802:C0 5.37588e-06
10 *801:C0 8.77454e-05
11 *659:A 9.66309e-05
12 *664:A 1.36558e-05
13 *804:C0 0.000101564
14 *674:A 5.37588e-06
15 *669:A 0.000166746
16 *803:C0 3.18482e-05
17 *806:C0 1.23345e-05
18 *684:A 5.37588e-06
19 *679:A 0.000122357
20 *820:C0 2.69155e-05
21 *689:A 2.7573e-05
22 *807:C0 7.69001e-05
23 *744:A 1.27749e-05
24 *817:C0 5.37588e-06
25 *825:A 5.37588e-06
26 *739:A 1.27749e-05
27 *816:C0 1.77076e-05
28 *783:C0 2.26403e-05
29 *795:C0 0.000272644
30 *654:A 5.37588e-06
31 *800:C0 1.77076e-05
32 *799:C0 0.0002169
33 *734:A 1.77076e-05
34 *815:C0 4.73039e-05
35 *729:A 5.37588e-06
36 *787:C0 5.37588e-06
37 *814:C0 4.68634e-05
38 *791:C0 0.000336077
39 *813:C0 8.72087e-05
40 *719:A 0.00013528
41 *724:A 1.03086e-05
42 *714:A 1.03086e-05
43 *812:C0 8.0205e-05
44 *810:C0 0.000193477
45 *819:C0 8.07608e-05
46 *759:A 2.20238e-05
47 *830:A 1.27749e-05
48 *834:C0 5.37588e-06
49 *832:C0 4.73039e-05
50 *833:C0 6.82679e-05
51 *779:A 5.37588e-06
52 *764:A 5.37588e-06
53 *699:A 0.000149305
54 *822:C0 1.03086e-05
55 *809:C0 5.37588e-06
56 *704:A 5.37588e-06
57 *709:A 5.37588e-06
58 *811:C0 0.000146839
59 *774:A 2.26403e-05
60 *769:A 0.00011002
61 *3:778 0.000269875
62 *3:772 0.000188793
63 *3:766 0.000167425
64 *3:726 0.000283911
65 *3:715 0.000237565
66 *3:709 0.000256017
67 *3:682 0.000251942
68 *3:676 0.000247271
69 *3:661 0.000274158
70 *3:630 0.000273248
71 *3:617 0.00025349
72 *3:611 0.000171246
73 *3:605 0.000330731
74 *3:599 0.00021933
75 *3:588 0.000145144
76 *3:573 0.000281851
77 *3:569 0.000153757
78 *3:510 0.000345923
79 *3:473 0.000358076
80 *3:467 0.00016584
81 *3:465 0.000243895
82 *3:459 0.000278038
83 *3:453 0.000214343
84 *3:438 0.000158695
85 *3:432 0.000100665
86 *3:372 0.000479966
87 *3:359 0.00039394
88 *3:316 0.000170168
89 *3:314 0.00010657
90 *3:312 0.000286987
91 *3:306 0.000217033
92 *3:298 0.000193467
93 *3:296 0.000163222
94 *3:277 0.000343186
95 *3:271 0.000224542
96 *3:269 0.000243871
97 *3:261 0.000189648
98 *3:259 0.000201695
99 *3:251 0.000236346
100 *3:243 0.000347858
101 *3:217 0.000133988
102 *3:213 0.000309409
103 *3:201 0.000159821
104 *3:160 0.000212816
105 *3:138 0.000222735
106 *3:97 0.000198086
107 *3:91 0.000119601
108 *3:85 0.000289862
109 *3:79 0.000248412
110 *3:77 0.000264015
111 *3:49 0.000241496
112 *3:45 0.000318832
113 *3:43 0.000201485
114 *3:41 0.000262002
115 *3:33 0.000268738
116 *3:27 0.000214178
117 *3:21 0.000218797
118 *3:19 0.000446294
119 rst x[14] 0.00164175
120 rst x[16] 0.00117001
121 rst x[3] 0.000249137
122 rst x[12] 8.52989e-06
123 rst y 0.000753376
124 rst x[31] 1.71199e-05
125 rst *687:B 0.000124487
126 rst x[28] 0.00109857
127 rst x[24] 0.00207061
128 rst *698:B 7.61855e-05
129 rst *677:B 0.000159518
130 rst *683:B 6.64409e-05
131 rst x[22] 0.000512867
132 rst x[27] 0.000128737
133 rst *752:B 0.00164263
134 rst x[10] 0.000478749
135 rst x[1] 6.85155e-05
136 rst x[2] 0.000630557
137 rst *673:B 0.000159163
138 rst x[29] 0.00037496
139 rst x[26] 0.000333883
140 rst x[30] 0.000732992
141 rst *781:B 0.000459643
142 rst *767:B 0.000414355
143 rst x[15] 0.000161448
144 rst *797:B 0.000400462
145 rst x[7] 0.000571295
146 rst *663:B 0.000959804
147 rst *742:B 0.000263368
148 rst *733:B 0.00052638
149 rst x[25] 0.000168715
150 rst *794:B 0.000447491
151 rst *777:B 0.000106238
152 rst *748:B 0.000674797
153 rst *722:B 0.000195898
154 rst x[9] 0.00127053
155 rst *738:B 0.000215178
156 rst x[4] 0.000159217
157 rst *772:B 0.00076895
158 rst *726:B 0.000768052
159 rst x[11] 9.29807e-05
160 rst x[13] 3.67399e-05
161 rst *829:B 5.20722e-05
162 rst x[6] 0.000148318
163 rst *668:B 0.000299316
164 rst x[18] 2.05516e-06
165 rst x[19] 1.5989e-06
166 rst *841:B 7.02363e-06
167 rst *761:B 4.14136e-05
168 rst x[17] 0.000190871
169 rst x[20] 0.000104469
170 rst x[8] 0.000243053
171 rst *691:B 0.000230864
172 rst *658:B 0.000524683
173 rst *706:B 1.62494e-05
174 rst *717:B 0.00020537
*RES
1 rst *3:19 18.7635 
2 *3:19 *3:21 1.42036 
3 *3:21 *3:27 10.0979 
4 *3:27 *3:33 13.5947 
5 *3:33 *3:41 12.3821 
6 *3:41 *3:43 1.04843 
7 *3:43 *3:45 1.435 
8 *3:45 *3:49 9.641 
9 *3:49 *769:A 8.97914 
10 *3:49 *774:A 6.074 
11 *3:45 *3:77 16.5145 
12 *3:77 *3:79 0.875643 
13 *3:79 *3:85 12.7277 
14 *3:85 *3:91 2.27257 
15 *3:91 *3:97 12.435 
16 *3:97 *811:C0 10.2033 
17 *3:97 *709:A 5.5 
18 *3:91 *704:A 5.5 
19 *3:85 *809:C0 5.5 
20 *3:79 *822:C0 11 
21 *3:77 *3:138 8.01564 
22 *3:138 *699:A 10.2853 
23 *3:138 *764:A 5.5 
24 *3:43 *3:160 9.96314 
25 *3:160 *779:A 5.5 
26 *3:160 *833:C0 7.591 
27 *3:41 *832:C0 12.23 
28 *3:33 *834:C0 5.5 
29 *3:27 *830:A 5.746 
30 *3:21 *3:201 7.222 
31 *3:201 *3:213 8.45709 
32 *3:213 *3:217 6.28791 
33 *3:217 *759:A 6.0535 
34 *3:217 *819:C0 18.9483 
35 *3:213 *3:243 11.322 
36 *3:243 *3:251 15.2991 
37 *3:251 *3:259 14.157 
38 *3:259 *3:261 3.034 
39 *3:261 *3:269 8.42857 
40 *3:269 *3:271 3.94771 
41 *3:271 *3:277 3.116 
42 *3:277 *810:C0 17.7123 
43 *3:277 *3:296 7.714 
44 *3:296 *3:298 2.87 
45 *3:298 *3:306 14.6139 
46 *3:306 *3:312 7.71986 
47 *3:312 *3:314 0.661857 
48 *3:314 *3:316 3.17457 
49 *3:316 *812:C0 13.6064 
50 *3:316 *714:A 11 
51 *3:314 *724:A 11 
52 *3:312 *3:359 17.3726 
53 *3:359 *719:A 14.9003 
54 *3:359 *3:372 1.72913 
55 *3:372 *813:C0 13.542 
56 *3:372 *791:C0 21.0689 
57 *3:306 *814:C0 6.87936 
58 *3:298 *787:C0 5.5 
59 *3:296 *729:A 5.5 
60 *3:271 *815:C0 12.23 
61 *3:269 *3:432 7.28643 
62 *3:432 *3:438 6.98771 
63 *3:438 *734:A 11.246 
64 *3:438 *3:453 8.87957 
65 *3:453 *3:459 14.7544 
66 *3:459 *3:465 5.19529 
67 *3:465 *3:467 1.23 
68 *3:467 *3:473 15.5276 
69 *3:473 *799:C0 23.4144 
70 *3:473 *800:C0 5.91 
71 *3:467 *654:A 5.5 
72 *3:465 *3:510 7.32157 
73 *3:510 *795:C0 30.7096 
74 *3:510 *783:C0 11.41 
75 *3:459 *816:C0 5.91 
76 *3:453 *739:A 5.746 
77 *3:432 *825:A 5.5 
78 *3:261 *817:C0 5.5 
79 *3:259 *744:A 5.746 
80 *3:251 *3:569 0.574 
81 *3:569 *3:573 9.44771 
82 *3:573 *807:C0 13.214 
83 *3:573 *3:588 4.02386 
84 *3:588 *689:A 11.574 
85 *3:588 *3:599 0.661857 
86 *3:599 *3:605 13.214 
87 *3:605 *3:611 8.19429 
88 *3:611 *3:617 8.534 
89 *3:617 *820:C0 11.6619 
90 *3:617 *3:630 10.174 
91 *3:630 *679:A 20.4594 
92 *3:630 *684:A 5.5 
93 *3:611 *806:C0 5.73136 
94 *3:605 *3:661 11.5036 
95 *3:661 *803:C0 17.1619 
96 *3:661 *3:676 2.19057 
97 *3:676 *3:682 13.788 
98 *3:682 *669:A 10.8651 
99 *3:682 *674:A 5.5 
100 *3:676 *804:C0 8.698 
101 *3:599 *3:709 10.1564 
102 *3:709 *3:715 4.13514 
103 *3:715 *664:A 5.77529 
104 *3:715 *3:726 3.30929 
105 *3:726 *659:A 8.534 
106 *3:726 *801:C0 19.3407 
107 *3:709 *802:C0 5.5 
108 *3:569 *818:C0 6.402 
109 *3:243 *3:766 12.4057 
110 *3:766 *3:772 3.03986 
111 *3:772 *3:778 8.92057 
112 *3:778 *808:C0 11.4686 
113 *3:778 *821:C0 15.838 
114 *3:772 *694:A 5.5 
115 *3:766 *749:A 6.32 
116 *3:201 *754:A 5.5 
117 *3:19 *805:C0 11.0966 
*END

*D_NET *276 0.00172053
*CONN
*I *829:B I *D XOR3D2
*I *828:B I *D NOR2D1
*I *827:B I *D NAND2D1
*I *851:Q O *D DFFHQD1
*CAP
1 *829:B 2.74299e-05
2 *828:B 5.52305e-05
3 *827:B 1.77076e-05
4 *851:Q 0.000136919
5 *276:27 0.000140681
6 *276:14 0.000212647
7 *829:B x[4] 0.000175153
8 *829:B x[11] 0.000449962
9 *829:B *761:B 5.82184e-06
10 *829:B x[10] 4.47735e-05
11 *829:B y 3.60626e-05
12 *829:B x[13] 7.26936e-05
13 *829:B x[1] 0.000162416
14 *829:B x[2] 0.000125973
15 *829:B x[14] 1.1257e-05
16 *829:B x[3] 1.02849e-05
17 *829:B x[31] 1.81233e-05
18 *829:B x[16] 8.36576e-06
19 *829:B *698:B 2.88905e-06
20 *829:B x[12] 6.13955e-06
*RES
1 *851:Q *276:14 20.2549 
2 *276:14 *827:B 5.91 
3 *276:14 *276:27 7.37136 
4 *276:27 *828:B 12.5785 
5 *276:27 *829:B 11.6824 
*END

*D_NET *277 0.00142002
*CONN
*I *733:B I *D XOR3D2
*I *732:B I *D NOR2D1
*I *731:B I *D NAND2D1
*I *861:Q O *D DFFHQD1
*CAP
1 *733:B 4.90298e-05
2 *732:B 0.000101035
3 *731:B 5.37588e-06
4 *861:Q 7.59939e-05
5 *277:21 0.00018706
6 *277:14 0.000118365
7 *733:B x[13] 0.000636286
8 *733:B x[29] 0.000206297
9 *733:B x[15] 1.57681e-05
10 *733:B x[2] 8.8402e-06
11 *733:B *752:B 2.80915e-06
12 *733:B x[17] 1.31636e-05
*RES
1 *861:Q *277:14 18.7257 
2 *277:14 *731:B 5.5 
3 *277:14 *277:21 1.23 
4 *277:21 *732:B 8.68043 
5 *277:21 *733:B 17.7651 
*END

*D_NET *278 0.000648503
*CONN
*I *726:B I *D NAND2D1
*I *728:B I *D XOR3D2
*I *727:B I *D NOR2D1
*I *862:Q O *D DFFHQD1
*CAP
1 *726:B 6.08419e-05
2 *728:B 4.53369e-05
3 *727:B 1.77076e-05
4 *862:Q 9.64085e-05
5 *278:20 7.03192e-05
6 *278:16 0.000164525
7 *726:B y 0.00018271
8 *726:B x[8] 8.18856e-06
9 *726:B x[9] 2.46568e-06
*RES
1 *862:Q *278:16 19.6892 
2 *278:16 *278:20 5.62593 
3 *278:20 *727:B 11.246 
4 *278:20 *728:B 12.3471 
5 *278:16 *726:B 18.6174 
*END

*D_NET *279 0.000371189
*CONN
*I *722:B I *D NOR2D1
*I *723:B I *D XOR3D2
*I *721:B I *D NAND2D1
*I *863:Q O *D DFFHQD1
*CAP
1 *722:B 5.37588e-06
2 *723:B 5.55838e-05
3 *721:B 7.11441e-05
4 *863:Q 5.37588e-06
5 *279:23 8.6504e-05
6 *279:4 0.000102064
7 *722:B x[29] 1.38492e-05
8 *722:B *717:B 2.00336e-05
9 *722:B y 9.25246e-06
10 *722:B x[9] 2.0056e-06
*RES
1 *863:Q *279:4 5.5 
2 *279:4 *721:B 18.5324 
3 *279:4 *279:23 0.849286 
4 *279:23 *723:B 7.16929 
5 *279:23 *722:B 5.5 
*END

*D_NET *280 0.000580002
*CONN
*I *717:B I *D NOR2D1
*I *718:B I *D XOR3D2
*I *716:B I *D NAND2D1
*I *864:Q O *D DFFHQD1
*CAP
1 *717:B 1.03086e-05
2 *718:B 5.80869e-05
3 *716:B 5.37873e-05
4 *864:Q 0.000127621
5 *280:12 0.000118708
6 *280:10 0.000144764
7 *717:B x[29] 3.6918e-05
8 *717:B y 2.06452e-05
9 *717:B *711:B 9.16312e-06
*RES
1 *864:Q *280:10 15.1703 
2 *280:10 *280:12 0.272357 
3 *280:12 *716:B 12.6839 
4 *280:12 *718:B 12.7249 
5 *280:10 *717:B 11 
*END

*D_NET *281 0.000448797
*CONN
*I *711:B I *D NAND2D1
*I *712:B I *D NOR2D1
*I *713:B I *D XOR3D2
*I *865:Q O *D DFFHQD1
*CAP
1 *711:B 1.03086e-05
2 *712:B 9.32583e-05
3 *713:B 5.22366e-05
4 *865:Q 3.25058e-05
5 *281:17 0.000139656
6 *281:6 0.000120831
*RES
1 *865:Q *281:6 6.402 
2 *281:6 *713:B 7.058 
3 *281:6 *281:17 6.74171 
4 *281:17 *712:B 13.9637 
5 *281:17 *711:B 11 
*END

*D_NET *282 0.000468339
*CONN
*I *706:B I *D NAND2D1
*I *707:B I *D NOR2D1
*I *708:B I *D XOR3D2
*I *866:Q O *D DFFHQD1
*CAP
1 *706:B 4.90655e-05
2 *707:B 2.26403e-05
3 *708:B 6.2102e-05
4 *866:Q 5.37588e-06
5 *282:13 8.57993e-05
6 *282:4 8.15713e-05
7 *706:B x[14] 0.000161785
*RES
1 *866:Q *282:4 5.5 
2 *282:4 *708:B 7.386 
3 *282:4 *282:13 0.468571 
4 *282:13 *707:B 6.074 
5 *282:13 *706:B 6.95257 
*END

*D_NET *283 0.000528851
*CONN
*I *703:B I *D XOR3D2
*I *702:B I *D NOR2D1
*I *701:B I *D NAND2D1
*I *867:Q O *D DFFHQD1
*CAP
1 *703:B 6.2102e-05
2 *702:B 1.77076e-05
3 *701:B 7.80458e-05
4 *867:Q 8.51133e-05
5 *283:10 0.00011721
6 *283:8 0.000168672
*RES
1 *867:Q *283:8 13.9813 
2 *283:8 *283:10 0.855143 
3 *283:10 *701:B 13.6181 
4 *283:10 *702:B 11.246 
5 *283:8 *703:B 12.722 
*END

*D_NET *284 0.00167134
*CONN
*I *698:B I *D XOR3D2
*I *697:B I *D NOR2D1
*I *696:B I *D NAND2D1
*I *868:Q O *D DFFHQD1
*CAP
1 *698:B 5.37588e-06
2 *697:B 7.54907e-05
3 *696:B 5.62404e-05
4 *868:Q 0.000162917
5 *284:31 0.000103853
6 *284:10 0.000242145
7 *698:B x[28] 6.14332e-05
8 *698:B x[24] 0.000218445
9 *698:B x[11] 0.000478704
10 *698:B x[31] 9.77994e-06
11 *698:B y 0.000241875
12 *698:B x[14] 2.80327e-06
13 *698:B x[3] 2.41812e-06
14 *698:B x[16] 2.29981e-06
15 *698:B x[13] 6.47592e-06
16 *698:B x[12] 1.08204e-06
*RES
1 *868:Q *284:10 17.0006 
2 *284:10 *696:B 12.6839 
3 *284:10 *284:31 6.17064 
4 *284:31 *697:B 7.83114 
5 *284:31 *698:B 5.5 
*END

*D_NET *285 0.00229028
*CONN
*I *691:B I *D NAND2D1
*I *692:B I *D NOR2D1
*I *693:B I *D XOR3D2
*I *869:Q O *D DFFHQD1
*CAP
1 *691:B 5.37588e-06
2 *692:B 8.87033e-05
3 *693:B 7.36933e-05
4 *869:Q 0.000214089
5 *285:23 9.90119e-05
6 *285:10 0.000292715
7 *691:B x[30] 0.0010353
8 *691:B x[26] 3.19091e-05
9 *691:B y 2.97152e-05
10 *691:B x[27] 0.000225672
11 *691:B x[9] 0.000194095
*RES
1 *869:Q *285:10 18.9423 
2 *285:10 *693:B 13.2491 
3 *285:10 *285:23 5.5 
4 *285:23 *692:B 8.27043 
5 *285:23 *691:B 5.5 
*END

*D_NET *286 0.000902984
*CONN
*I *687:B I *D NOR2D1
*I *688:B I *D XOR3D2
*I *686:B I *D NAND2D1
*I *870:Q O *D DFFHQD1
*CAP
1 *687:B 8.60608e-05
2 *688:B 5.37588e-06
3 *686:B 4.90298e-05
4 *870:Q 0.000140321
5 *286:20 8.57636e-05
6 *286:16 0.000257739
7 *687:B x[27] 0.00021482
8 *687:B x[9] 5.59881e-05
9 *687:B y 6.05282e-06
10 *687:B x[25] 1.30411e-06
11 *687:B x[22] 5.28823e-07
*RES
1 *870:Q *286:16 9.98657 
2 *286:16 *286:20 1.04257 
3 *286:20 *686:B 17.7651 
4 *286:20 *688:B 5.5 
5 *286:16 *687:B 8.18257 
*END

*D_NET *287 0.000357825
*CONN
*I *777:B I *D NOR2D1
*I *778:B I *D XOR3D2
*I *776:B I *D NAND2D1
*I *852:Q O *D DFFHQD1
*CAP
1 *777:B 8.52708e-05
2 *778:B 0.00010474
3 *776:B 3.18011e-05
4 *852:Q 4.23712e-05
5 *287:6 9.36416e-05
*RES
1 *852:Q *287:6 6.73 
2 *287:6 *776:B 6.37857 
3 *287:6 *778:B 5.96857 
4 *778:B *777:B 13.4776 
*END

*D_NET *288 0.00253683
*CONN
*I *683:B I *D XOR3D2
*I *682:B I *D NOR2D1
*I *681:B I *D NAND2D1
*I *871:Q O *D DFFHQD1
*CAP
1 *683:B 1.77076e-05
2 *682:B 3.74385e-05
3 *681:B 0.000100326
4 *871:Q 0.000170441
5 *288:18 0.000215297
6 *288:10 0.000265681
7 *683:B y 0.000747545
8 *683:B x[26] 0.000221663
9 *683:B x[30] 0.000150445
10 *683:B x[23] 6.44415e-05
11 *683:B x[7] 4.06238e-05
12 *683:B *677:B 4.18122e-05
13 *683:B x[22] 0.000186214
14 *683:B x[27] 0.000277193
*RES
1 *871:Q *288:10 17.2027 
2 *288:10 *288:18 8.39343 
3 *288:18 *681:B 19.6629 
4 *288:18 *682:B 6.566 
5 *288:10 *683:B 11.246 
*END

*D_NET *289 0.00152939
*CONN
*I *677:B I *D NOR2D1
*I *676:B I *D NAND2D1
*I *678:B I *D XOR3D2
*I *872:Q O *D DFFHQD1
*CAP
1 *677:B 5.22366e-05
2 *676:B 1.03086e-05
3 *678:B 6.39937e-05
4 *872:Q 9.7445e-05
5 *289:12 0.000134558
6 *289:10 0.000209937
7 *677:B x[25] 0.000801982
8 *677:B x[22] 5.11673e-05
9 *677:B x[27] 3.94609e-05
10 *677:B *673:B 5.27539e-05
11 *677:B x[3] 1.55509e-05
*RES
1 *872:Q *289:10 14.3913 
2 *289:10 *289:12 2.40143 
3 *289:12 *678:B 12.8626 
4 *289:12 *676:B 11 
5 *289:10 *677:B 12.394 
*END

*D_NET *290 0.00114991
*CONN
*I *673:B I *D XOR3D2
*I *671:B I *D NAND2D1
*I *672:B I *D NOR2D1
*I *873:Q O *D DFFHQD1
*CAP
1 *673:B 4.73039e-05
2 *671:B 5.37588e-06
3 *672:B 0.000117507
4 *873:Q 0.000127124
5 *290:23 5.76124e-05
6 *290:10 0.000249564
7 *673:B x[25] 0.000406908
8 *673:B *668:B 1.94497e-05
9 *673:B x[18] 2.54898e-07
10 *673:B x[19] 3.84381e-07
11 *673:B x[3] 1.51681e-05
12 *673:B x[22] 3.92773e-05
13 *673:B x[27] 6.39746e-05
*RES
1 *873:Q *290:10 15.346 
2 *290:10 *672:B 14.9301 
3 *290:10 *290:23 5.5 
4 *290:23 *671:B 5.5 
5 *290:23 *673:B 6.894 
*END

*D_NET *291 0.000647048
*CONN
*I *668:B I *D XOR3D2
*I *666:B I *D NAND2D1
*I *667:B I *D NOR2D1
*I *874:Q O *D DFFHQD1
*CAP
1 *668:B 1.03086e-05
2 *666:B 9.42221e-05
3 *667:B 5.37588e-06
4 *874:Q 9.59262e-05
5 *291:19 0.000221512
6 *291:8 0.000218283
7 *668:B x[18] 5.85731e-07
8 *668:B x[19] 8.33802e-07
*RES
1 *874:Q *291:8 8.51057 
2 *291:8 *667:B 5.5 
3 *291:8 *291:19 9.62343 
4 *291:19 *666:B 13.9637 
5 *291:19 *668:B 11 
*END

*D_NET *292 0.000571791
*CONN
*I *663:B I *D XOR3D2
*I *662:B I *D NOR2D1
*I *661:B I *D NAND2D1
*I *875:Q O *D DFFHQD1
*CAP
1 *663:B 4.73039e-05
2 *662:B 1.70911e-05
3 *661:B 5.241e-05
4 *875:Q 0.000102709
5 *292:12 8.12581e-05
6 *292:10 0.00016177
7 *663:B x[25] 0.000109248
*RES
1 *875:Q *292:10 14.4381 
2 *292:10 *292:12 0.468571 
3 *292:12 *661:B 12.5639 
4 *292:12 *662:B 11.2255 
5 *292:10 *663:B 12.23 
*END

*D_NET *293 0.00084962
*CONN
*I *658:B I *D XOR3D2
*I *657:B I *D NOR2D1
*I *656:B I *D NAND2D1
*I *876:Q O *D DFFHQD1
*CAP
1 *658:B 8.85272e-05
2 *657:B 6.34963e-05
3 *656:B 8.32272e-05
4 *876:Q 1.36558e-05
5 *293:23 0.00021703
6 *293:6 0.000161889
7 *658:B y 0.000116058
8 *658:B *797:B 1.91516e-05
9 *658:B x[25] 8.65859e-05
*RES
1 *876:Q *293:6 5.77529 
2 *293:6 *656:B 19.0303 
3 *293:6 *293:23 2.16129 
4 *293:23 *657:B 18.3743 
5 *293:23 *658:B 8.26457 
*END

*D_NET *294 0.000480982
*CONN
*I *797:B I *D NAND2D1
*I *798:B I *D NOR2D1
*I *847:B I *D XNOR2D1
*I *877:Q O *D DFFHQD1
*CAP
1 *797:B 5.37588e-06
2 *798:B 3.80207e-05
3 *847:B 0.000110499
4 *877:Q 0.000187864
5 *294:36 0.000120762
6 *797:B y 6.04934e-06
7 *797:B x[25] 1.24118e-05
*RES
1 *877:Q *847:B 24.8458 
2 *877:Q *294:36 18.4652 
3 *294:36 *798:B 17.4079 
4 *294:36 *797:B 5.5 
*END

*D_NET *295 0.000585695
*CONN
*I *794:B I *D NOR2D1
*I *844:B I *D XNOR2D1
*I *793:B I *D NAND2D1
*I *878:Q O *D DFFHQD1
*CAP
1 *794:B 5.37588e-06
2 *844:B 7.03819e-05
3 *793:B 1.77076e-05
4 *878:Q 0.000172076
5 *295:25 0.000103064
6 *295:14 0.00021709
*RES
1 *878:Q *295:14 21.3815 
2 *295:14 *793:B 5.91 
3 *295:14 *295:25 0.907857 
4 *295:25 *844:B 7.66129 
5 *295:25 *794:B 5.5 
*END

*D_NET *296 0.000832224
*CONN
*I *841:B I *D XNOR2D1
*I *790:B I *D NOR2D1
*I *789:B I *D NAND2D1
*I *879:Q O *D DFFHQD1
*CAP
1 *841:B 5.37588e-06
2 *790:B 4.40971e-05
3 *789:B 4.40971e-05
4 *879:Q 9.15899e-05
5 *296:27 0.000111132
6 *296:12 0.000197346
7 *841:B *838:B 0.000187065
8 *841:B x[26] 9.5575e-06
9 *841:B x[31] 2.63141e-06
10 *841:B x[28] 2.99323e-05
11 *841:B x[24] 2.93178e-05
12 *841:B y 8.00814e-05
*RES
1 *879:Q *296:12 13.9403 
2 *296:12 *789:B 12.2651 
3 *296:12 *296:27 7.386 
4 *296:27 *790:B 17.6011 
5 *296:27 *841:B 5.5 
*END

*D_NET *297 0.000619256
*CONN
*I *838:B I *D XNOR2D1
*I *786:B I *D NOR2D1
*I *785:B I *D NAND2D1
*I *880:Q O *D DFFHQD1
*CAP
1 *838:B 1.03086e-05
2 *786:B 1.77076e-05
3 *785:B 3.92473e-05
4 *880:Q 0.000220908
5 *297:10 7.84117e-05
6 *297:8 0.000252673
*RES
1 *880:Q *297:8 19.3933 
2 *297:8 *297:10 0.855143 
3 *297:10 *785:B 12.0719 
4 *297:10 *786:B 11.246 
5 *297:8 *838:B 11 
*END

*D_NET *298 0.00156913
*CONN
*I *772:B I *D NOR2D1
*I *773:B I *D XOR3D2
*I *771:B I *D NAND2D1
*I *853:Q O *D DFFHQD1
*CAP
1 *772:B 3.51455e-05
2 *773:B 4.73039e-05
3 *771:B 5.37588e-06
4 *853:Q 6.34963e-05
5 *298:12 5.76124e-05
6 *298:10 0.000103575
7 *772:B x[14] 0.000443027
8 *772:B x[16] 0.000256883
9 *772:B y 0.000487243
10 *772:B x[2] 1.45387e-06
11 *772:B x[11] 1.86329e-05
12 *772:B x[3] 4.93849e-05
*RES
1 *853:Q *298:10 13.0383 
2 *298:10 *298:12 5.5 
3 *298:12 *771:B 5.5 
4 *298:12 *773:B 6.894 
5 *298:10 *772:B 11.9899 
*END

*D_NET *299 0.00135453
*CONN
*I *781:B I *D NAND2D1
*I *782:B I *D NOR2D1
*I *835:B I *D XNOR2D1
*I *881:Q O *D DFFHQD1
*CAP
1 *781:B 7.8626e-05
2 *782:B 5.55838e-05
3 *835:B 5.37588e-06
4 *881:Q 3.66151e-05
5 *299:10 6.58923e-05
6 *299:8 0.000120174
7 *781:B x[26] 0.000944869
8 *781:B x[27] 2.76826e-05
9 *781:B y 1.65433e-05
10 *781:B x[30] 3.16663e-06
*RES
1 *881:Q *299:8 12.0484 
2 *299:8 *299:10 5.5 
3 *299:10 *835:B 5.5 
4 *299:10 *782:B 7.16929 
5 *299:8 *781:B 13.4131 
*END

*D_NET *300 0.000890573
*CONN
*I *767:B I *D NOR2D1
*I *768:B I *D XOR3D2
*I *766:B I *D NAND2D1
*I *854:Q O *D DFFHQD1
*CAP
1 *767:B 3.53244e-05
2 *768:B 3.25058e-05
3 *766:B 6.2102e-05
4 *854:Q 0.000112243
5 *300:14 0.000140396
6 *300:10 0.000193356
7 *767:B y 0.000254824
8 *767:B *761:B 8.26373e-06
9 *767:B x[13] 2.7311e-06
10 *767:B x[29] 1.67627e-05
11 *767:B x[17] 1.18e-05
12 *767:B x[14] 2.02632e-05
*RES
1 *854:Q *300:10 14.8833 
2 *300:10 *300:14 7.12829 
3 *300:14 *766:B 7.386 
4 *300:14 *768:B 6.402 
5 *300:10 *767:B 11.8317 
*END

*D_NET *301 0.00173344
*CONN
*I *761:B I *D NAND2D1
*I *763:B I *D XOR3D2
*I *762:B I *D NOR2D1
*I *855:Q O *D DFFHQD1
*CAP
1 *761:B 2.0174e-05
2 *763:B 4.07856e-05
3 *762:B 5.41283e-05
4 *855:Q 0.000114212
5 *301:10 0.00013577
6 *301:8 0.000175242
7 *761:B x[13] 0.000222583
8 *761:B x[15] 0.00011322
9 *761:B x[24] 0.00019397
10 *761:B x[10] 0.000347181
11 *761:B y 2.42468e-05
12 *761:B x[4] 8.68318e-06
13 *761:B x[29] 0.000172845
14 *761:B x[17] 0.000105151
15 *761:B x[2] 5.25296e-06
*RES
1 *855:Q *301:8 15.141 
2 *301:8 *301:10 1.62829 
3 *301:10 *762:B 12.5346 
4 *301:10 *763:B 12.0133 
5 *301:8 *761:B 11.328 
*END

*D_NET *302 0.00072121
*CONN
*I *756:B I *D NAND2D1
*I *758:B I *D XOR3D2
*I *757:B I *D NOR2D1
*I *856:Q O *D DFFHQD1
*CAP
1 *756:B 5.22366e-05
2 *758:B 1.36558e-05
3 *757:B 0.000109139
4 *856:Q 1.94693e-05
5 *302:21 0.000116981
6 *302:6 0.000179697
7 *756:B x[26] 0.000230032
*RES
1 *856:Q *302:6 5.96857 
2 *302:6 *757:B 8.94986 
3 *302:6 *302:21 1.69857 
4 *302:21 *758:B 5.77529 
5 *302:21 *756:B 7.058 
*END

*D_NET *303 0.00208752
*CONN
*I *752:B I *D NOR2D1
*I *751:B I *D NAND2D1
*I *753:B I *D XOR3D2
*I *857:Q O *D DFFHQD1
*CAP
1 *752:B 1.03086e-05
2 *751:B 9.4564e-05
3 *753:B 5.37588e-06
4 *857:Q 0.000204078
5 *303:25 0.000153211
6 *303:14 0.000257792
7 *752:B x[13] 0.00056832
8 *752:B x[24] 0.000234768
9 *752:B x[10] 0.000262996
10 *752:B x[29] 5.83728e-05
11 *752:B x[15] 0.000104822
12 *752:B x[2] 1.26152e-05
13 *752:B x[17] 3.73284e-05
14 *752:B x[28] 2.33917e-05
15 *752:B x[31] 2.20344e-05
16 *752:B y 2.5281e-05
17 *752:B x[14] 4.58538e-06
18 *752:B x[16] 4.65673e-06
19 *752:B x[11] 3.01772e-06
*RES
1 *857:Q *303:14 23.0483 
2 *303:14 *753:B 5.5 
3 *303:14 *303:25 7.181 
4 *303:25 *751:B 13.911 
5 *303:25 *752:B 11 
*END

*D_NET *304 0.000824859
*CONN
*I *748:B I *D XOR3D2
*I *747:B I *D NOR2D1
*I *746:B I *D NAND2D1
*I *858:Q O *D DFFHQD1
*CAP
1 *748:B 5.22366e-05
2 *747:B 5.37588e-06
3 *746:B 3.92473e-05
4 *858:Q 0.000111321
5 *304:27 6.99442e-05
6 *304:12 0.0001629
7 *748:B x[31] 0.000259229
8 *748:B x[8] 7.81402e-05
9 *748:B x[9] 2.42572e-05
10 *748:B x[27] 2.22083e-05
*RES
1 *858:Q *304:12 14.5963 
2 *304:12 *746:B 12.0719 
3 *304:12 *304:27 5.746 
4 *304:27 *747:B 5.5 
5 *304:27 *748:B 7.058 
*END

*D_NET *305 0.00161911
*CONN
*I *742:B I *D NOR2D1
*I *741:B I *D NAND2D1
*I *743:B I *D XOR3D2
*I *859:Q O *D DFFHQD1
*CAP
1 *742:B 2.26403e-05
2 *741:B 5.37588e-06
3 *743:B 6.87964e-05
4 *859:Q 0.000126461
5 *305:20 0.000140523
6 *305:10 0.000215452
7 *742:B x[31] 0.000808083
8 *742:B y 0.000146368
9 *742:B x[8] 1.13007e-05
10 *742:B x[20] 1.18696e-06
11 *742:B x[28] 7.29253e-05
*RES
1 *859:Q *305:10 15.5803 
2 *305:10 *305:20 7.86629 
3 *305:20 *743:B 7.60857 
4 *305:20 *741:B 5.5 
5 *305:10 *742:B 11.41 
*END

*D_NET *306 0.000635715
*CONN
*I *738:B I *D XOR3D2
*I *736:B I *D NAND2D1
*I *737:B I *D NOR2D1
*I *860:Q O *D DFFHQD1
*CAP
1 *738:B 5.06511e-05
2 *736:B 1.77076e-05
3 *737:B 5.37588e-06
4 *860:Q 5.39982e-05
5 *306:23 0.00010223
6 *306:10 9.32455e-05
7 *738:B x[27] 0.000312507
*RES
1 *860:Q *306:10 7.11657 
2 *306:10 *737:B 5.5 
3 *306:10 *306:23 11.9079 
4 *306:23 *736:B 5.91 
5 *306:23 *738:B 7.00529 
*END

*D_NET *4 0.00121251
*CONN
*P x[0] I
*I *826:B I *D NAND2D1
*CAP
1 x[0] 0.000295699
2 *826:B 0.000295699
3 x[0] x[8] 0.000252118
4 x[0] x[20] 9.1349e-05
5 x[0] y 0.000149646
6 x[0] x[31] 0.000128001
*RES
1 x[0] *826:B 25.6608 
*END

*D_NET *5 0.00479836
*CONN
*P x[10] I
*I *730:B I *D NAND2D1
*CAP
1 x[10] 0.000796194
2 *730:B 0.000796194
3 x[10] y 0.000331161
4 x[10] x[13] 0.000900255
5 x[10] x[6] 0.00188832
6 x[10] x[4] 5.46316e-05
7 x[10] x[24] 3.16052e-05
*RES
1 x[10] *730:B 31.7927 
*END

*D_NET *6 0.0119933
*CONN
*P x[11] I
*I *725:B I *D NAND2D1
*CAP
1 x[11] 0.00104853
2 *725:B 0.000256415
3 *6:23 0.00130495
4 x[11] x[14] 0.00365519
5 x[11] x[16] 0.00049239
6 x[11] x[3] 0.00160771
7 x[11] x[13] 0.000907892
8 x[11] x[12] 0.00013628
9 x[11] y 0.000252734
10 x[11] x[31] 0.000887237
11 x[11] x[2] 0.000218653
12 x[11] x[28] 2.23171e-05
13 x[11] x[20] 4.34241e-05
14 x[11] x[8] 6.38638e-05
15 x[11] x[7] 5.14771e-06
16 x[11] x[4] 0.000731215
17 x[11] x[29] 8.26546e-06
18 x[11] x[15] 0.00013311
19 x[11] x[17] 0.000178385
20 x[11] x[24] 3.9541e-05
*RES
1 x[11] *6:23 44.4815 
2 *6:23 *725:B 13.8464 
*END

*D_NET *7 0.00412596
*CONN
*P x[12] I
*I *720:B I *D NAND2D1
*CAP
1 x[12] 0.000383844
2 *720:B 0.000383844
3 x[12] x[14] 0.000736487
4 x[12] x[16] 0.000761383
5 x[12] x[31] 0.000987779
6 x[12] x[20] 0.000262809
7 x[12] x[8] 0.000200464
8 x[12] x[7] 5.86531e-05
9 x[12] x[3] 0.000263402
10 x[12] x[13] 7.64377e-05
11 x[12] y 1.08566e-05
*RES
1 x[12] *720:B 28.528 
*END

*D_NET *8 0.0187757
*CONN
*P x[13] I
*I *715:B I *D NAND2D1
*CAP
1 x[13] 0.000694096
2 *715:B 0.000472937
3 *8:33 0.00116703
4 x[13] x[14] 0.0014569
5 x[13] x[16] 0.00149439
6 x[13] x[3] 0.000755663
7 x[13] y 6.358e-05
8 x[13] x[31] 0.000188866
9 x[13] x[29] 0.00433465
10 x[13] x[15] 0.00438412
11 x[13] x[2] 0.00297815
12 x[13] x[17] 0.000682299
13 x[13] x[4] 7.55827e-05
14 x[13] x[24] 2.74325e-05
*RES
1 x[13] *8:33 49.2602 
2 *8:33 *715:B 37.5419 
*END

*D_NET *9 0.0143765
*CONN
*P x[14] I
*I *710:B I *D NAND2D1
*CAP
1 x[14] 0.00100884
2 *710:B 0.000512916
3 *9:17 0.00152176
4 x[14] x[16] 0.00685998
5 x[14] x[3] 0.00257286
6 x[14] y 0.00112867
7 x[14] x[31] 0.000103456
8 x[14] x[2] 0.000233803
9 x[14] x[20] 4.24999e-05
10 x[14] x[8] 7.37283e-05
11 x[14] x[7] 5.18264e-06
12 x[14] x[29] 1.43667e-05
13 x[14] x[15] 0.000142984
14 x[14] x[17] 0.000155475
*RES
1 x[14] *9:17 48.122 
2 *9:17 *710:B 27.7104 
*END

*D_NET *10 0.00605358
*CONN
*P x[15] I
*I *705:B I *D NAND2D1
*CAP
1 x[15] 0.000867069
2 *705:B 1.03086e-05
3 *10:27 0.000877378
4 x[15] x[29] 0.000440702
5 x[15] x[2] 0.000409866
6 x[15] x[17] 0.0026261
7 x[15] y 0.000626244
8 x[15] x[4] 2.36291e-05
9 x[15] x[24] 4.03151e-05
10 x[15] x[16] 0.000131963
*RES
1 x[15] *10:27 45.5573 
2 *10:27 *705:B 11 
*END

*D_NET *11 0.00581772
*CONN
*P x[16] I
*I *700:B I *D NAND2D1
*CAP
1 x[16] 0.000974376
2 *700:B 0.000288482
3 *11:23 0.00126286
4 x[16] x[3] 0.00171821
5 x[16] y 0.000852715
6 x[16] x[2] 0.000255542
7 x[16] x[31] 0.000115193
8 x[16] x[20] 5.69116e-05
9 x[16] x[8] 7.98268e-05
10 x[16] x[7] 9.25959e-06
11 x[16] x[29] 1.33468e-05
12 x[16] x[17] 0.000174898
13 x[16] x[24] 1.60986e-05
*RES
1 x[16] *11:23 46.7906 
2 *11:23 *700:B 42.1196 
*END

*D_NET *12 0.00422602
*CONN
*P x[17] I
*I *695:B I *D NAND2D1
*CAP
1 x[17] 0.000687777
2 *695:B 4.89111e-05
3 *12:35 0.000736689
4 x[17] x[29] 0.000763624
5 x[17] x[2] 0.00139459
6 x[17] x[4] 0.000148329
7 x[17] y 0.000446105
*RES
1 x[17] *12:35 49.9856 
2 *12:35 *695:B 12.1979 
*END

*D_NET *13 0.000815028
*CONN
*P x[18] I
*I *690:B I *D NAND2D1
*CAP
1 x[18] 0.000319095
2 *690:B 0.000319095
3 x[18] x[19] 0.000176837
*RES
1 x[18] *690:B 26.7441 
*END

*D_NET *14 0.000782602
*CONN
*P x[19] I
*I *685:B I *D NAND2D1
*CAP
1 x[19] 0.000327242
2 *685:B 0.000327242
3 x[19] x[21] 1.17255e-05
4 x[19] y 0.000100382
5 x[19] x[5] 1.60095e-05
*RES
1 x[19] *685:B 27.1014 
*END

*D_NET *15 0.00290131
*CONN
*P x[1] I
*I *775:B I *D NAND2D1
*CAP
1 x[1] 0.000489419
2 *775:B 0.000489419
3 x[1] x[2] 0.00134132
4 x[1] y 0.00049462
5 x[1] x[4] 8.65354e-05
*RES
1 x[1] *775:B 33.3041 
*END

*D_NET *16 0.00588737
*CONN
*P x[20] I
*I *680:B I *D NAND2D1
*CAP
1 x[20] 0.000332308
2 *680:B 0.000332308
3 x[20] x[31] 0.00273616
4 x[20] x[8] 0.00241406
5 x[20] x[28] 6.8312e-06
6 x[20] x[7] 1.62652e-05
7 x[20] y 4.94472e-05
*RES
1 x[20] *680:B 27.1834 
*END

*D_NET *17 0.00167325
*CONN
*P x[21] I
*I *675:B I *D NAND2D1
*CAP
1 x[21] 0.000376536
2 *675:B 0.000376536
3 x[21] y 0.000548289
4 x[21] x[5] 0.000308373
5 x[21] x[9] 1.56729e-06
6 x[21] x[27] 4.65153e-05
7 x[21] x[25] 1.54321e-05
*RES
1 x[21] *675:B 28.718 
*END

*D_NET *18 0.00253146
*CONN
*P x[22] I
*I *670:B I *D NAND2D1
*CAP
1 x[22] 0.000508166
2 *670:B 0.000508166
3 x[22] x[27] 0.000113432
4 x[22] y 6.4526e-06
5 x[22] x[25] 0.00122314
6 x[22] x[9] 2.85751e-06
7 x[22] x[3] 0.000169234
*RES
1 x[22] *670:B 32.5346 
*END

*D_NET *19 0.00122408
*CONN
*P x[23] I
*I *665:B I *D NAND2D1
*CAP
1 x[23] 0.000357672
2 *665:B 0.000357672
3 x[23] y 0.00014222
4 x[23] x[26] 0.000207703
5 x[23] x[30] 9.06473e-05
6 x[23] x[7] 6.81696e-05
*RES
1 x[23] *665:B 27.7001 
*END

*D_NET *20 0.00597497
*CONN
*P x[24] I
*I *660:B I *D NAND2D1
*CAP
1 x[24] 0.000751566
2 *660:B 0.000284038
3 *20:25 0.0010356
4 x[24] y 0.0010707
5 x[24] x[28] 0.00219726
6 x[24] x[26] 0.000174078
7 x[24] x[31] 0.000259899
8 x[24] x[27] 0.000201818
*RES
1 x[24] *20:25 47.0276 
2 *20:25 *660:B 27.2127 
*END

*D_NET *21 0.00341462
*CONN
*P x[25] I
*I *655:B I *D NAND2D1
*CAP
1 x[25] 0.00116923
2 *655:B 5.37588e-06
3 *21:15 0.0011746
4 x[25] x[27] 0.000677402
5 x[25] y 1.46485e-05
6 x[25] x[3] 0.000367016
7 x[25] x[9] 6.33934e-06
*RES
1 x[25] *21:15 48.896 
2 *21:15 *655:B 5.5 
*END

*D_NET *22 0.00563734
*CONN
*P x[26] I
*I *796:B I *D NAND2D1
*CAP
1 x[26] 0.00117756
2 *796:B 1.77076e-05
3 *22:33 0.00119527
4 x[26] y 0.0012388
5 x[26] x[30] 0.00183181
6 x[26] x[7] 2.60213e-05
7 x[26] x[31] 4.01695e-05
8 x[26] x[27] 5.9528e-05
9 x[26] x[9] 5.04758e-05
*RES
1 x[26] *22:33 45.2056 
2 *22:33 *796:B 11.246 
*END

*D_NET *23 0.00813208
*CONN
*P x[27] I
*I *792:B I *D NAND2D1
*CAP
1 x[27] 0.00083903
2 *792:B 0.000235947
3 *23:23 0.00107498
4 x[27] x[9] 0.00357893
5 x[27] y 0.00194213
6 x[27] x[31] 3.90327e-05
7 x[27] x[8] 2.2497e-05
8 x[27] x[3] 0.000228508
9 x[27] x[30] 0.000171024
*RES
1 x[27] *23:23 49.15 
2 *23:23 *792:B 24.5741 
*END

*D_NET *24 0.00250559
*CONN
*P x[28] I
*I *788:B I *D NAND2D1
*CAP
1 x[28] 0.00073784
2 *788:B 0.000264343
3 *24:23 0.00100218
4 x[28] x[31] 0.000419114
5 x[28] x[8] 6.52509e-05
6 x[28] y 1.68509e-05
*RES
1 x[28] *24:23 47.6601 
2 *24:23 *788:B 14.11 
*END

*D_NET *25 0.00303015
*CONN
*P x[29] I
*I *784:B I *D NAND2D1
*CAP
1 x[29] 0.000521986
2 *784:B 0.000551056
3 *25:27 0.00107304
4 x[29] y 0.000683552
5 x[29] x[4] 0.000126791
6 x[29] x[2] 7.37155e-05
*RES
1 x[29] *25:27 45.8914 
2 *25:27 *784:B 28.9785 
*END

*D_NET *26 0.00216496
*CONN
*P x[2] I
*I *770:B I *D NAND2D1
*CAP
1 x[2] 0.000538306
2 *770:B 0.000538306
3 x[2] y 0.000536676
4 x[2] x[4] 0.000274249
5 x[2] x[3] 0.000277421
*RES
1 x[2] *770:B 45.1379 
*END

*D_NET *27 0.00263945
*CONN
*P x[30] I
*I *780:B I *D NAND2D1
*CAP
1 x[30] 0.000666202
2 *780:B 0.000466796
3 *27:29 0.001133
4 x[30] y 0.000116505
5 x[30] x[7] 1.33227e-05
6 x[30] x[9] 0.00024362
*RES
1 x[30] *27:29 48.8684 
2 *27:29 *780:B 36.7065 
*END

*D_NET *28 0.0068173
*CONN
*P x[31] I
*I *823:B I *D AND3D1
*I *824:A1 I *D AOI21D1
*CAP
1 x[31] 0.00047832
2 *823:B 5.37588e-06
3 *824:A1 8.28898e-05
4 *28:45 0.000671605
5 *28:27 0.00106166
6 x[31] x[3] 0.000987777
7 x[31] y 2.47109e-05
8 x[31] x[8] 0.0034255
9 x[31] x[9] 3.84664e-05
10 x[31] x[7] 4.09991e-05
*RES
1 x[31] *28:27 48.8899 
2 *28:27 *28:45 30.1763 
3 *28:45 *824:A1 8.07714 
4 *28:45 *823:B 5.5 
*END

*D_NET *29 0.00279712
*CONN
*P x[3] I
*I *765:B I *D NAND2D1
*CAP
1 x[3] 0.00121723
2 *765:B 5.37588e-06
3 *29:29 0.0012226
4 x[3] y 0.000351906
*RES
1 x[3] *29:29 49.2362 
2 *29:29 *765:B 5.5 
*END

*D_NET *30 0.00152412
*CONN
*P x[4] I
*I *760:B I *D NAND2D1
*CAP
1 x[4] 0.000450775
2 *760:B 5.37588e-06
3 *30:33 0.000456151
4 x[4] y 0.000611819
*RES
1 x[4] *30:33 47.9467 
2 *30:33 *760:B 5.5 
*END

*D_NET *31 0.000992567
*CONN
*P x[5] I
*I *755:B I *D NAND2D1
*CAP
1 x[5] 0.000354885
2 *755:B 0.000354885
3 x[5] y 0.000282796
*RES
1 x[5] *755:B 27.6498 
*END

*D_NET *32 0.000666097
*CONN
*P x[6] I
*I *750:B I *D NAND2D1
*CAP
1 x[6] 0.000333048
2 *750:B 0.000333048
*RES
1 x[6] *750:B 16.3943 
*END

*D_NET *33 0.000837097
*CONN
*P x[7] I
*I *745:B I *D NAND2D1
*CAP
1 x[7] 0.000326819
2 *745:B 0.000326819
3 x[7] y 0.000140883
4 x[7] x[8] 4.25768e-05
*RES
1 x[7] *745:B 26.7589 
*END

*D_NET *34 0.0015277
*CONN
*P x[8] I
*I *740:B I *D NAND2D1
*CAP
1 x[8] 0.000676448
2 *740:B 5.37588e-06
3 *34:33 0.000681824
4 x[8] x[9] 2.21294e-05
5 x[8] y 0.000141922
*RES
1 x[8] *34:33 46.1314 
2 *34:33 *740:B 5.5 
*END

*D_NET *35 0.00169424
*CONN
*P x[9] I
*I *735:B I *D NAND2D1
*CAP
1 x[9] 0.000807935
2 *735:B 5.37588e-06
3 *35:25 0.000813311
4 x[9] y 6.76196e-05
*RES
1 x[9] *35:25 48.1621 
2 *35:25 *735:B 5.5 
*END

*D_NET *36 0.00874457
*CONN
*P y I
*I *826:A I *D NAND2D1
*I *680:A I *D NAND2D1
*I *685:A I *D NAND2D1
*I *755:A I *D NAND2D1
*I *675:A I *D NAND2D1
*I *670:A I *D NAND2D1
*I *690:A I *D NAND2D1
*I *665:A I *D NAND2D1
*I *745:A I *D NAND2D1
*I *720:A I *D NAND2D1
*I *750:A I *D NAND2D1
*I *760:A I *D NAND2D1
*I *775:A I *D NAND2D1
*I *765:A I *D NAND2D1
*I *695:A I *D NAND2D1
*I *740:A I *D NAND2D1
*I *730:A I *D NAND2D1
*I *705:A I *D NAND2D1
*I *715:A I *D NAND2D1
*I *655:A I *D NAND2D1
*I *660:A I *D NAND2D1
*I *735:A I *D NAND2D1
*I *796:A I *D NAND2D1
*I *792:A I *D NAND2D1
*I *780:A I *D NAND2D1
*I *823:A I *D AND3D1
*I *824:A0 I *D AOI21D1
*I *788:A I *D NAND2D1
*I *784:A I *D NAND2D1
*I *725:A I *D NAND2D1
*I *710:A I *D NAND2D1
*I *700:A I *D NAND2D1
*I *770:A I *D NAND2D1
*CAP
1 y 0.000310996
2 *826:A 2.69984e-05
3 *680:A 5.37588e-06
4 *685:A 5.37588e-06
5 *755:A 3.83193e-05
6 *675:A 1.77076e-05
7 *670:A 0.000124824
8 *690:A 1.77076e-05
9 *665:A 5.37588e-06
10 *745:A 1.03086e-05
11 *720:A 1.03086e-05
12 *750:A 5.37588e-06
13 *760:A 5.37588e-06
14 *775:A 2.26403e-05
15 *765:A 3.18011e-05
16 *695:A 6.85119e-05
17 *740:A 0.000156472
18 *730:A 1.77076e-05
19 *705:A 1.27749e-05
20 *715:A 5.37588e-06
21 *655:A 9.28439e-05
22 *660:A 3.43146e-05
23 *735:A 5.37138e-05
24 *796:A 6.35792e-05
25 *792:A 1.77076e-05
26 *780:A 2.7573e-05
27 *823:A 1.03086e-05
28 *824:A0 4.73039e-05
29 *788:A 9.48129e-05
30 *784:A 3.66151e-05
31 *725:A 2.26403e-05
32 *710:A 0.000131394
33 *700:A 1.94693e-05
34 *770:A 5.37588e-06
35 *36:404 0.000183755
36 *36:400 0.000115833
37 *36:396 7.39052e-05
38 *36:385 0.000175223
39 *36:368 0.000166742
40 *36:357 6.30046e-05
41 *36:348 4.84552e-05
42 *36:344 9.84473e-05
43 *36:273 0.000248984
44 *36:226 0.000248341
45 *36:220 0.000320907
46 *36:194 0.000182407
47 *36:190 0.000190328
48 *36:179 0.000222741
49 *36:166 0.000195777
50 *36:155 0.000158115
51 *36:135 0.000232548
52 *36:129 0.000216864
53 *36:125 0.000148995
54 *36:110 0.000171027
55 *36:97 0.000268769
56 *36:93 0.000179332
57 *36:89 0.000266025
58 *36:85 0.000470469
59 *36:66 0.000396763
60 *36:64 0.000413772
61 *36:50 0.000426037
62 *36:35 0.000217691
63 *36:29 0.000238758
64 *36:19 0.000204727
65 *36:15 0.000208658
66 *36:11 0.000434182
*RES
1 y *36:11 20.7847 
2 *36:11 *36:15 8.534 
3 *36:15 *36:19 6.935 
4 *36:19 *36:29 16.5291 
5 *36:29 *36:35 13.5947 
6 *36:35 *770:A 5.5 
7 *36:35 *36:50 10.3966 
8 *36:50 *36:64 24.9707 
9 *36:64 *36:66 3.854 
10 *36:66 *700:A 5.96857 
11 *36:66 *36:85 18.6795 
12 *36:85 *36:89 10.01 
13 *36:89 *36:93 7.32157 
14 *36:93 *36:97 9.19 
15 *36:97 *710:A 15.7443 
16 *36:97 *36:110 0.855143 
17 *36:110 *725:A 11.41 
18 *36:110 *36:125 9.92214 
19 *36:125 *36:129 5.96857 
20 *36:129 *36:135 14.034 
21 *36:135 *784:A 12.0484 
22 *36:135 *788:A 14.3679 
23 *36:129 *36:155 3.94771 
24 *36:155 *824:A0 12.23 
25 *36:155 *36:166 0.468571 
26 *36:166 *823:A 11 
27 *36:166 *36:179 6.92314 
28 *36:179 *780:A 11.574 
29 *36:179 *36:190 0.855143 
30 *36:190 *36:194 8.698 
31 *36:194 *792:A 5.91 
32 *36:194 *796:A 18.345 
33 *36:190 *36:220 2.70014 
34 *36:220 *36:226 16.002 
35 *36:226 *735:A 12.681 
36 *36:226 *660:A 11.9079 
37 *36:220 *655:A 14.1101 
38 *36:125 *715:A 5.5 
39 *36:93 *705:A 5.746 
40 *36:89 *36:273 2.98129 
41 *36:273 *730:A 11.246 
42 *36:273 *740:A 16.4179 
43 *36:85 *695:A 18.509 
44 *36:64 *765:A 6.37857 
45 *36:50 *775:A 11.41 
46 *36:29 *760:A 5.5 
47 *36:19 *750:A 5.5 
48 *36:15 *36:344 7.94243 
49 *36:344 *36:348 6.16186 
50 *36:348 *720:A 11 
51 *36:348 *36:357 0.661857 
52 *36:357 *745:A 11 
53 *36:357 *36:368 6.74171 
54 *36:368 *665:A 5.5 
55 *36:368 *36:385 14.5889 
56 *36:385 *690:A 5.91 
57 *36:385 *36:396 1.07186 
58 *36:396 *36:400 1.20657 
59 *36:400 *36:404 1.37057 
60 *36:404 *670:A 20.5414 
61 *36:404 *675:A 5.91 
62 *36:400 *755:A 6.59529 
63 *36:396 *685:A 5.5 
64 *36:344 *680:A 5.5 
65 *36:11 *826:A 16.9686 
*END
