*SPEF "ieee 1481-1999"
*DESIGN "spm"
*DATE "08:57:46 Monday July 13, 2026"
*VENDOR "The OpenROAD Project"
*PROGRAM "OpenROAD"
*VERSION "26Q3-111-g3efb695851"
// FIELD-SOLVED COUPLING (FasterCap BEM, fitted PDK dielectric stack)
// eps_r=4.0 (fitted from PDK area+fringe; NOT foundry rules.C)
// engine: FasterCap 3D BEM on routed geometry; lateral + inter-layer
// scope: representative cluster (21 field-solved net-pairs)
// NOTE: NOT foundry field-solver; NOT crosstalk-SI-signoff-grade
*DESIGN_FLOW "NAME_SCOPE LOCAL" "PIN_CAP NONE"
*DIVIDER /
*DELIMITER :
*BUS_DELIMITER []
*T_UNIT 1 NS
*C_UNIT 1 PF
*R_UNIT 1 OHM
*L_UNIT 1 HENRY

*NAME_MAP
*39 _000_
*40 _001_
*41 _002_
*42 _003_
*43 _004_
*44 _005_
*45 _006_
*46 _007_
*47 _008_
*48 _009_
*49 _010_
*50 _011_
*51 _012_
*52 _013_
*53 _014_
*54 _015_
*55 _016_
*56 _017_
*57 _018_
*58 _019_
*59 _020_
*60 _021_
*61 _022_
*62 _023_
*63 _024_
*64 _025_
*65 _026_
*66 _027_
*67 _028_
*68 _029_
*69 _030_
*70 _031_
*71 _032_
*72 _033_
*73 _034_
*74 _035_
*75 _036_
*76 _037_
*77 _038_
*78 _039_
*79 _040_
*80 _041_
*81 _042_
*82 _043_
*83 _044_
*84 _045_
*85 _046_
*86 _047_
*87 _048_
*88 _049_
*89 _050_
*90 _051_
*91 _052_
*92 _053_
*93 _054_
*94 _055_
*95 _056_
*96 _057_
*97 _058_
*98 _059_
*99 _060_
*100 _061_
*101 _062_
*102 _063_
*103 _064_
*104 _065_
*105 _066_
*106 _067_
*107 _068_
*108 _069_
*109 _070_
*110 _071_
*111 _072_
*112 _073_
*113 _074_
*114 _075_
*115 _076_
*116 _077_
*117 _078_
*118 _079_
*119 _080_
*120 _081_
*121 _082_
*122 _083_
*123 _084_
*124 _085_
*125 _086_
*126 _087_
*127 _088_
*128 _089_
*129 _090_
*130 _091_
*131 _092_
*132 _093_
*133 _094_
*134 _095_
*135 _096_
*136 _097_
*137 _098_
*138 _099_
*139 _100_
*140 _101_
*141 _102_
*142 _103_
*143 _104_
*144 _105_
*145 _106_
*146 _107_
*147 _108_
*148 _109_
*149 _110_
*150 _111_
*151 _112_
*152 _113_
*153 _114_
*154 _115_
*155 _116_
*156 _117_
*157 _118_
*158 _119_
*159 _120_
*160 _121_
*161 _122_
*162 _123_
*163 _124_
*164 _125_
*165 _126_
*166 _127_
*167 _128_
*168 _129_
*169 _130_
*170 _131_
*171 _132_
*172 _133_
*173 _134_
*174 _135_
*175 _136_
*176 _137_
*177 _138_
*178 _139_
*179 _140_
*180 _141_
*181 _142_
*182 _143_
*183 _144_
*184 _145_
*185 _146_
*186 _147_
*187 _148_
*188 _149_
*189 _150_
*190 _151_
*191 _152_
*192 _153_
*193 _154_
*194 _155_
*195 _156_
*196 _157_
*197 _158_
*198 _159_
*199 _160_
*200 _161_
*201 _162_
*202 _163_
*203 _164_
*204 _165_
*205 _166_
*206 _167_
*207 _168_
*208 _169_
*209 _170_
*210 _171_
*211 _172_
*212 _173_
*213 _174_
*214 _175_
*215 _176_
*216 _177_
*217 _178_
*218 _179_
*219 _180_
*220 _181_
*221 _182_
*222 _183_
*223 _184_
*224 _185_
*225 _186_
*226 _187_
*227 _188_
*228 _189_
*229 _190_
*230 _191_
*231 _192_
*232 _193_
*233 _194_
*234 _195_
*235 c[0]
*236 c[10]
*237 c[11]
*238 c[12]
*239 c[13]
*240 c[14]
*241 c[15]
*242 c[16]
*243 c[17]
*244 c[18]
*245 c[19]
*246 c[1]
*247 c[20]
*248 c[21]
*249 c[22]
*250 c[23]
*251 c[24]
*252 c[25]
*253 c[26]
*254 c[27]
*255 c[28]
*256 c[29]
*257 c[2]
*258 c[30]
*259 c[31]
*260 c[3]
*261 c[4]
*262 c[5]
*263 c[6]
*264 c[7]
*265 c[8]
*266 c[9]
*1 clk
*267 clknet_0_clk
*268 clknet_3_0__leaf_clk
*269 clknet_3_1__leaf_clk
*270 clknet_3_2__leaf_clk
*271 clknet_3_3__leaf_clk
*272 clknet_3_4__leaf_clk
*273 clknet_3_5__leaf_clk
*274 clknet_3_6__leaf_clk
*275 clknet_3_7__leaf_clk
*2 p_r
*3 rst
*276 s[0]
*277 s[10]
*278 s[11]
*279 s[12]
*280 s[13]
*281 s[14]
*282 s[15]
*283 s[16]
*284 s[17]
*285 s[18]
*286 s[19]
*287 s[1]
*288 s[20]
*289 s[21]
*290 s[22]
*291 s[23]
*292 s[24]
*293 s[25]
*294 s[26]
*295 s[27]
*296 s[28]
*297 s[29]
*298 s[2]
*299 s[30]
*300 s[3]
*301 s[4]
*302 s[5]
*303 s[6]
*304 s[7]
*305 s[8]
*306 s[9]
*307 spare_tielo
*4 x[0]
*5 x[10]
*6 x[11]
*7 x[12]
*8 x[13]
*9 x[14]
*10 x[15]
*11 x[16]
*12 x[17]
*13 x[18]
*14 x[19]
*15 x[1]
*16 x[20]
*17 x[21]
*18 x[22]
*19 x[23]
*20 x[24]
*21 x[25]
*22 x[26]
*23 x[27]
*24 x[28]
*25 x[29]
*26 x[2]
*27 x[30]
*28 x[31]
*29 x[3]
*30 x[4]
*31 x[5]
*32 x[6]
*33 x[7]
*34 x[8]
*35 x[9]
*36 y
*308 FILLER_0_0
*309 FILLER_0_110
*310 FILLER_0_114
*311 FILLER_0_116
*312 FILLER_0_122
*313 FILLER_0_130
*314 FILLER_0_140
*315 FILLER_0_148
*316 FILLER_0_152
*317 FILLER_0_16
*318 FILLER_0_162
*319 FILLER_0_170
*320 FILLER_0_172
*321 FILLER_0_24
*322 FILLER_0_26
*323 FILLER_0_30
*324 FILLER_0_38
*325 FILLER_0_40
*326 FILLER_0_54
*327 FILLER_0_62
*328 FILLER_0_69
*329 FILLER_0_77
*330 FILLER_0_83
*331 FILLER_0_87
*332 FILLER_0_94
*333 FILLER_10_0
*334 FILLER_10_102
*335 FILLER_10_118
*336 FILLER_10_125
*337 FILLER_10_132
*338 FILLER_10_136
*339 FILLER_10_138
*340 FILLER_10_142
*341 FILLER_10_15
*342 FILLER_10_158
*343 FILLER_10_162
*344 FILLER_10_166
*345 FILLER_10_170
*346 FILLER_10_172
*347 FILLER_10_31
*348 FILLER_10_33
*349 FILLER_10_37
*350 FILLER_10_45
*351 FILLER_10_49
*352 FILLER_10_53
*353 FILLER_10_69
*354 FILLER_10_77
*355 FILLER_10_8
*356 FILLER_10_85
*357 FILLER_11_0
*358 FILLER_11_113
*359 FILLER_11_125
*360 FILLER_11_142
*361 FILLER_11_150
*362 FILLER_11_154
*363 FILLER_11_156
*364 FILLER_11_172
*365 FILLER_11_29
*366 FILLER_11_34
*367 FILLER_11_50
*368 FILLER_11_60
*369 FILLER_11_71
*370 FILLER_11_73
*371 FILLER_11_77
*372 FILLER_11_90
*373 FILLER_11_97
*374 FILLER_12_0
*375 FILLER_12_104
*376 FILLER_12_108
*377 FILLER_12_138
*378 FILLER_12_154
*379 FILLER_12_158
*380 FILLER_12_164
*381 FILLER_12_172
*382 FILLER_12_19
*383 FILLER_12_21
*384 FILLER_12_4
*385 FILLER_12_65
*386 FILLER_12_84
*387 FILLER_12_88
*388 FILLER_13_0
*389 FILLER_13_105
*390 FILLER_13_12
*391 FILLER_13_121
*392 FILLER_13_129
*393 FILLER_13_133
*394 FILLER_13_141
*395 FILLER_13_149
*396 FILLER_13_16
*397 FILLER_13_172
*398 FILLER_13_24
*399 FILLER_13_31
*400 FILLER_13_47
*401 FILLER_13_58
*402 FILLER_13_69
*403 FILLER_13_8
*404 FILLER_13_80
*405 FILLER_13_88
*406 FILLER_13_92
*407 FILLER_14_0
*408 FILLER_14_106
*409 FILLER_14_125
*410 FILLER_14_143
*411 FILLER_14_151
*412 FILLER_14_155
*413 FILLER_14_169
*414 FILLER_14_24
*415 FILLER_14_35
*416 FILLER_14_51
*417 FILLER_14_55
*418 FILLER_14_62
*419 FILLER_14_70
*420 FILLER_14_86
*421 FILLER_14_90
*422 FILLER_14_92
*423 FILLER_15_0
*424 FILLER_15_101
*425 FILLER_15_120
*426 FILLER_15_128
*427 FILLER_15_152
*428 FILLER_15_160
*429 FILLER_15_165
*430 FILLER_15_22
*431 FILLER_15_53
*432 FILLER_15_70
*433 FILLER_15_8
*434 FILLER_15_89
*435 FILLER_15_97
*436 FILLER_16_0
*437 FILLER_16_104
*438 FILLER_16_114
*439 FILLER_16_130
*440 FILLER_16_16
*441 FILLER_16_35
*442 FILLER_16_51
*443 FILLER_16_55
*444 FILLER_16_60
*445 FILLER_16_76
*446 FILLER_16_83
*447 FILLER_16_87
*448 FILLER_17_0
*449 FILLER_17_101
*450 FILLER_17_160
*451 FILLER_17_168
*452 FILLER_17_172
*453 FILLER_17_19
*454 FILLER_17_23
*455 FILLER_17_25
*456 FILLER_17_52
*457 FILLER_17_69
*458 FILLER_17_86
*459 FILLER_17_91
*460 FILLER_17_99
*461 FILLER_18_115
*462 FILLER_18_122
*463 FILLER_18_130
*464 FILLER_18_132
*465 FILLER_18_136
*466 FILLER_18_152
*467 FILLER_18_169
*468 FILLER_18_18
*469 FILLER_18_35
*470 FILLER_18_43
*471 FILLER_18_45
*472 FILLER_18_49
*473 FILLER_18_57
*474 FILLER_18_65
*475 FILLER_18_69
*476 FILLER_18_74
*477 FILLER_18_90
*478 FILLER_18_99
*479 FILLER_19_0
*480 FILLER_19_119
*481 FILLER_19_12
*482 FILLER_19_124
*483 FILLER_19_128
*484 FILLER_19_130
*485 FILLER_19_134
*486 FILLER_19_142
*487 FILLER_19_147
*488 FILLER_19_155
*489 FILLER_19_157
*490 FILLER_19_30
*491 FILLER_19_35
*492 FILLER_19_51
*493 FILLER_19_53
*494 FILLER_19_62
*495 FILLER_19_70
*496 FILLER_19_74
*497 FILLER_19_76
*498 FILLER_19_8
*499 FILLER_19_80
*500 FILLER_1_0
*501 FILLER_1_11
*502 FILLER_1_133
*503 FILLER_1_135
*504 FILLER_1_151
*505 FILLER_1_4
*506 FILLER_20_0
*507 FILLER_20_104
*508 FILLER_20_112
*509 FILLER_20_159
*510 FILLER_20_167
*511 FILLER_20_171
*512 FILLER_20_57
*513 FILLER_20_87
*514 FILLER_21_0
*515 FILLER_21_153
*516 FILLER_21_170
*517 FILLER_21_172
*518 FILLER_21_32
*519 FILLER_21_48
*520 FILLER_21_56
*521 FILLER_21_60
*522 FILLER_21_76
*523 FILLER_21_84
*524 FILLER_21_89
*525 FILLER_2_0
*526 FILLER_2_111
*527 FILLER_2_115
*528 FILLER_2_123
*529 FILLER_2_139
*530 FILLER_2_147
*531 FILLER_2_151
*532 FILLER_2_153
*533 FILLER_2_160
*534 FILLER_2_168
*535 FILLER_2_172
*536 FILLER_2_21
*537 FILLER_2_37
*538 FILLER_2_48
*539 FILLER_2_64
*540 FILLER_2_76
*541 FILLER_2_78
*542 FILLER_2_8
*543 FILLER_2_82
*544 FILLER_2_90
*545 FILLER_2_95
*546 FILLER_3_0
*547 FILLER_3_107
*548 FILLER_3_112
*549 FILLER_3_128
*550 FILLER_3_145
*551 FILLER_3_153
*552 FILLER_3_157
*553 FILLER_3_16
*554 FILLER_3_161
*555 FILLER_3_169
*556 FILLER_3_18
*557 FILLER_3_22
*558 FILLER_3_30
*559 FILLER_3_34
*560 FILLER_3_38
*561 FILLER_3_54
*562 FILLER_3_69
*563 FILLER_3_91
*564 FILLER_4_0
*565 FILLER_4_110
*566 FILLER_4_128
*567 FILLER_4_150
*568 FILLER_4_172
*569 FILLER_4_65
*570 FILLER_4_8
*571 FILLER_4_81
*572 FILLER_4_83
*573 FILLER_4_87
*574 FILLER_5_0
*575 FILLER_5_125
*576 FILLER_5_141
*577 FILLER_5_157
*578 FILLER_5_162
*579 FILLER_5_170
*580 FILLER_5_172
*581 FILLER_5_25
*582 FILLER_5_33
*583 FILLER_5_37
*584 FILLER_5_39
*585 FILLER_5_45
*586 FILLER_5_73
*587 FILLER_5_81
*588 FILLER_5_85
*589 FILLER_5_91
*590 FILLER_5_95
*591 FILLER_6_0
*592 FILLER_6_106
*593 FILLER_6_114
*594 FILLER_6_118
*595 FILLER_6_120
*596 FILLER_6_124
*597 FILLER_6_150
*598 FILLER_6_168
*599 FILLER_6_172
*600 FILLER_6_2
*601 FILLER_6_24
*602 FILLER_6_57
*603 FILLER_6_61
*604 FILLER_6_68
*605 FILLER_6_72
*606 FILLER_6_74
*607 FILLER_6_95
*608 FILLER_7_0
*609 FILLER_7_106
*610 FILLER_7_12
*611 FILLER_7_123
*612 FILLER_7_131
*613 FILLER_7_133
*614 FILLER_7_149
*615 FILLER_7_157
*616 FILLER_7_31
*617 FILLER_7_39
*618 FILLER_7_43
*619 FILLER_7_51
*620 FILLER_7_53
*621 FILLER_7_57
*622 FILLER_7_59
*623 FILLER_7_75
*624 FILLER_7_8
*625 FILLER_7_91
*626 FILLER_7_99
*627 FILLER_8_0
*628 FILLER_8_108
*629 FILLER_8_115
*630 FILLER_8_123
*631 FILLER_8_135
*632 FILLER_8_16
*633 FILLER_8_162
*634 FILLER_8_170
*635 FILLER_8_172
*636 FILLER_8_24
*637 FILLER_8_28
*638 FILLER_8_42
*639 FILLER_8_58
*640 FILLER_8_66
*641 FILLER_8_76
*642 FILLER_8_92
*643 FILLER_9_0
*644 FILLER_9_101
*645 FILLER_9_105
*646 FILLER_9_135
*647 FILLER_9_143
*648 FILLER_9_31
*649 FILLER_9_4
*650 FILLER_9_70
*651 FILLER_9_84
*652 FILLER_9_88
*653 FILLER_9_9
*654 _196_
*655 _197_
*656 _198_
*657 _199_
*658 _200_
*659 _201_
*660 _202_
*661 _203_
*662 _204_
*663 _205_
*664 _206_
*665 _207_
*666 _208_
*667 _209_
*668 _210_
*669 _211_
*670 _212_
*671 _213_
*672 _214_
*673 _215_
*674 _216_
*675 _217_
*676 _218_
*677 _219_
*678 _220_
*679 _221_
*680 _222_
*681 _223_
*682 _224_
*683 _225_
*684 _226_
*685 _227_
*686 _228_
*687 _229_
*688 _230_
*689 _231_
*690 _232_
*691 _233_
*692 _234_
*693 _235_
*694 _236_
*695 _237_
*696 _238_
*697 _239_
*698 _240_
*699 _241_
*700 _242_
*701 _243_
*702 _244_
*703 _245_
*704 _246_
*705 _247_
*706 _248_
*707 _249_
*708 _250_
*709 _251_
*710 _252_
*711 _253_
*712 _254_
*713 _255_
*714 _256_
*715 _257_
*716 _258_
*717 _259_
*718 _260_
*719 _261_
*720 _262_
*721 _263_
*722 _264_
*723 _265_
*724 _266_
*725 _267_
*726 _268_
*727 _269_
*728 _270_
*729 _271_
*730 _272_
*731 _273_
*732 _274_
*733 _275_
*734 _276_
*735 _277_
*736 _278_
*737 _279_
*738 _280_
*739 _281_
*740 _282_
*741 _283_
*742 _284_
*743 _285_
*744 _286_
*745 _287_
*746 _288_
*747 _289_
*748 _290_
*749 _291_
*750 _292_
*751 _293_
*752 _294_
*753 _295_
*754 _296_
*755 _297_
*756 _298_
*757 _299_
*758 _300_
*759 _301_
*760 _302_
*761 _303_
*762 _304_
*763 _305_
*764 _306_
*765 _307_
*766 _308_
*767 _309_
*768 _310_
*769 _311_
*770 _312_
*771 _313_
*772 _314_
*773 _315_
*774 _316_
*775 _317_
*776 _318_
*777 _319_
*778 _320_
*779 _321_
*780 _322_
*781 _323_
*782 _324_
*783 _325_
*784 _326_
*785 _327_
*786 _328_
*787 _329_
*788 _330_
*789 _331_
*790 _332_
*791 _333_
*792 _334_
*793 _335_
*794 _336_
*795 _337_
*796 _338_
*797 _339_
*798 _340_
*799 _341_
*800 _342_
*801 _343_
*802 _344_
*803 _345_
*804 _346_
*805 _347_
*806 _348_
*807 _349_
*808 _350_
*809 _351_
*810 _352_
*811 _353_
*812 _354_
*813 _355_
*814 _356_
*815 _357_
*816 _358_
*817 _359_
*818 _360_
*819 _361_
*820 _362_
*821 _363_
*822 _364_
*823 _365_
*824 _366_
*825 _367_
*826 _368_
*827 _369_
*828 _370_
*829 _371_
*830 _372_
*831 _373_
*832 _374_
*833 _375_
*834 _376_
*835 _377_
*836 _378_
*837 _379_
*838 _380_
*839 _381_
*840 _382_
*841 _383_
*842 _384_
*843 _385_
*844 _386_
*845 _387_
*846 _388_
*847 _389_
*848 _390_
*849 _391_
*850 _392_
*851 _393_
*852 _394_
*853 _395_
*854 _396_
*855 _397_
*856 _398_
*857 _399_
*858 _400_
*859 _401_
*860 _402_
*861 _403_
*862 _404_
*863 _405_
*864 _406_
*865 _407_
*866 _408_
*867 _409_
*868 _410_
*869 _411_
*870 _412_
*871 _413_
*872 _414_
*873 _415_
*874 _416_
*875 _417_
*876 _418_
*877 _419_
*878 _420_
*879 _421_
*880 _422_
*881 _423_
*882 _424_
*883 _425_
*884 _426_
*885 _427_
*886 _428_
*887 _429_
*888 _430_
*889 _431_
*890 _432_
*891 _433_
*892 _434_
*893 _435_
*894 _436_
*895 _437_
*896 _438_
*897 _439_
*898 _440_
*899 _441_
*900 _442_
*901 _443_
*902 _444_
*903 _445_
*904 _446_
*905 _447_
*906 _448_
*907 _449_
*908 _450_
*909 _451_
*910 _452_
*911 _453_
*912 _454_
*913 _455_
*914 clkbuf_0_clk
*915 clkbuf_3_0__f_clk
*916 clkbuf_3_1__f_clk
*917 clkbuf_3_2__f_clk
*918 clkbuf_3_3__f_clk
*919 clkbuf_3_4__f_clk
*920 clkbuf_3_5__f_clk
*921 clkbuf_3_6__f_clk
*922 clkbuf_3_7__f_clk
*923 clkload0
*924 clkload1
*925 clkload2
*926 clkload3
*927 clkload4
*928 clkload5
*929 spare_aoi_0
*930 spare_dff_0
*931 spare_inverter_0
*932 spare_mux2_0
*933 spare_nand2_0
*934 spare_nor2_0
*935 spare_tielo_drv

*PORTS
clk I
p O
rst I
x[0] I
x[10] I
x[11] I
x[12] I
x[13] I
x[14] I
x[15] I
x[16] I
x[17] I
x[18] I
x[19] I
x[1] I
x[20] I
x[21] I
x[22] I
x[23] I
x[24] I
x[25] I
x[26] I
x[27] I
x[28] I
x[29] I
x[2] I
x[30] I
x[31] I
x[3] I
x[4] I
x[5] I
x[6] I
x[7] I
x[8] I
x[9] I
y I

*D_NET *39 0.000226699
*CONN
*I *875:D I *D DFFHQD1
*I *659:Y O *D NOR2D1
*CAP
1 *875:D 0.000113349
2 *659:Y 0.000113349
*RES
1 *659:Y *875:D 25.321 
*END

*D_NET *40 0.000198024
*CONN
*I *874:D I *D DFFHQD1
*I *664:Y O *D NOR2D1
*CAP
1 *874:D 9.90119e-05
2 *664:Y 9.90119e-05
*RES
1 *664:Y *874:D 13.9344 
*END

*D_NET *41 0.000135308
*CONN
*I *873:D I *D DFFHQD1
*I *669:Y O *D NOR2D1
*CAP
1 *873:D 6.7654e-05
2 *669:Y 6.7654e-05
*RES
1 *669:Y *873:D 12.8919 
*END

*D_NET *42 0.000206802
*CONN
*I *872:D I *D DFFHQD1
*I *674:Y O *D NOR2D1
*CAP
1 *872:D 0.000103401
2 *674:Y 0.000103401
*RES
1 *674:Y *872:D 25.0223 
*END

*D_NET *43 0.000231492
*CONN
*I *871:D I *D DFFHQD1
*I *679:Y O *D NOR2D1
*CAP
1 *871:D 0.000115746
2 *679:Y 0.000115746
*RES
1 *679:Y *871:D 24.9991 
*END

*D_NET *44 0.000140241
*CONN
*I *870:D I *D DFFHQD1
*I *684:Y O *D NOR2D1
*CAP
1 *870:D 7.01204e-05
2 *684:Y 7.01204e-05
*RES
1 *684:Y *870:D 12.9739 
*END

*D_NET *45 0.000121919
*CONN
*I *869:D I *D DFFHQD1
*I *689:Y O *D NOR2D1
*CAP
1 *869:D 6.09596e-05
2 *689:Y 6.09596e-05
*RES
1 *689:Y *869:D 12.6693 
*END

*D_NET *46 0.000158137
*CONN
*I *868:D I *D DFFHQD1
*I *694:Y O *D NOR2D1
*CAP
1 *868:D 7.90692e-05
2 *694:Y 7.90692e-05
*RES
1 *694:Y *868:D 24.0851 
*END

*D_NET *47 0.000196938
*CONN
*I *867:D I *D DFFHQD1
*I *699:Y O *D NOR2D1
*CAP
1 *867:D 9.84684e-05
2 *699:Y 9.84684e-05
*RES
1 *699:Y *867:D 24.8583 
*END

*D_NET *48 8.5981e-05
*CONN
*I *866:D I *D DFFHQD1
*I *704:Y O *D NOR2D1
*CAP
1 *866:D 4.29905e-05
2 *704:Y 4.29905e-05
*RES
1 *704:Y *866:D 12.0719 
*END

*D_NET *49 0.000186397
*CONN
*I *865:D I *D DFFHQD1
*I *709:Y O *D NOR2D1
*CAP
1 *865:D 9.31984e-05
2 *709:Y 9.31984e-05
*RES
1 *709:Y *865:D 13.7411 
*END

*D_NET *50 0.000170189
*CONN
*I *864:D I *D DFFHQD1
*I *714:Y O *D NOR2D1
*CAP
1 *864:D 8.50947e-05
2 *714:Y 8.50947e-05
*RES
1 *714:Y *864:D 13.4717 
*END

*D_NET *51 0.000126853
*CONN
*I *863:D I *D DFFHQD1
*I *719:Y O *D NOR2D1
*CAP
1 *863:D 6.3426e-05
2 *719:Y 6.3426e-05
*RES
1 *719:Y *863:D 12.7513 
*END

*D_NET *52 0.000231492
*CONN
*I *862:D I *D DFFHQD1
*I *724:Y O *D NOR2D1
*CAP
1 *862:D 0.000115746
2 *724:Y 0.000115746
*RES
1 *724:Y *862:D 24.9991 
*END

*D_NET *53 0.000133546
*CONN
*I *861:D I *D DFFHQD1
*I *729:Y O *D NOR2D1
*CAP
1 *861:D 6.67732e-05
2 *729:Y 6.67732e-05
*RES
1 *729:Y *861:D 12.8626 
*END

*D_NET *54 0.000109235
*CONN
*I *860:D I *D DFFHQD1
*I *734:Y O *D NOR2D1
*CAP
1 *860:D 5.46176e-05
2 *734:Y 5.46176e-05
*RES
1 *734:Y *860:D 12.4584 
*END

*D_NET *55 0.000177704
*CONN
*I *859:D I *D DFFHQD1
*I *739:Y O *D NOR2D1
*CAP
1 *859:D 8.88517e-05
2 *739:Y 8.88517e-05
*RES
1 *739:Y *859:D 24.4424 
*END

*D_NET *56 0.000182801
*CONN
*I *858:D I *D DFFHQD1
*I *744:Y O *D NOR2D1
*CAP
1 *858:D 9.1401e-05
2 *744:Y 9.1401e-05
*RES
1 *744:Y *858:D 24.4951 
*END

*D_NET *57 0.000167838
*CONN
*I *857:D I *D DFFHQD1
*I *749:Y O *D NOR2D1
*CAP
1 *857:D 8.3919e-05
2 *749:Y 8.3919e-05
*RES
1 *749:Y *857:D 24.2784 
*END

*D_NET *58 0.000121919
*CONN
*I *856:D I *D DFFHQD1
*I *754:Y O *D NOR2D1
*CAP
1 *856:D 6.09596e-05
2 *754:Y 6.09596e-05
*RES
1 *754:Y *856:D 12.6693 
*END

*D_NET *59 0.000306814
*CONN
*I *855:D I *D DFFHQD1
*I *759:Y O *D NOR2D1
*CAP
1 *855:D 0.000153407
2 *759:Y 0.000153407
*RES
1 *759:Y *855:D 26.1321 
*END

*D_NET *60 0.000309716
*CONN
*I *854:D I *D DFFHQD1
*I *764:Y O *D NOR2D1
*CAP
1 *854:D 0.000154858
2 *764:Y 0.000154858
*RES
1 *764:Y *854:D 26.2034 
*END

*D_NET *61 0.000105359
*CONN
*I *853:D I *D DFFHQD1
*I *769:Y O *D NOR2D1
*CAP
1 *853:D 5.26797e-05
2 *769:Y 5.26797e-05
*RES
1 *769:Y *853:D 12.394 
*END

*D_NET *62 8.59808e-05
*CONN
*I *852:D I *D DFFHQD1
*I *774:Y O *D NOR2D1
*CAP
1 *852:D 4.29905e-05
2 *774:Y 4.29905e-05
*RES
1 *774:Y *852:D 12.0719 
*END

*D_NET *63 8.59805e-05
*CONN
*I *851:D I *D DFFHQD1
*I *779:Y O *D NOR2D1
*CAP
1 *851:D 4.29905e-05
2 *779:Y 4.29905e-05
*RES
1 *779:Y *851:D 12.0719 
*END

*D_NET *64 0.000281571
*CONN
*I *912:D I *D DFFHQD1
*I *783:Y O *D AOI211D1
*CAP
1 *912:D 0.000140785
2 *783:Y 0.000140785
*RES
1 *783:Y *912:D 25.747 
*END

*D_NET *65 0.000225207
*CONN
*I *911:D I *D DFFHQD1
*I *787:Y O *D AOI211D1
*CAP
1 *911:D 0.000112603
2 *787:Y 0.000112603
*RES
1 *787:Y *911:D 25.5846 
*END

*D_NET *66 0.000492519
*CONN
*I *910:D I *D DFFHQD1
*I *791:Y O *D AOI211D1
*CAP
1 *910:D 0.000246257
2 *791:Y 0.000246257
*RES
1 *791:Y *910:D 29.1269 
*END

*D_NET *67 0.000257062
*CONN
*I *909:D I *D DFFHQD1
*I *795:Y O *D AOI211D1
*CAP
1 *909:D 0.000128531
2 *795:Y 0.000128531
*RES
1 *795:Y *909:D 26.018 
*END

*D_NET *68 8.5981e-05
*CONN
*I *908:D I *D DFFHQD1
*I *799:Y O *D AOI211D1
*CAP
1 *908:D 4.29905e-05
2 *799:Y 4.29905e-05
*RES
1 *799:Y *908:D 12.0719 
*END

*D_NET *69 8.59812e-05
*CONN
*I *907:D I *D DFFHQD1
*I *800:Y O *D AOI211D1
*CAP
1 *907:D 4.29905e-05
2 *800:Y 4.29905e-05
*RES
1 *800:Y *907:D 12.0719 
*END

*D_NET *70 0.000187071
*CONN
*I *906:D I *D DFFHQD1
*I *801:Y O *D AOI211D1
*CAP
1 *906:D 9.35357e-05
2 *801:Y 9.35357e-05
*RES
1 *801:Y *906:D 24.6943 
*END

*D_NET *71 0.000177372
*CONN
*I *905:D I *D DFFHQD1
*I *802:Y O *D AOI211D1
*CAP
1 *905:D 8.86859e-05
2 *802:Y 8.86859e-05
*RES
1 *802:Y *905:D 24.501 
*END

*D_NET *72 0.000215507
*CONN
*I *904:D I *D DFFHQD1
*I *803:Y O *D AOI211D1
*CAP
1 *904:D 0.000107754
2 *803:Y 0.000107754
*RES
1 *803:Y *904:D 25.3913 
*END

*D_NET *73 0.000142002
*CONN
*I *903:D I *D DFFHQD1
*I *804:Y O *D AOI211D1
*CAP
1 *903:D 7.10012e-05
2 *804:Y 7.10012e-05
*RES
1 *804:Y *903:D 13.0031 
*END

*D_NET *74 0.000148697
*CONN
*I *902:D I *D DFFHQD1
*I *805:Y O *D AOI211D1
*CAP
1 *902:D 7.43484e-05
2 *805:Y 7.43484e-05
*RES
1 *805:Y *902:D 13.1144 
*END

*D_NET *75 9.91122e-05
*CONN
*I *901:D I *D DFFHQD1
*I *806:Y O *D AOI211D1
*CAP
1 *901:D 4.95559e-05
2 *806:Y 4.95559e-05
*RES
1 *806:Y *901:D 23.0719 
*END

*D_NET *76 0.000172176
*CONN
*I *900:D I *D DFFHQD1
*I *807:Y O *D AOI211D1
*CAP
1 *900:D 8.60881e-05
2 *807:Y 8.60881e-05
*RES
1 *807:Y *900:D 24.0765 
*END

*D_NET *77 0.000293933
*CONN
*I *899:D I *D DFFHQD1
*I *808:Y O *D AOI211D1
*CAP
1 *899:D 0.000146967
2 *808:Y 0.000146967
*RES
1 *808:Y *899:D 26.7911 
*END

*D_NET *78 0.00021617
*CONN
*I *898:D I *D DFFHQD1
*I *809:Y O *D AOI211D1
*CAP
1 *898:D 0.000108085
2 *809:Y 0.000108085
*RES
1 *809:Y *898:D 25.2741 
*END

*D_NET *79 8.59808e-05
*CONN
*I *897:D I *D DFFHQD1
*I *810:Y O *D AOI211D1
*CAP
1 *897:D 4.29905e-05
2 *810:Y 4.29905e-05
*RES
1 *810:Y *897:D 12.0719 
*END

*D_NET *80 0.000177538
*CONN
*I *896:D I *D DFFHQD1
*I *811:Y O *D AOI211D1
*CAP
1 *896:D 8.87688e-05
2 *811:Y 8.87688e-05
*RES
1 *811:Y *896:D 24.4717 
*END

*D_NET *81 0.000245269
*CONN
*I *895:D I *D DFFHQD1
*I *812:Y O *D AOI211D1
*CAP
1 *895:D 0.000122635
2 *812:Y 0.000122635
*RES
1 *812:Y *895:D 25.854 
*END

*D_NET *82 0.00012051
*CONN
*I *894:D I *D DFFHQD1
*I *813:Y O *D AOI211D1
*CAP
1 *894:D 6.0255e-05
2 *813:Y 6.0255e-05
*RES
1 *813:Y *894:D 12.6459 
*END

*D_NET *83 0.000274534
*CONN
*I *893:D I *D DFFHQD1
*I *814:Y O *D AOI211D1
*CAP
1 *893:D 0.000137267
2 *814:Y 0.000137267
*RES
1 *814:Y *893:D 26.4046 
*END

*D_NET *84 0.000284068
*CONN
*I *892:D I *D DFFHQD1
*I *815:Y O *D AOI211D1
*CAP
1 *892:D 0.000142034
2 *815:Y 0.000142034
*RES
1 *815:Y *892:D 26.6271 
*END

*D_NET *85 0.000123681
*CONN
*I *891:D I *D DFFHQD1
*I *816:Y O *D AOI211D1
*CAP
1 *891:D 6.18405e-05
2 *816:Y 6.18405e-05
*RES
1 *816:Y *891:D 12.6986 
*END

*D_NET *86 0.000113816
*CONN
*I *890:D I *D DFFHQD1
*I *817:Y O *D AOI211D1
*CAP
1 *890:D 5.69078e-05
2 *817:Y 5.69078e-05
*RES
1 *817:Y *890:D 12.5346 
*END

*D_NET *87 0.000196937
*CONN
*I *889:D I *D DFFHQD1
*I *818:Y O *D AOI211D1
*CAP
1 *889:D 9.84684e-05
2 *818:Y 9.84684e-05
*RES
1 *818:Y *889:D 24.8583 
*END

*D_NET *88 0.000293768
*CONN
*I *888:D I *D DFFHQD1
*I *819:Y O *D AOI211D1
*CAP
1 *888:D 0.000146884
2 *819:Y 0.000146884
*RES
1 *819:Y *888:D 26.8204 
*END

*D_NET *89 9.5494e-05
*CONN
*I *887:D I *D DFFHQD1
*I *820:Y O *D AOI211D1
*CAP
1 *887:D 4.7747e-05
2 *820:Y 4.7747e-05
*RES
1 *820:Y *887:D 12.23 
*END

*D_NET *90 0.00031317
*CONN
*I *886:D I *D DFFHQD1
*I *821:Y O *D AOI211D1
*CAP
1 *886:D 0.000156583
2 *821:Y 0.000156583
*RES
1 *821:Y *886:D 27.207 
*END

*D_NET *91 0.000215507
*CONN
*I *885:D I *D DFFHQD1
*I *822:Y O *D AOI211D1
*CAP
1 *885:D 0.000107754
2 *822:Y 0.000107754
*RES
1 *822:Y *885:D 25.3913 
*END

*D_NET *92 0.000263202
*CONN
*I *881:D I *D DFFHQD1
*I *825:Y O *D NOR3D1
*CAP
1 *881:D 0.000131603
2 *825:Y 0.000131603
*RES
1 *825:Y *881:D 15.018 
*END

*D_NET *93 0.000112054
*CONN
*I *850:D I *D DFFHQD1
*I *830:Y O *D NOR2D1
*CAP
1 *850:D 5.60269e-05
2 *830:Y 5.60269e-05
*RES
1 *830:Y *850:D 12.5053 
*END

*D_NET *94 0.000135308
*CONN
*I *913:D I *D DFFHQD1
*I *831:Y O *D AND2D1
*CAP
1 *913:D 6.7654e-05
2 *831:Y 6.7654e-05
*RES
1 *831:Y *913:D 12.8919 
*END

*D_NET *95 8.5981e-05
*CONN
*I *884:D I *D DFFHQD1
*I *832:Y O *D AOI211D1
*CAP
1 *884:D 4.29905e-05
2 *832:Y 4.29905e-05
*RES
1 *832:Y *884:D 12.0719 
*END

*D_NET *96 0.000215507
*CONN
*I *883:D I *D DFFHQD1
*I *833:Y O *D AOI211D1
*CAP
1 *883:D 0.000107754
2 *833:Y 0.000107754
*RES
1 *833:Y *883:D 25.3913 
*END

*D_NET *97 0.000274536
*CONN
*I *882:D I *D DFFHQD1
*I *834:Y O *D AOI211D1
*CAP
1 *882:D 0.000137267
2 *834:Y 0.000137267
*RES
1 *834:Y *882:D 26.4046 
*END

*D_NET *98 0.000225041
*CONN
*I *880:D I *D DFFHQD1
*I *837:Y O *D AOI21D1
*CAP
1 *880:D 0.000112521
2 *837:Y 0.000112521
*RES
1 *837:Y *880:D 25.6139 
*END

*D_NET *99 0.000145173
*CONN
*I *879:D I *D DFFHQD1
*I *840:Y O *D AOI21D1
*CAP
1 *879:D 7.25867e-05
2 *840:Y 7.25867e-05
*RES
1 *840:Y *879:D 13.0559 
*END

*D_NET *100 0.000192998
*CONN
*I *878:D I *D DFFHQD1
*I *843:Y O *D AOI21D1
*CAP
1 *878:D 9.64994e-05
2 *843:Y 9.64994e-05
*RES
1 *843:Y *878:D 24.6006 
*END

*D_NET *101 0.000126852
*CONN
*I *877:D I *D DFFHQD1
*I *846:Y O *D AOI21D1
*CAP
1 *877:D 6.3426e-05
2 *846:Y 6.3426e-05
*RES
1 *846:Y *877:D 12.7513 
*END

*D_NET *102 0.000211413
*CONN
*I *876:D I *D DFFHQD1
*I *849:Y O *D AOI21D1
*CAP
1 *876:D 0.000105706
2 *849:Y 0.000105706
*RES
1 *849:Y *876:D 14.157 
*END

*D_NET *103 0.00239969
*CONN
*I *848:B0 I *D OAI21D1
*I *836:B0 I *D OAI21D1
*I *845:B0 I *D OAI21D1
*I *842:B0 I *D OAI21D1
*I *831:A I *D AND2D1
*I *839:B0 I *D OAI21D1
*I *654:Y O *D INVD1
*CAP
1 *848:B0 9.99235e-05
2 *836:B0 4.81847e-05
3 *845:B0 0.000122634
4 *842:B0 5.37588e-06
5 *831:A 0.000109844
6 *839:B0 2.20657e-05
7 *654:Y 3.29489e-05
8 *103:34 0.000364069
9 *103:22 0.000524485
10 *103:16 0.000595004
11 *103:12 0.000287947
12 *103:8 0.000187216
*RES
1 *654:Y *103:8 11.738 
2 *103:8 *103:12 6.99383 
3 *103:12 *103:16 11.486 
4 *103:16 *103:22 14.1777 
5 *103:22 *103:34 24.2666 
6 *103:34 *839:B0 11.4686 
7 *103:34 *831:A 14.3093 
8 *103:22 *842:B0 5.5 
9 *103:16 *845:B0 14.501 
10 *103:12 *836:B0 6.92329 
11 *103:8 *848:B0 13.8517 
*END

*D_NET *104 0.000424846
*CONN
*I *658:C I *D XOR3D2
*I *800:A0 I *D AOI211D1
*I *655:Y O *D NAND2D1
*CAP
1 *658:C 6.08642e-05
2 *800:A0 0.000117243
3 *655:Y 3.43146e-05
4 *104:10 0.000212421
*RES
1 *655:Y *104:10 11.9079 
2 *104:10 *800:A0 14.5553 
3 *104:10 *658:C 13.0149 
*END

*D_NET *105 0.000251223
*CONN
*I *800:A1 I *D AOI211D1
*I *656:Y O *D NAND2D1
*CAP
1 *800:A1 0.000125611
2 *656:Y 0.000125611
*RES
1 *656:Y *800:A1 25.3271 
*END

*D_NET *106 0.000207889
*CONN
*I *800:B0 I *D AOI211D1
*I *657:Y O *D NOR2D1
*CAP
1 *800:B0 0.000103945
2 *657:Y 0.000103945
*RES
1 *657:Y *800:B0 14.0984 
*END

*D_NET *107 5.28614e-05
*CONN
*I *659:B I *D NOR2D1
*I *658:Y O *D XOR3D2
*CAP
1 *659:B 2.64307e-05
2 *658:Y 2.64307e-05
*RES
1 *658:Y *659:B 11.5213 
*END

*D_NET *108 0.000627605
*CONN
*I *663:C I *D XOR3D2
*I *801:A0 I *D AOI211D1
*I *660:Y O *D NAND2D1
*CAP
1 *663:C 0.000151456
2 *801:A0 1.03086e-05
3 *660:Y 0.000152036
4 *108:10 0.000313801
*RES
1 *660:Y *108:10 16.0781 
2 *108:10 *801:A0 11 
3 *108:10 *663:C 16.2831 
*END

*D_NET *109 0.000118345
*CONN
*I *801:A1 I *D AOI211D1
*I *661:Y O *D NAND2D1
*CAP
1 *801:A1 5.91726e-05
2 *661:Y 5.91726e-05
*RES
1 *661:Y *801:A1 23.4877 
*END

*D_NET *110 0.000162086
*CONN
*I *801:B0 I *D AOI211D1
*I *662:Y O *D NOR2D1
*CAP
1 *801:B0 8.10428e-05
2 *662:Y 8.10428e-05
*RES
1 *662:Y *801:B0 13.337 
*END

*D_NET *111 0.000291313
*CONN
*I *664:B I *D NOR2D1
*I *663:Y O *D XOR3D2
*CAP
1 *664:B 0.000145656
2 *663:Y 0.000145656
*RES
1 *663:Y *664:B 25.9724 
*END

*D_NET *112 0.00141531
*CONN
*I *668:C I *D XOR3D2
*I *802:A0 I *D AOI211D1
*I *665:Y O *D NAND2D1
*CAP
1 *668:C 4.1465e-05
2 *802:A0 0.000106496
3 *665:Y 0.000559695
4 *112:16 0.000707657
*RES
1 *665:Y *112:16 41.7913 
2 *112:16 *802:A0 14.198 
3 *112:16 *668:C 12.2417 
*END

*D_NET *113 0.000230864
*CONN
*I *802:A1 I *D AOI211D1
*I *666:Y O *D NAND2D1
*CAP
1 *802:A1 0.000115432
2 *666:Y 0.000115432
*RES
1 *666:Y *802:A1 25.0098 
*END

*D_NET *114 0.000268411
*CONN
*I *802:B0 I *D AOI211D1
*I *667:Y O *D NOR2D1
*CAP
1 *802:B0 0.000134205
2 *667:Y 0.000134205
*RES
1 *667:Y *802:B0 25.5917 
*END

*D_NET *115 0.000230864
*CONN
*I *669:B I *D NOR2D1
*I *668:Y O *D XOR3D2
*CAP
1 *669:B 0.000115432
2 *668:Y 0.000115432
*RES
1 *668:Y *669:B 25.0098 
*END

*D_NET *116 0.000420594
*CONN
*I *673:C I *D XOR3D2
*I *803:A0 I *D AOI211D1
*I *670:Y O *D NAND2D1
*CAP
1 *673:C 7.3196e-05
2 *803:A0 3.74385e-05
3 *670:Y 9.96627e-05
4 *116:8 0.000210297
*RES
1 *670:Y *116:8 14.5611 
2 *116:8 *803:A0 11.902 
3 *116:8 *673:C 13.4249 
*END

*D_NET *117 0.000155391
*CONN
*I *803:A1 I *D AOI211D1
*I *671:Y O *D NAND2D1
*CAP
1 *803:A1 7.76956e-05
2 *671:Y 7.76956e-05
*RES
1 *671:Y *803:A1 13.2257 
*END

*D_NET *118 0.000197103
*CONN
*I *803:B0 I *D AOI211D1
*I *672:Y O *D NOR2D1
*CAP
1 *803:B0 9.85513e-05
2 *672:Y 9.85513e-05
*RES
1 *672:Y *803:B0 24.829 
*END

*D_NET *119 5.28614e-05
*CONN
*I *674:B I *D NOR2D1
*I *673:Y O *D XOR3D2
*CAP
1 *674:B 2.64307e-05
2 *673:Y 2.64307e-05
*RES
1 *673:Y *674:B 11.5213 
*END

*D_NET *120 0.000440156
*CONN
*I *678:C I *D XOR3D2
*I *804:A0 I *D AOI211D1
*I *675:Y O *D NAND2D1
*CAP
1 *678:C 1.27749e-05
2 *804:A0 3.6698e-05
3 *675:Y 0.000170607
4 *120:12 0.00022008
*RES
1 *675:Y *120:12 22.4801 
2 *120:12 *804:A0 17.3551 
3 *120:12 *678:C 5.746 
*END

*D_NET *121 0.00022037
*CONN
*I *804:A1 I *D AOI211D1
*I *676:Y O *D NAND2D1
*CAP
1 *804:A1 0.000110185
2 *676:Y 0.000110185
*RES
1 *676:Y *804:A1 24.8565 
*END

*D_NET *122 9.91121e-05
*CONN
*I *804:B0 I *D AOI211D1
*I *677:Y O *D NOR2D1
*CAP
1 *804:B0 4.95559e-05
2 *677:Y 4.95559e-05
*RES
1 *677:Y *804:B0 23.0719 
*END

*D_NET *123 0.000334824
*CONN
*I *679:B I *D NOR2D1
*I *678:Y O *D XOR3D2
*CAP
1 *679:B 0.000167412
2 *678:Y 0.000167412
*RES
1 *678:Y *679:B 27.535 
*END

*D_NET *124 0.000538807
*CONN
*I *683:C I *D XOR3D2
*I *805:A0 I *D AOI211D1
*I *680:Y O *D NAND2D1
*CAP
1 *683:C 0.000138544
2 *805:A0 8.84914e-05
3 *680:Y 4.23712e-05
4 *124:6 0.000269407
*RES
1 *680:Y *124:6 6.73 
2 *124:6 *805:A0 19.0771 
3 *124:6 *683:C 21.4141 
*END

*D_NET *125 0.000195078
*CONN
*I *805:A1 I *D AOI211D1
*I *681:Y O *D NAND2D1
*CAP
1 *805:A1 9.7539e-05
2 *681:Y 9.7539e-05
*RES
1 *681:Y *805:A1 24.4572 
*END

*D_NET *126 0.00021247
*CONN
*I *805:B0 I *D AOI211D1
*I *682:Y O *D NOR2D1
*CAP
1 *805:B0 0.000106235
2 *682:Y 0.000106235
*RES
1 *682:Y *805:B0 14.1746 
*END

*D_NET *127 0.000121919
*CONN
*I *684:B I *D NOR2D1
*I *683:Y O *D XOR3D2
*CAP
1 *684:B 6.09596e-05
2 *683:Y 6.09596e-05
*RES
1 *683:Y *684:B 12.6693 
*END

*D_NET *128 0.000837209
*CONN
*I *688:C I *D XOR3D2
*I *806:A0 I *D AOI211D1
*I *685:Y O *D NAND2D1
*CAP
1 *688:C 0.000103041
2 *806:A0 1.03086e-05
3 *685:Y 0.000305256
4 *128:22 0.000418606
*RES
1 *685:Y *128:22 31.922 
2 *128:22 *806:A0 11 
3 *128:22 *688:C 14.321 
*END

*D_NET *129 0.000145173
*CONN
*I *806:A1 I *D AOI211D1
*I *686:Y O *D NAND2D1
*CAP
1 *806:A1 7.25867e-05
2 *686:Y 7.25867e-05
*RES
1 *686:Y *806:A1 13.0559 
*END

*D_NET *130 0.000200842
*CONN
*I *806:B0 I *D AOI211D1
*I *687:Y O *D NOR2D1
*CAP
1 *806:B0 0.000100421
2 *687:Y 0.000100421
*RES
1 *687:Y *806:B0 13.9813 
*END

*D_NET *131 0.000140241
*CONN
*I *689:B I *D NOR2D1
*I *688:Y O *D XOR3D2
*CAP
1 *689:B 7.01204e-05
2 *688:Y 7.01204e-05
*RES
1 *688:Y *689:B 12.9739 
*END

*D_NET *132 0.000884558
*CONN
*I *693:C I *D XOR3D2
*I *807:A0 I *D AOI211D1
*I *690:Y O *D NAND2D1
*CAP
1 *693:C 5.37588e-06
2 *807:A0 5.64646e-05
3 *690:Y 0.000380438
4 *132:14 0.000442278
*RES
1 *690:Y *132:14 17.9699 
2 *132:14 *807:A0 7.19857 
3 *132:14 *693:C 5.5 
*END

*D_NET *133 5.28616e-05
*CONN
*I *807:A1 I *D AOI211D1
*I *691:Y O *D NAND2D1
*CAP
1 *807:A1 2.64307e-05
2 *691:Y 2.64307e-05
*RES
1 *691:Y *807:A1 11.5213 
*END

*D_NET *134 0.000126853
*CONN
*I *807:B0 I *D AOI211D1
*I *692:Y O *D NOR2D1
*CAP
1 *807:B0 6.3426e-05
2 *692:Y 6.3426e-05
*RES
1 *692:Y *807:B0 12.7513 
*END

*D_NET *135 0.00056552
*CONN
*I *694:B I *D NOR2D1
*I *693:Y O *D XOR3D2
*CAP
1 *694:B 0.000282761
2 *693:Y 0.000282761
*RES
1 *693:Y *694:B 32.2031 
*END

*D_NET *136 0.000354352
*CONN
*I *698:C I *D XOR3D2
*I *808:A0 I *D AOI211D1
*I *695:Y O *D NAND2D1
*CAP
1 *698:C 5.37588e-06
2 *808:A0 8.83256e-05
3 *695:Y 8.34758e-05
4 *136:12 0.000177177
*RES
1 *695:Y *136:12 18.9424 
2 *136:12 *808:A0 19.1357 
3 *136:12 *698:C 5.5 
*END

*D_NET *137 5.28614e-05
*CONN
*I *808:A1 I *D AOI211D1
*I *696:Y O *D NAND2D1
*CAP
1 *808:A1 2.64307e-05
2 *696:Y 2.64307e-05
*RES
1 *696:Y *808:A1 11.5213 
*END

*D_NET *138 0.000215637
*CONN
*I *808:B0 I *D AOI211D1
*I *697:Y O *D NOR2D1
*CAP
1 *808:B0 0.00010782
2 *697:Y 0.00010782
*RES
1 *697:Y *808:B0 14.2273 
*END

*D_NET *139 0.000429727
*CONN
*I *699:B I *D NOR2D1
*I *698:Y O *D XOR3D2
*CAP
1 *699:B 0.000214864
2 *698:Y 0.000214864
*RES
1 *698:Y *699:B 29.4971 
*END

*D_NET *140 0.00260854
*CONN
*I *703:C I *D XOR3D2
*I *809:A0 I *D AOI211D1
*I *700:Y O *D NAND2D1
*CAP
1 *703:C 5.37588e-06
2 *809:A0 0.000141839
3 *700:Y 0.000114072
4 *140:10 0.000261287
5 *703:C x[14] 0.00179979
6 *703:C x[16] 9.55687e-05
7 *703:C x[11] 5.04993e-05
8 *703:C x[3] 3.09046e-05
9 *703:C x[13] 2.90199e-05
10 *703:C rst 8.01732e-05
*RES
1 *700:Y *140:10 9.11386 
2 *140:10 *809:A0 21.2033 
3 *140:10 *703:C 5.5 
*END

*D_NET *141 0.000229029
*CONN
*I *809:A1 I *D AOI211D1
*I *701:Y O *D NAND2D1
*CAP
1 *809:A1 0.000114515
2 *701:Y 0.000114515
*RES
1 *701:Y *809:A1 14.4499 
*END

*D_NET *142 0.000235725
*CONN
*I *809:B0 I *D AOI211D1
*I *702:Y O *D NOR2D1
*CAP
1 *809:B0 0.000117862
2 *702:Y 0.000117862
*RES
1 *702:Y *809:B0 14.5611 
*END

*D_NET *143 0.000368421
*CONN
*I *704:B I *D NOR2D1
*I *703:Y O *D XOR3D2
*CAP
1 *704:B 0.000184211
2 *703:Y 0.000184211
*RES
1 *703:Y *704:B 27.9333 
*END

*D_NET *144 0.000522321
*CONN
*I *810:A0 I *D AOI211D1
*I *708:C I *D XOR3D2
*I *705:Y O *D NAND2D1
*CAP
1 *810:A0 5.37588e-06
2 *708:C 8.2009e-05
3 *705:Y 0.000173776
4 *144:16 0.000261161
*RES
1 *705:Y *144:16 21.5015 
2 *144:16 *708:C 8.04786 
3 *144:16 *810:A0 5.5 
*END

*D_NET *145 0.000107121
*CONN
*I *810:A1 I *D AOI211D1
*I *706:Y O *D NAND2D1
*CAP
1 *810:A1 5.35606e-05
2 *706:Y 5.35606e-05
*RES
1 *706:Y *810:A1 12.4233 
*END

*D_NET *146 8.4148e-05
*CONN
*I *810:B0 I *D AOI211D1
*I *707:Y O *D NOR2D1
*CAP
1 *810:B0 4.20739e-05
2 *707:Y 4.20739e-05
*RES
1 *707:Y *810:B0 22.8551 
*END

*D_NET *147 0.000468694
*CONN
*I *709:B I *D NOR2D1
*I *708:Y O *D XOR3D2
*CAP
1 *709:B 0.000234346
2 *708:Y 0.000234346
*RES
1 *708:Y *709:B 30.241 
*END

*D_NET *148 0.000494824
*CONN
*I *713:C I *D XOR3D2
*I *811:A0 I *D AOI211D1
*I *710:Y O *D NAND2D1
*CAP
1 *713:C 5.37588e-06
2 *811:A0 9.75279e-05
3 *710:Y 0.000144509
4 *148:22 0.000247412
*RES
1 *710:Y *148:22 20.613 
2 *148:22 *811:A0 19.698 
3 *148:22 *713:C 5.5 
*END

*D_NET *149 0.000195077
*CONN
*I *811:A1 I *D AOI211D1
*I *711:Y O *D NAND2D1
*CAP
1 *811:A1 9.7539e-05
2 *711:Y 9.7539e-05
*RES
1 *711:Y *811:A1 24.4572 
*END

*D_NET *150 0.000135071
*CONN
*I *811:B0 I *D AOI211D1
*I *712:Y O *D NOR2D1
*CAP
1 *811:B0 6.75354e-05
2 *712:Y 6.75354e-05
*RES
1 *712:Y *811:B0 23.7337 
*END

*D_NET *151 0.000405197
*CONN
*I *714:B I *D NOR2D1
*I *713:Y O *D XOR3D2
*CAP
1 *714:B 0.000202599
2 *713:Y 0.000202599
*RES
1 *713:Y *714:B 17.3784 
*END

*D_NET *152 0.00109416
*CONN
*I *718:C I *D XOR3D2
*I *812:A0 I *D AOI211D1
*I *715:Y O *D NAND2D1
*CAP
1 *718:C 1.03086e-05
2 *812:A0 9.64397e-05
3 *715:Y 0.00044033
4 *152:10 0.000547079
*RES
1 *715:Y *152:10 26.7206 
2 *152:10 *812:A0 14.1336 
3 *152:10 *718:C 11 
*END

*D_NET *153 5.28614e-05
*CONN
*I *812:A1 I *D AOI211D1
*I *716:Y O *D NAND2D1
*CAP
1 *812:A1 2.64307e-05
2 *716:Y 2.64307e-05
*RES
1 *716:Y *812:A1 11.5213 
*END

*D_NET *154 8.5981e-05
*CONN
*I *812:B0 I *D AOI211D1
*I *717:Y O *D NOR2D1
*CAP
1 *812:B0 4.29905e-05
2 *717:Y 4.29905e-05
*RES
1 *717:Y *812:B0 12.0719 
*END

*D_NET *155 0.000143412
*CONN
*I *719:B I *D NOR2D1
*I *718:Y O *D XOR3D2
*CAP
1 *719:B 7.17059e-05
2 *718:Y 7.17059e-05
*RES
1 *718:Y *719:B 13.0266 
*END

*D_NET *156 0.00244115
*CONN
*I *813:A0 I *D AOI211D1
*I *723:C I *D XOR3D2
*I *720:Y O *D NAND2D1
*CAP
1 *813:A0 5.12475e-05
2 *723:C 7.03819e-05
3 *720:Y 0.000870335
4 *156:32 0.000350239
5 *156:24 0.00109895
*RES
1 *720:Y *156:24 45.1356 
2 *156:24 *156:32 19.3757 
3 *156:32 *723:C 7.66129 
4 *156:32 *813:A0 17.935 
*END

*D_NET *157 0.000143413
*CONN
*I *813:A1 I *D AOI211D1
*I *721:Y O *D NAND2D1
*CAP
1 *813:A1 7.17059e-05
2 *721:Y 7.17059e-05
*RES
1 *721:Y *813:A1 13.0266 
*END

*D_NET *158 9.8946e-05
*CONN
*I *813:B0 I *D AOI211D1
*I *722:Y O *D NOR2D1
*CAP
1 *813:B0 4.9473e-05
2 *722:Y 4.9473e-05
*RES
1 *722:Y *813:B0 23.1011 
*END

*D_NET *159 0.000685519
*CONN
*I *724:B I *D NOR2D1
*I *723:Y O *D XOR3D2
*CAP
1 *724:B 0.000342759
2 *723:Y 0.000342759
*RES
1 *723:Y *724:B 32.3142 
*END

*D_NET *160 0.000406875
*CONN
*I *728:C I *D XOR3D2
*I *814:A0 I *D AOI211D1
*I *725:Y O *D NAND2D1
*CAP
1 *728:C 5.37588e-06
2 *814:A0 0.000136664
3 *725:Y 6.13973e-05
4 *160:8 0.000203437
*RES
1 *725:Y *160:8 7.36257 
2 *160:8 *814:A0 31.6527 
3 *160:8 *728:C 5.5 
*END

*D_NET *161 0.000229029
*CONN
*I *814:A1 I *D AOI211D1
*I *726:Y O *D NAND2D1
*CAP
1 *814:A1 0.000114515
2 *726:Y 0.000114515
*RES
1 *726:Y *814:A1 14.4499 
*END

*D_NET *162 0.000112054
*CONN
*I *814:B0 I *D AOI211D1
*I *727:Y O *D NOR2D1
*CAP
1 *814:B0 5.60269e-05
2 *727:Y 5.60269e-05
*RES
1 *727:Y *814:B0 12.5053 
*END

*D_NET *163 7.9287e-05
*CONN
*I *729:B I *D NOR2D1
*I *728:Y O *D XOR3D2
*CAP
1 *729:B 3.96433e-05
2 *728:Y 3.96433e-05
*RES
1 *728:Y *729:B 11.9606 
*END

*D_NET *164 0.000393319
*CONN
*I *733:C I *D XOR3D2
*I *815:A0 I *D AOI211D1
*I *730:Y O *D NAND2D1
*CAP
1 *733:C 5.37588e-06
2 *815:A0 0.00011274
3 *730:Y 7.85431e-05
4 *164:12 0.000196659
*RES
1 *730:Y *164:12 18.7784 
2 *164:12 *815:A0 20.0436 
3 *164:12 *733:C 5.5 
*END

*D_NET *165 5.28614e-05
*CONN
*I *815:A1 I *D AOI211D1
*I *731:Y O *D NAND2D1
*CAP
1 *815:A1 2.64307e-05
2 *731:Y 2.64307e-05
*RES
1 *731:Y *815:A1 11.5213 
*END

*D_NET *166 0.000205775
*CONN
*I *815:B0 I *D AOI211D1
*I *732:Y O *D NOR2D1
*CAP
1 *815:B0 0.000102888
2 *732:Y 0.000102888
*RES
1 *732:Y *815:B0 14.0633 
*END

*D_NET *167 0.000411982
*CONN
*I *734:B I *D NOR2D1
*I *733:Y O *D XOR3D2
*CAP
1 *734:B 0.000205993
2 *733:Y 0.000205993
*RES
1 *733:Y *734:B 28.8177 
*END

*D_NET *168 0.000242952
*CONN
*I *738:C I *D XOR3D2
*I *816:A0 I *D AOI211D1
*I *735:Y O *D NAND2D1
*CAP
1 *738:C 5.37588e-06
2 *816:A0 6.54492e-05
3 *735:Y 5.06511e-05
4 *168:8 0.000121476
*RES
1 *735:Y *168:8 7.00529 
2 *168:8 *816:A0 7.49729 
3 *168:8 *738:C 5.5 
*END

*D_NET *169 5.28614e-05
*CONN
*I *816:A1 I *D AOI211D1
*I *736:Y O *D NAND2D1
*CAP
1 *816:A1 2.64307e-05
2 *736:Y 2.64307e-05
*RES
1 *736:Y *816:A1 11.5213 
*END

*D_NET *170 0.000113247
*CONN
*I *816:B0 I *D AOI211D1
*I *737:Y O *D NOR2D1
*CAP
1 *816:B0 5.66234e-05
2 *737:Y 5.66234e-05
*RES
1 *737:Y *816:B0 23.435 
*END

*D_NET *171 0.000342597
*CONN
*I *739:B I *D NOR2D1
*I *738:Y O *D XOR3D2
*CAP
1 *739:B 0.000171299
2 *738:Y 0.000171299
*RES
1 *738:Y *739:B 27.7283 
*END

*D_NET *172 0.000288704
*CONN
*I *743:C I *D XOR3D2
*I *817:A0 I *D AOI211D1
*I *740:Y O *D NAND2D1
*CAP
1 *743:C 4.63977e-05
2 *817:A0 5.06511e-05
3 *740:Y 4.73039e-05
4 *172:6 0.000144353
*RES
1 *740:Y *172:6 6.894 
2 *172:6 *817:A0 7.00529 
3 *172:6 *743:C 17.7417 
*END

*D_NET *173 5.28614e-05
*CONN
*I *817:A1 I *D AOI211D1
*I *741:Y O *D NAND2D1
*CAP
1 *817:A1 2.64307e-05
2 *741:Y 2.64307e-05
*RES
1 *741:Y *817:A1 11.5213 
*END

*D_NET *174 9.09136e-05
*CONN
*I *817:B0 I *D AOI211D1
*I *742:Y O *D NOR2D1
*CAP
1 *817:B0 4.54569e-05
2 *742:Y 4.54569e-05
*RES
1 *742:Y *817:B0 12.1539 
*END

*D_NET *175 0.000197103
*CONN
*I *744:B I *D NOR2D1
*I *743:Y O *D XOR3D2
*CAP
1 *744:B 9.85513e-05
2 *743:Y 9.85513e-05
*RES
1 *743:Y *744:B 24.829 
*END

*D_NET *176 0.000719945
*CONN
*I *748:C I *D XOR3D2
*I *818:A0 I *D AOI211D1
*I *745:Y O *D NAND2D1
*CAP
1 *748:C 1.94693e-05
2 *818:A0 4.23712e-05
3 *745:Y 0.000298131
4 *176:14 0.000359972
*RES
1 *745:Y *176:14 26.0471 
2 *176:14 *818:A0 6.73 
3 *176:14 *748:C 5.96857 
*END

*D_NET *177 9.89461e-05
*CONN
*I *818:A1 I *D AOI211D1
*I *746:Y O *D NAND2D1
*CAP
1 *818:A1 4.9473e-05
2 *746:Y 4.9473e-05
*RES
1 *746:Y *818:A1 23.1011 
*END

*D_NET *178 9.89461e-05
*CONN
*I *818:B0 I *D AOI211D1
*I *747:Y O *D NOR2D1
*CAP
1 *818:B0 4.9473e-05
2 *747:Y 4.9473e-05
*RES
1 *747:Y *818:B0 23.1011 
*END

*D_NET *179 0.00038123
*CONN
*I *749:B I *D NOR2D1
*I *748:Y O *D XOR3D2
*CAP
1 *749:B 0.000190615
2 *748:Y 0.000190615
*RES
1 *748:Y *749:B 28.5307 
*END

*D_NET *180 0.000500335
*CONN
*I *753:C I *D XOR3D2
*I *819:A0 I *D AOI211D1
*I *750:Y O *D NAND2D1
*CAP
1 *753:C 5.37588e-06
2 *819:A0 0.000127373
3 *750:Y 0.000117419
4 *180:8 0.000250167
*RES
1 *750:Y *180:8 9.22514 
2 *180:8 *819:A0 20.5941 
3 *180:8 *753:C 5.5 
*END

*D_NET *181 0.000217402
*CONN
*I *819:A1 I *D AOI211D1
*I *751:Y O *D NAND2D1
*CAP
1 *819:A1 0.000108701
2 *751:Y 0.000108701
*RES
1 *751:Y *819:A1 14.2566 
*END

*D_NET *182 0.000149449
*CONN
*I *819:B0 I *D AOI211D1
*I *752:Y O *D NOR2D1
*CAP
1 *819:B0 7.47243e-05
2 *752:Y 7.47243e-05
*RES
1 *752:Y *819:B0 23.9446 
*END

*D_NET *183 8.92463e-05
*CONN
*I *754:B I *D NOR2D1
*I *753:Y O *D XOR3D2
*CAP
1 *754:B 4.46232e-05
2 *753:Y 4.46232e-05
*RES
1 *753:Y *754:B 22.9079 
*END

*D_NET *184 0.000680169
*CONN
*I *820:A0 I *D AOI211D1
*I *758:C I *D XOR3D2
*I *755:Y O *D NAND2D1
*CAP
1 *820:A0 1.94693e-05
2 *758:C 3.42674e-05
3 *755:Y 0.000286349
4 *184:16 0.000340086
*RES
1 *755:Y *184:16 25.7836 
2 *184:16 *758:C 6.46057 
3 *184:16 *820:A0 5.96857 
*END

*D_NET *185 0.000192335
*CONN
*I *820:A1 I *D AOI211D1
*I *756:Y O *D NAND2D1
*CAP
1 *820:A1 9.61679e-05
2 *756:Y 9.61679e-05
*RES
1 *756:Y *820:A1 24.7177 
*END

*D_NET *186 0.000353789
*CONN
*I *820:B0 I *D AOI211D1
*I *757:Y O *D NOR2D1
*CAP
1 *820:B0 0.000176894
2 *757:Y 0.000176894
*RES
1 *757:Y *820:B0 27.658 
*END

*D_NET *187 0.000492443
*CONN
*I *759:B I *D NOR2D1
*I *758:Y O *D XOR3D2
*CAP
1 *759:B 0.000246222
2 *758:Y 0.000246222
*RES
1 *758:Y *759:B 30.5397 
*END

*D_NET *188 0.000509273
*CONN
*I *763:C I *D XOR3D2
*I *821:A0 I *D AOI211D1
*I *760:Y O *D NAND2D1
*CAP
1 *763:C 5.37588e-06
2 *821:A0 9.8191e-05
3 *760:Y 0.000151067
4 *188:8 0.000254634
*RES
1 *760:Y *188:8 10.3439 
2 *188:8 *821:A0 19.4637 
3 *188:8 *763:C 5.5 
*END

*D_NET *189 0.000295446
*CONN
*I *821:A1 I *D AOI211D1
*I *761:Y O *D NAND2D1
*CAP
1 *821:A1 0.000147723
2 *761:Y 0.000147723
*RES
1 *761:Y *821:A1 26.592 
*END

*D_NET *190 0.000200843
*CONN
*I *821:B0 I *D AOI211D1
*I *762:Y O *D NOR2D1
*CAP
1 *821:B0 0.000100421
2 *762:Y 0.000100421
*RES
1 *762:Y *821:B0 13.9813 
*END

*D_NET *191 0.000493524
*CONN
*I *764:B I *D NOR2D1
*I *763:Y O *D XOR3D2
*CAP
1 *764:B 0.000246761
2 *763:Y 0.000246761
*RES
1 *763:Y *764:B 30.6217 
*END

*D_NET *192 0.00040736
*CONN
*I *768:C I *D XOR3D2
*I *822:A0 I *D AOI211D1
*I *765:Y O *D NAND2D1
*CAP
1 *768:C 5.37588e-06
2 *822:A0 7.12627e-05
3 *765:Y 0.000127041
4 *192:12 0.00020368
*RES
1 *765:Y *192:12 20.7113 
2 *192:12 *822:A0 7.69057 
3 *192:12 *768:C 5.5 
*END

*D_NET *193 0.000102188
*CONN
*I *822:A1 I *D AOI211D1
*I *766:Y O *D NAND2D1
*CAP
1 *822:A1 5.10942e-05
2 *766:Y 5.10942e-05
*RES
1 *766:Y *822:A1 12.3413 
*END

*D_NET *194 8.59809e-05
*CONN
*I *822:B0 I *D AOI211D1
*I *767:Y O *D NOR2D1
*CAP
1 *822:B0 4.29905e-05
2 *767:Y 4.29905e-05
*RES
1 *767:Y *822:B0 12.0719 
*END

*D_NET *195 0.000286327
*CONN
*I *769:B I *D NOR2D1
*I *768:Y O *D XOR3D2
*CAP
1 *769:B 0.000143163
2 *768:Y 0.000143163
*RES
1 *768:Y *769:B 26.5686 
*END

*D_NET *196 0.000316644
*CONN
*I *832:A0 I *D AOI211D1
*I *773:C I *D XOR3D2
*I *770:Y O *D NAND2D1
*CAP
1 *832:A0 5.06511e-05
2 *773:C 5.37588e-06
3 *770:Y 0.000102295
4 *196:12 0.000158322
*RES
1 *770:Y *196:12 19.9206 
2 *196:12 *773:C 5.5 
3 *196:12 *832:A0 7.00529 
*END

*D_NET *197 0.000123609
*CONN
*I *832:A1 I *D AOI211D1
*I *771:Y O *D NAND2D1
*CAP
1 *832:A1 6.18047e-05
2 *771:Y 6.18047e-05
*RES
1 *771:Y *832:A1 23.5111 
*END

*D_NET *198 0.000118511
*CONN
*I *832:B0 I *D AOI211D1
*I *772:Y O *D NOR2D1
*CAP
1 *832:B0 5.92555e-05
2 *772:Y 5.92555e-05
*RES
1 *772:Y *832:B0 23.4584 
*END

*D_NET *199 0.000389935
*CONN
*I *774:B I *D NOR2D1
*I *773:Y O *D XOR3D2
*CAP
1 *774:B 0.000194967
2 *773:Y 0.000194967
*RES
1 *773:Y *774:B 28.8997 
*END

*D_NET *200 0.000350908
*CONN
*I *778:C I *D XOR3D2
*I *833:A0 I *D AOI211D1
*I *775:Y O *D NAND2D1
*CAP
1 *778:C 2.26403e-05
2 *833:A0 8.92339e-05
3 *775:Y 6.35792e-05
4 *200:10 0.000175453
*RES
1 *775:Y *200:10 13.009 
2 *200:10 *833:A0 13.9989 
3 *200:10 *778:C 11.41 
*END

*D_NET *201 8.5628e-05
*CONN
*I *833:A1 I *D AOI211D1
*I *776:Y O *D NAND2D1
*CAP
1 *833:A1 4.28143e-05
2 *776:Y 4.28143e-05
*RES
1 *776:Y *833:A1 12.066 
*END

*D_NET *202 9.89461e-05
*CONN
*I *833:B0 I *D AOI211D1
*I *777:Y O *D NOR2D1
*CAP
1 *833:B0 4.9473e-05
2 *777:Y 4.9473e-05
*RES
1 *777:Y *833:B0 23.1011 
*END

*D_NET *203 0.000151867
*CONN
*I *779:B I *D NOR2D1
*I *778:Y O *D XOR3D2
*CAP
1 *779:B 7.59339e-05
2 *778:Y 7.59339e-05
*RES
1 *778:Y *779:B 13.1671 
*END

*D_NET *204 0.000542113
*CONN
*I *783:A0 I *D AOI211D1
*I *836:A0 I *D OAI21D1
*I *837:A0 I *D AOI21D1
*I *780:Y O *D NAND2D1
*CAP
1 *783:A0 5.37588e-06
2 *836:A0 5.37588e-06
3 *837:A0 0.000122274
4 *780:Y 5.64646e-05
5 *204:24 0.000209216
6 *204:12 0.000143406
*RES
1 *780:Y *204:12 7.19857 
2 *204:12 *204:24 2.71186 
3 *204:24 *837:A0 20.4887 
4 *204:24 *836:A0 5.5 
5 *204:12 *783:A0 5.5 
*END

*D_NET *205 5.28614e-05
*CONN
*I *783:A1 I *D AOI211D1
*I *781:Y O *D NAND2D1
*CAP
1 *783:A1 2.64307e-05
2 *781:Y 2.64307e-05
*RES
1 *781:Y *783:A1 11.5213 
*END

*D_NET *206 0.000113247
*CONN
*I *783:B0 I *D AOI211D1
*I *782:Y O *D NOR2D1
*CAP
1 *783:B0 5.66234e-05
2 *782:Y 5.66234e-05
*RES
1 *782:Y *783:B0 23.435 
*END

*D_NET *207 0.000420364
*CONN
*I *839:A0 I *D OAI21D1
*I *840:A0 I *D AOI21D1
*I *787:A0 I *D AOI211D1
*I *784:Y O *D NAND2D1
*CAP
1 *839:A0 5.37588e-06
2 *840:A0 5.71693e-05
3 *787:A0 4.96949e-05
4 *784:Y 1.03086e-05
5 *207:25 0.000150179
6 *207:6 0.000147637
*RES
1 *784:Y *207:6 11 
2 *207:6 *787:A0 12.5697 
3 *207:6 *207:25 8.55157 
4 *207:25 *840:A0 7.222 
5 *207:25 *839:A0 5.5 
*END

*D_NET *208 8.5629e-05
*CONN
*I *787:A1 I *D AOI211D1
*I *785:Y O *D NAND2D1
*CAP
1 *787:A1 4.28143e-05
2 *785:Y 4.28143e-05
*RES
1 *785:Y *787:A1 12.066 
*END

*D_NET *209 0.000128614
*CONN
*I *787:B0 I *D AOI211D1
*I *786:Y O *D NOR2D1
*CAP
1 *787:B0 6.43068e-05
2 *786:Y 6.43068e-05
*RES
1 *786:Y *787:B0 12.7806 
*END

*D_NET *210 0.000707683
*CONN
*I *843:A0 I *D AOI21D1
*I *842:A0 I *D OAI21D1
*I *791:A0 I *D AOI211D1
*I *788:Y O *D NAND2D1
*CAP
1 *843:A0 5.37588e-06
2 *842:A0 1.36558e-05
3 *791:A0 7.80458e-05
4 *788:Y 0.000153884
5 *210:20 0.000194584
6 *210:14 0.000262142
*RES
1 *788:Y *210:14 20.9458 
2 *210:14 *210:20 3.42057 
3 *210:20 *791:A0 18.9541 
4 *210:20 *842:A0 5.77529 
5 *210:14 *843:A0 5.5 
*END

*D_NET *211 0.000229029
*CONN
*I *791:A1 I *D AOI211D1
*I *789:Y O *D NAND2D1
*CAP
1 *791:A1 0.000114515
2 *789:Y 0.000114515
*RES
1 *789:Y *791:A1 14.4499 
*END

*D_NET *212 0.000100427
*CONN
*I *791:B0 I *D AOI211D1
*I *790:Y O *D NOR2D1
*CAP
1 *791:B0 5.02134e-05
2 *790:Y 5.02134e-05
*RES
1 *790:Y *791:B0 12.312 
*END

*D_NET *213 0.000995031
*CONN
*I *846:A0 I *D AOI21D1
*I *845:A0 I *D OAI21D1
*I *795:A0 I *D AOI211D1
*I *792:Y O *D NAND2D1
*CAP
1 *846:A0 5.32936e-05
2 *845:A0 5.37588e-06
3 *795:A0 0.000198639
4 *792:Y 0.000227874
5 *213:16 0.000216347
6 *213:14 0.000293499
*RES
1 *792:Y *213:14 23.4058 
2 *213:14 *213:16 0.41 
3 *213:16 *795:A0 22.2436 
4 *213:16 *845:A0 5.5 
5 *213:14 *846:A0 7.09314 
*END

*D_NET *214 0.000217403
*CONN
*I *795:A1 I *D AOI211D1
*I *793:Y O *D NAND2D1
*CAP
1 *795:A1 0.000108701
2 *793:Y 0.000108701
*RES
1 *793:Y *795:A1 14.2566 
*END

*D_NET *215 0.000257203
*CONN
*I *795:B0 I *D AOI211D1
*I *794:Y O *D NOR2D1
*CAP
1 *795:B0 0.000128602
2 *794:Y 0.000128602
*RES
1 *794:Y *795:B0 25.9126 
*END

*D_NET *216 0.000741455
*CONN
*I *848:A0 I *D OAI21D1
*I *849:A0 I *D AOI21D1
*I *799:A0 I *D AOI211D1
*I *796:Y O *D NAND2D1
*CAP
1 *848:A0 1.77076e-05
2 *849:A0 4.23712e-05
3 *799:A0 0.000166201
4 *796:Y 7.79571e-05
5 *216:16 0.000275062
6 *216:8 0.000162154
*RES
1 *796:Y *216:8 7.91314 
2 *216:8 *216:16 12.7612 
3 *216:16 *799:A0 21.2496 
4 *216:16 *849:A0 6.73 
5 *216:8 *848:A0 5.91 
*END

*D_NET *217 0.000171599
*CONN
*I *799:A1 I *D AOI211D1
*I *797:Y O *D NAND2D1
*CAP
1 *799:A1 8.57993e-05
2 *797:Y 8.57993e-05
*RES
1 *797:Y *799:A1 13.4951 
*END

*D_NET *218 0.000123681
*CONN
*I *799:B0 I *D AOI211D1
*I *798:Y O *D NOR2D1
*CAP
1 *799:B0 6.18405e-05
2 *798:Y 6.18405e-05
*RES
1 *798:Y *799:B0 12.6986 
*END

*D_NET *219 0.000445745
*CONN
*I *825:B I *D NOR3D1
*I *831:B I *D AND2D1
*I *823:Y O *D AND3D1
*CAP
1 *825:B 6.05165e-05
2 *831:B 0.000156979
3 *823:Y 5.37588e-06
4 *219:4 0.000222872
*RES
1 *823:Y *219:4 5.5 
2 *219:4 *831:B 21.6426 
3 *219:4 *825:B 7.33329 
*END

*D_NET *220 0.00033445
*CONN
*I *825:C I *D NOR3D1
*I *824:Y O *D AOI21D1
*CAP
1 *825:C 0.000167225
2 *824:Y 0.000167225
*RES
1 *824:Y *825:C 26.7318 
*END

*D_NET *221 0.000631262
*CONN
*I *829:C I *D XOR3D2
*I *834:A0 I *D AOI211D1
*I *826:Y O *D NAND2D1
*CAP
1 *829:C 5.37588e-06
2 *834:A0 0.000110108
3 *826:Y 0.000200148
4 *221:14 0.000315632
*RES
1 *826:Y *221:14 22.2515 
2 *221:14 *834:A0 20.0201 
3 *221:14 *829:C 5.5 
*END

*D_NET *222 5.28614e-05
*CONN
*I *834:A1 I *D AOI211D1
*I *827:Y O *D NAND2D1
*CAP
1 *834:A1 2.64307e-05
2 *827:Y 2.64307e-05
*RES
1 *827:Y *834:A1 11.5213 
*END

*D_NET *223 0.000238895
*CONN
*I *834:B0 I *D AOI211D1
*I *828:Y O *D NOR2D1
*CAP
1 *834:B0 0.000119447
2 *828:Y 0.000119447
*RES
1 *828:Y *834:B0 14.6139 
*END

*D_NET *224 0.000158458
*CONN
*I *830:B I *D NOR2D1
*I *829:Y O *D XOR3D2
*CAP
1 *830:B 7.92294e-05
2 *829:Y 7.92294e-05
*RES
1 *829:Y *830:B 24.173 
*END

*D_NET *225 0.000268145
*CONN
*I *836:A1 I *D OAI21D1
*I *837:A1 I *D AOI21D1
*I *835:Y O *D XNOR2D1
*CAP
1 *836:A1 2.59875e-05
2 *837:A1 0.000102709
3 *835:Y 5.37588e-06
4 *225:4 0.000134073
*RES
1 *835:Y *225:4 5.5 
2 *225:4 *837:A1 19.7741 
3 *225:4 *836:A1 6.18529 
*END

*D_NET *226 0.000251864
*CONN
*I *837:B0 I *D AOI21D1
*I *836:Y O *D OAI21D1
*CAP
1 *837:B0 0.000125932
2 *836:Y 0.000125932
*RES
1 *836:Y *837:B0 26.018 
*END

*D_NET *227 0.000207014
*CONN
*I *840:A1 I *D AOI21D1
*I *839:A1 I *D OAI21D1
*I *838:Y O *D XNOR2D1
*CAP
1 *840:A1 6.54492e-05
2 *839:A1 5.37588e-06
3 *838:Y 3.26819e-05
4 *227:8 0.000103507
*RES
1 *838:Y *227:8 6.40786 
2 *227:8 *839:A1 5.5 
3 *227:8 *840:A1 7.49729 
*END

*D_NET *228 0.000156448
*CONN
*I *840:B0 I *D AOI21D1
*I *839:Y O *D OAI21D1
*CAP
1 *840:B0 7.82241e-05
2 *839:Y 7.82241e-05
*RES
1 *839:Y *840:B0 13.2433 
*END

*D_NET *229 0.000317647
*CONN
*I *843:A1 I *D AOI21D1
*I *842:A1 I *D OAI21D1
*I *841:Y O *D XNOR2D1
*CAP
1 *843:A1 5.15319e-05
2 *842:A1 0.000101916
3 *841:Y 5.37588e-06
4 *229:4 0.000158824
*RES
1 *841:Y *229:4 5.5 
2 *229:4 *842:A1 8.70971 
3 *229:4 *843:A1 7.03457 
*END

*D_NET *230 0.000190889
*CONN
*I *843:B0 I *D AOI21D1
*I *842:Y O *D OAI21D1
*CAP
1 *843:B0 9.54445e-05
2 *842:Y 9.54445e-05
*RES
1 *842:Y *843:B0 13.8158 
*END

*D_NET *231 0.000259627
*CONN
*I *845:A1 I *D OAI21D1
*I *846:A1 I *D AOI21D1
*I *844:Y O *D XNOR2D1
*CAP
1 *845:A1 5.37588e-06
2 *846:A1 4.89469e-05
3 *844:Y 7.54907e-05
4 *231:10 0.000129814
*RES
1 *844:Y *231:10 7.83114 
2 *231:10 *846:A1 17.7944 
3 *231:10 *845:A1 5.5 
*END

*D_NET *232 0.000100779
*CONN
*I *846:B0 I *D AOI21D1
*I *845:Y O *D OAI21D1
*CAP
1 *846:B0 5.03896e-05
2 *845:Y 5.03896e-05
*RES
1 *845:Y *846:B0 12.3179 
*END

*D_NET *233 0.000836551
*CONN
*I *849:A1 I *D AOI21D1
*I *848:A1 I *D OAI21D1
*I *847:Y O *D XNOR2D1
*CAP
1 *849:A1 1.27749e-05
2 *848:A1 4.49779e-05
3 *847:Y 0.000360523
4 *233:14 0.000418276
*RES
1 *847:Y *233:14 27.5201 
2 *233:14 *848:A1 17.6304 
3 *233:14 *849:A1 5.746 
*END

*D_NET *234 0.000100779
*CONN
*I *849:B0 I *D AOI21D1
*I *848:Y O *D OAI21D1
*CAP
1 *849:B0 5.03896e-05
2 *848:Y 5.03896e-05
*RES
1 *848:Y *849:B0 12.3179 
*END

*D_NET *235 0.000377368
*CONN
*I *828:A I *D NOR2D1
*I *829:A I *D XOR3D2
*I *827:A I *D NAND2D1
*I *882:Q O *D DFFHQD1
*CAP
1 *828:A 3.25058e-05
2 *829:A 5.15319e-05
3 *827:A 5.22366e-05
4 *882:Q 5.37588e-06
5 *235:23 0.000131072
6 *235:4 0.000104647
*RES
1 *882:Q *235:4 5.5 
2 *235:4 *827:A 7.058 
3 *235:4 *235:23 12.3999 
4 *235:23 *829:A 7.03457 
5 *235:23 *828:A 6.402 
*END

*D_NET *236 0.000346368
*CONN
*I *733:A I *D XOR3D2
*I *732:A I *D NOR2D1
*I *731:A I *D NAND2D1
*I *892:Q O *D DFFHQD1
*CAP
1 *733:A 2.52829e-05
2 *732:A 6.47445e-05
3 *731:A 5.22366e-05
4 *892:Q 1.36558e-05
5 *236:15 0.000107292
6 *236:6 8.31568e-05
*RES
1 *892:Q *236:6 5.77529 
2 *236:6 *731:A 7.058 
3 *236:6 *236:15 0.574 
4 *236:15 *732:A 7.47386 
5 *236:15 *733:A 6.16186 
*END

*D_NET *237 0.000338027
*CONN
*I *727:A I *D NOR2D1
*I *726:A I *D NAND2D1
*I *728:A I *D XOR3D2
*I *893:Q O *D DFFHQD1
*CAP
1 *727:A 2.48424e-05
2 *726:A 5.35578e-05
3 *728:A 4.15478e-05
4 *893:Q 1.27749e-05
5 *237:21 0.000114691
6 *237:6 9.06134e-05
*RES
1 *893:Q *237:6 5.746 
2 *237:6 *728:A 17.5484 
3 *237:6 *237:21 1.20657 
4 *237:21 *726:A 7.10193 
5 *237:21 *727:A 6.14721 
*END

*D_NET *238 0.000563784
*CONN
*I *721:A I *D NAND2D1
*I *722:A I *D NOR2D1
*I *723:A I *D XOR3D2
*I *894:Q O *D DFFHQD1
*CAP
1 *721:A 7.8626e-05
2 *722:A 5.37588e-06
3 *723:A 7.61954e-05
4 *894:Q 0.000114295
5 *238:25 9.1401e-05
6 *238:10 0.000197889
*RES
1 *894:Q *238:10 20.4477 
2 *238:10 *723:A 7.85457 
3 *238:10 *238:25 0.246 
4 *238:25 *722:A 5.5 
5 *238:25 *721:A 18.7491 
*END

*D_NET *239 0.000437271
*CONN
*I *717:A I *D NOR2D1
*I *716:A I *D NAND2D1
*I *718:A I *D XOR3D2
*I *895:Q O *D DFFHQD1
*CAP
1 *717:A 8.37706e-05
2 *716:A 5.37588e-06
3 *718:A 5.73454e-05
4 *895:Q 5.37588e-06
5 *239:8 0.000129489
6 *239:4 0.000155914
*RES
1 *895:Q *239:4 5.5 
2 *239:4 *239:8 2.21986 
3 *239:8 *718:A 7.22786 
4 *239:8 *716:A 5.5 
5 *239:4 *717:A 8.10643 
*END

*D_NET *240 0.000404826
*CONN
*I *712:A I *D NOR2D1
*I *711:A I *D NAND2D1
*I *713:A I *D XOR3D2
*I *896:Q O *D DFFHQD1
*CAP
1 *712:A 6.34963e-05
2 *711:A 7.86618e-05
3 *713:A 5.37588e-06
4 *896:Q 4.748e-05
5 *240:15 0.000149557
6 *240:8 6.0255e-05
*RES
1 *896:Q *240:8 6.89986 
2 *240:8 *713:A 5.5 
3 *240:8 *240:15 0.246 
4 *240:15 *711:A 7.93657 
5 *240:15 *712:A 18.3743 
*END

*D_NET *241 0.000556014
*CONN
*I *706:A I *D NAND2D1
*I *707:A I *D NOR2D1
*I *708:A I *D XOR3D2
*I *897:Q O *D DFFHQD1
*CAP
1 *706:A 6.87964e-05
2 *707:A 5.37588e-06
3 *708:A 8.2139e-05
4 *897:Q 0.000109362
5 *241:25 8.6504e-05
6 *241:8 0.000203833
*RES
1 *897:Q *241:8 14.9477 
2 *241:8 *708:A 13.4659 
3 *241:8 *241:25 5.746 
4 *241:25 *707:A 5.5 
5 *241:25 *706:A 7.60857 
*END

*D_NET *242 0.000338442
*CONN
*I *702:A I *D NOR2D1
*I *701:A I *D NAND2D1
*I *703:A I *D XOR3D2
*I *898:Q O *D DFFHQD1
*CAP
1 *702:A 5.37588e-06
2 *701:A 7.80458e-05
3 *703:A 5.37588e-06
4 *898:Q 2.68684e-05
5 *242:19 0.000136977
6 *242:8 8.57993e-05
*RES
1 *898:Q *242:8 6.21457 
2 *242:8 *703:A 5.5 
3 *242:8 *242:19 1.78057 
4 *242:19 *701:A 18.9541 
5 *242:19 *702:A 5.5 
*END

*D_NET *243 0.000303383
*CONN
*I *697:A I *D NOR2D1
*I *698:A I *D XOR3D2
*I *696:A I *D NAND2D1
*I *899:Q O *D DFFHQD1
*CAP
1 *697:A 8.2009e-05
2 *698:A 5.37588e-06
3 *696:A 3.74385e-05
4 *899:Q 2.68684e-05
5 *243:8 0.000151692
*RES
1 *899:Q *243:8 6.21457 
2 *243:8 *696:A 6.566 
3 *243:8 *698:A 5.5 
4 *243:8 *697:A 8.04786 
*END

*D_NET *244 0.00063226
*CONN
*I *692:A I *D NOR2D1
*I *691:A I *D NAND2D1
*I *693:A I *D XOR3D2
*I *900:Q O *D DFFHQD1
*CAP
1 *692:A 7.58497e-05
2 *691:A 2.26403e-05
3 *693:A 9.65226e-05
4 *900:Q 0.000109362
5 *244:10 0.00013092
6 *244:8 0.000196969
*RES
1 *900:Q *244:8 14.9477 
2 *244:8 *244:10 0.468571 
3 *244:10 *693:A 14.1043 
4 *244:10 *691:A 11.41 
5 *244:8 *692:A 13.2199 
*END

*D_NET *245 0.000590964
*CONN
*I *687:A I *D NOR2D1
*I *688:A I *D XOR3D2
*I *686:A I *D NAND2D1
*I *901:Q O *D DFFHQD1
*CAP
1 *687:A 9.02889e-05
2 *688:A 5.37588e-06
3 *686:A 3.26819e-05
4 *901:Q 0.000158855
5 *245:16 4.63377e-05
6 *245:14 0.000257424
*RES
1 *901:Q *245:14 21.8651 
2 *245:14 *245:16 0.275286 
3 *245:16 *686:A 6.40786 
4 *245:16 *688:A 5.5 
5 *245:14 *687:A 8.32314 
*END

*D_NET *246 0.000339768
*CONN
*I *776:A I *D NAND2D1
*I *777:A I *D NOR2D1
*I *778:A I *D XOR3D2
*I *883:Q O *D DFFHQD1
*CAP
1 *776:A 5.37588e-06
2 *777:A 8.20561e-05
3 *778:A 5.37588e-06
4 *883:Q 3.25058e-05
5 *246:16 0.000132002
6 *246:6 8.24521e-05
*RES
1 *883:Q *246:6 6.402 
2 *246:6 *246:16 1.48186 
3 *246:16 *778:A 5.5 
4 *246:16 *777:A 18.8311 
5 *246:6 *776:A 5.5 
*END

*D_NET *247 0.000409283
*CONN
*I *683:A I *D XOR3D2
*I *682:A I *D NOR2D1
*I *681:A I *D NAND2D1
*I *902:Q O *D DFFHQD1
*CAP
1 *683:A 3.43146e-05
2 *682:A 6.05165e-05
3 *681:A 6.5714e-05
4 *902:Q 2.26403e-05
5 *247:10 0.000147687
6 *247:8 7.84117e-05
*RES
1 *902:Q *247:8 11.41 
2 *247:8 *247:10 0.855143 
3 *247:10 *681:A 13.2081 
4 *247:10 *682:A 12.6693 
5 *247:8 *683:A 11.9079 
*END

*D_NET *248 0.000719845
*CONN
*I *678:A I *D XOR3D2
*I *676:A I *D NAND2D1
*I *677:A I *D NOR2D1
*I *903:Q O *D DFFHQD1
*CAP
1 *678:A 7.10612e-05
2 *676:A 1.77076e-05
3 *677:A 1.36558e-05
4 *903:Q 0.000111155
5 *248:31 0.00023511
6 *248:14 0.000271152
*RES
1 *903:Q *248:14 19.9909 
2 *248:14 *677:A 5.77529 
3 *248:14 *248:31 15.2469 
4 *248:31 *676:A 5.91 
5 *248:31 *678:A 18.5617 
*END

*D_NET *249 0.000418551
*CONN
*I *671:A I *D NAND2D1
*I *673:A I *D XOR3D2
*I *672:A I *D NOR2D1
*I *904:Q O *D DFFHQD1
*CAP
1 *671:A 4.90298e-05
2 *673:A 2.7573e-05
3 *672:A 7.37762e-05
4 *904:Q 5.37588e-06
5 *249:23 0.000130122
6 *249:4 0.000132671
*RES
1 *904:Q *249:4 5.5 
2 *249:4 *672:A 18.5559 
3 *249:4 *249:23 7.25714 
4 *249:23 *673:A 11.574 
5 *249:23 *671:A 12.4291 
*END

*D_NET *250 0.000372994
*CONN
*I *667:A I *D NOR2D1
*I *668:A I *D XOR3D2
*I *666:A I *D NAND2D1
*I *905:Q O *D DFFHQD1
*CAP
1 *667:A 3.43146e-05
2 *668:A 4.23712e-05
3 *666:A 3.66151e-05
4 *905:Q 2.26403e-05
5 *250:10 0.000129542
6 *250:8 0.000107511
*RES
1 *905:Q *250:8 11.41 
2 *250:8 *250:10 2.01486 
3 *250:10 *666:A 12.0484 
4 *250:10 *668:A 12.066 
5 *250:8 *667:A 11.9079 
*END

*D_NET *251 0.000244989
*CONN
*I *663:A I *D XOR3D2
*I *662:A I *D NOR2D1
*I *661:A I *D NAND2D1
*I *906:Q O *D DFFHQD1
*CAP
1 *663:A 3.22443e-05
2 *662:A 2.4358e-05
3 *661:A 1.36558e-05
4 *906:Q 8.44808e-05
5 *251:6 9.02503e-05
*RES
1 *906:Q *251:6 7.058 
2 *251:6 *661:A 5.77529 
3 *251:6 *662:A 6.13111 
4 *906:Q *663:A 11.7146 
*END

*D_NET *252 0.00052372
*CONN
*I *657:A I *D NOR2D1
*I *658:A I *D XOR3D2
*I *656:A I *D NAND2D1
*I *907:Q O *D DFFHQD1
*CAP
1 *657:A 5.37588e-06
2 *658:A 8.82427e-05
3 *656:A 6.05165e-05
4 *907:Q 6.57969e-05
5 *252:21 0.000135547
6 *252:10 0.000168241
*RES
1 *907:Q *252:10 18.5149 
2 *252:10 *656:A 7.33329 
3 *252:10 *252:21 1.394 
4 *252:21 *658:A 19.165 
5 *252:21 *657:A 5.5 
*END

*D_NET *253 0.000727334
*CONN
*I *798:A I *D NOR2D1
*I *797:A I *D NAND2D1
*I *847:A I *D XNOR2D1
*I *908:Q O *D DFFHQD1
*CAP
1 *798:A 1.77076e-05
2 *797:A 5.37588e-06
3 *847:A 0.000132217
4 *908:Q 0.000168729
5 *253:18 0.000177231
6 *253:12 0.000226074
*RES
1 *908:Q *253:12 21.2703 
2 *253:12 *253:18 1.31786 
3 *253:18 *847:A 9.71714 
4 *253:18 *797:A 5.5 
5 *253:12 *798:A 5.91 
*END

*D_NET *254 0.000277405
*CONN
*I *793:A I *D NAND2D1
*I *794:A I *D NOR2D1
*I *844:A I *D XNOR2D1
*I *909:Q O *D DFFHQD1
*CAP
1 *793:A 5.37588e-06
2 *794:A 1.27749e-05
3 *844:A 4.18427e-05
4 *909:Q 5.22366e-05
5 *254:12 8.10899e-05
6 *254:6 8.40848e-05
*RES
1 *909:Q *254:6 7.058 
2 *254:6 *254:12 11.6619 
3 *254:12 *844:A 6.71243 
4 *254:12 *794:A 5.746 
5 *254:6 *793:A 5.5 
*END

*D_NET *255 0.000306929
*CONN
*I *789:A I *D NAND2D1
*I *841:A I *D XNOR2D1
*I *790:A I *D NOR2D1
*I *910:Q O *D DFFHQD1
*CAP
1 *789:A 6.96772e-05
2 *841:A 3.91644e-05
3 *790:A 1.03086e-05
4 *910:Q 1.27749e-05
5 *255:10 7.10126e-05
6 *255:6 0.000103992
*RES
1 *910:Q *255:6 5.746 
2 *255:6 *255:10 6.16186 
3 *255:10 *790:A 11 
4 *255:10 *841:A 12.1011 
5 *255:6 *789:A 7.63786 
*END

*D_NET *256 0.000232587
*CONN
*I *785:A I *D NAND2D1
*I *838:A I *D XNOR2D1
*I *786:A I *D NOR2D1
*I *911:Q O *D DFFHQD1
*CAP
1 *785:A 5.37588e-06
2 *838:A 3.91644e-05
3 *786:A 1.03086e-05
4 *911:Q 3.25058e-05
5 *256:12 7.84117e-05
6 *256:6 6.68203e-05
*RES
1 *911:Q *256:6 6.402 
2 *256:6 *256:12 6.40786 
3 *256:12 *786:A 11 
4 *256:12 *838:A 12.1011 
5 *256:6 *785:A 5.5 
*END

*D_NET *257 0.000480026
*CONN
*I *772:A I *D NOR2D1
*I *771:A I *D NAND2D1
*I *773:A I *D XOR3D2
*I *884:Q O *D DFFHQD1
*CAP
1 *772:A 1.77076e-05
2 *771:A 2.26403e-05
3 *773:A 7.36933e-05
4 *884:Q 0.000109362
5 *257:10 0.000112941
6 *257:8 0.000143677
*RES
1 *884:Q *257:8 14.9477 
2 *257:8 *257:10 0.661857 
3 *257:10 *773:A 13.2491 
4 *257:10 *771:A 11.41 
5 *257:8 *772:A 11.246 
*END

*D_NET *258 0.00062189
*CONN
*I *781:A I *D NAND2D1
*I *782:A I *D NOR2D1
*I *835:A I *D XNOR2D1
*I *912:Q O *D DFFHQD1
*CAP
1 *781:A 1.77076e-05
2 *782:A 5.37588e-06
3 *835:A 6.54492e-05
4 *912:Q 0.000185239
5 *258:16 0.000107996
6 *258:12 0.000240118
*RES
1 *912:Q *258:12 23.0307 
2 *258:12 *258:16 1.23586 
3 *258:16 *835:A 7.49729 
4 *258:16 *782:A 5.5 
5 *258:12 *781:A 5.91 
*END

*D_NET *259 0.000150993
*CONN
*I *823:C I *D AND3D1
*I *824:B0 I *D AOI21D1
*I *913:Q O *D DFFHQD1
*CAP
1 *823:C 3.76146e-05
2 *824:B0 3.25058e-05
3 *913:Q 5.37588e-06
4 *259:4 7.54963e-05
*RES
1 *913:Q *259:4 5.5 
2 *259:4 *824:B0 6.402 
3 *259:4 *823:C 6.57186 
*END

*D_NET *260 0.000398128
*CONN
*I *768:A I *D XOR3D2
*I *767:A I *D NOR2D1
*I *766:A I *D NAND2D1
*I *885:Q O *D DFFHQD1
*CAP
1 *768:A 8.28898e-05
2 *767:A 5.60973e-05
3 *766:A 4.73039e-05
4 *885:Q 5.37588e-06
5 *260:6 0.0001108
6 *260:4 9.56647e-05
*RES
1 *885:Q *260:4 5.5 
2 *260:4 *260:6 0.246 
3 *260:6 *766:A 6.894 
4 *260:6 *767:A 18.1283 
5 *260:4 *768:A 8.07714 
*END

*D_NET *261 0.00035359
*CONN
*I *761:A I *D NAND2D1
*I *762:A I *D NOR2D1
*I *763:A I *D XOR3D2
*I *886:Q O *D DFFHQD1
*CAP
1 *761:A 6.82633e-05
2 *762:A 4.73039e-05
3 *763:A 1.03086e-05
4 *886:Q 3.43146e-05
5 *261:19 0.000132174
6 *261:10 6.12301e-05
*RES
1 *886:Q *261:10 11.9079 
2 *261:10 *763:A 11 
3 *261:10 *261:19 0.661857 
4 *261:19 *762:A 12.23 
5 *261:19 *761:A 13.2609 
*END

*D_NET *262 0.000736097
*CONN
*I *756:A I *D NAND2D1
*I *757:A I *D NOR2D1
*I *758:A I *D XOR3D2
*I *887:Q O *D DFFHQD1
*CAP
1 *756:A 0.000111429
2 *757:A 5.55838e-05
3 *758:A 5.55838e-05
4 *887:Q 0.000109362
5 *262:12 0.000147257
6 *262:8 0.00025688
*RES
1 *887:Q *262:8 14.9477 
2 *262:8 *262:12 6.74171 
3 *262:12 *758:A 7.16929 
4 *262:12 *757:A 7.16929 
5 *262:8 *756:A 14.362 
*END

*D_NET *263 0.000279166
*CONN
*I *753:A I *D XOR3D2
*I *752:A I *D NOR2D1
*I *751:A I *D NAND2D1
*I *888:Q O *D DFFHQD1
*CAP
1 *753:A 3.18482e-05
2 *752:A 1.77076e-05
3 *751:A 5.48791e-05
4 *888:Q 1.36558e-05
5 *263:21 7.10484e-05
6 *263:6 9.00274e-05
*RES
1 *888:Q *263:6 5.77529 
2 *263:6 *751:A 7.14586 
3 *263:6 *263:21 0.714571 
4 *263:21 *752:A 5.91 
5 *263:21 *753:A 17.1619 
*END

*D_NET *264 0.000566128
*CONN
*I *747:A I *D NOR2D1
*I *746:A I *D NAND2D1
*I *748:A I *D XOR3D2
*I *889:Q O *D DFFHQD1
*CAP
1 *747:A 5.22366e-05
2 *746:A 4.57184e-05
3 *748:A 5.37588e-06
4 *889:Q 0.000145943
5 *264:16 8.48827e-05
6 *264:10 0.000231968
*RES
1 *889:Q *264:10 16.3241 
2 *264:10 *264:16 6.60114 
3 *264:16 *748:A 5.5 
4 *264:16 *746:A 6.84129 
5 *264:10 *747:A 12.394 
*END

*D_NET *265 0.000405667
*CONN
*I *742:A I *D NOR2D1
*I *743:A I *D XOR3D2
*I *741:A I *D NAND2D1
*I *890:Q O *D DFFHQD1
*CAP
1 *742:A 1.03086e-05
2 *743:A 4.57184e-05
3 *741:A 5.37588e-06
4 *890:Q 8.82427e-05
5 *265:16 0.000104282
6 *265:10 0.000151739
*RES
1 *890:Q *265:10 13.829 
2 *265:10 *265:16 7.37429 
3 *265:16 *741:A 5.5 
4 *265:16 *743:A 6.84129 
5 *265:10 *742:A 11 
*END

*D_NET *266 0.000529416
*CONN
*I *736:A I *D NAND2D1
*I *738:A I *D XOR3D2
*I *737:A I *D NOR2D1
*I *891:Q O *D DFFHQD1
*CAP
1 *736:A 1.77076e-05
2 *738:A 7.61954e-05
3 *737:A 5.37588e-06
4 *891:Q 0.000131559
5 *266:16 0.000115443
6 *266:10 0.000183139
*RES
1 *891:Q *266:10 15.6857 
2 *266:10 *266:16 6.57186 
3 *266:16 *737:A 5.5 
4 *266:16 *738:A 7.85457 
5 *266:10 *736:A 11.246 
*END

*D_NET *1 0.00191261
*CONN
*P clk I
*I *914:A I *D CLKBUFD8
*CAP
1 clk 0.000926751
2 *914:A 2.95549e-05
3 *1:22 0.000956306
*RES
1 clk *1:22 42.7794 
2 *1:22 *914:A 6.30389 
*END

*D_NET *267 0.00450722
*CONN
*I *922:A I *D CLKBUFD8
*I *921:A I *D CLKBUFD8
*I *918:A I *D CLKBUFD8
*I *917:A I *D CLKBUFD8
*I *919:A I *D CLKBUFD8
*I *920:A I *D CLKBUFD8
*I *915:A I *D CLKBUFD8
*I *916:A I *D CLKBUFD8
*I *914:Y O *D CLKBUFD8
*CAP
1 *922:A 2.7573e-05
2 *921:A 2.70005e-05
3 *918:A 2.26403e-05
4 *917:A 2.26403e-05
5 *919:A 5.37588e-06
6 *920:A 2.75731e-05
7 *915:A 2.75731e-05
8 *916:A 4.16665e-05
9 *914:Y 1.94693e-05
10 *267:166 0.000251252
11 *267:150 3.49721e-05
12 *267:146 0.000402203
13 *267:119 0.000286588
14 *267:117 0.000341038
15 *267:115 0.000438663
16 *267:100 0.000247705
17 *267:84 0.000325576
18 *267:71 0.000302936
19 *267:69 2.99073e-05
20 *267:65 0.000172547
21 *267:49 0.000309199
22 *267:29 8.44753e-05
23 *267:23 0.000382721
24 *267:17 0.000409247
25 *267:8 0.000205588
26 *267:6 6.1089e-05
*RES
1 *914:Y *267:6 5.96857 
2 *267:6 *267:8 0.251857 
3 *267:8 *267:17 11.9194 
4 *267:17 *267:23 7.47971 
5 *267:23 *267:29 1.42329 
6 *267:29 *916:A 6.70657 
7 *267:23 *267:49 21.619 
8 *267:49 *915:A 6.238 
9 *267:17 *267:65 11.2678 
10 *267:65 *267:69 0.651607 
11 *267:69 *267:71 5.5 
12 *267:71 *267:84 16.9683 
13 *267:84 *920:A 6.238 
14 *267:69 *919:A 5.5 
15 *267:6 *267:100 1.13189 
16 *267:100 *267:115 23.4422 
17 *267:115 *267:117 2.17007 
18 *267:117 *267:119 10.5194 
19 *267:119 *917:A 11.41 
20 *267:117 *918:A 11.41 
21 *267:115 *267:146 6.79721 
22 *267:146 *267:150 5.60104 
23 *267:150 *921:A 6.21896 
24 *267:146 *267:166 8.91457 
25 *267:166 *922:A 11.574 
*END

*D_NET *268 0.00177587
*CONN
*I *893:CK I *D DFFHQD1
*I *862:CK I *D DFFHQD1
*I *863:CK I *D DFFHQD1
*I *864:CK I *D DFFHQD1
*I *923:A I *D CLKINVD1
*I *896:CK I *D DFFHQD1
*I *865:CK I *D DFFHQD1
*I *866:CK I *D DFFHQD1
*I *895:CK I *D DFFHQD1
*I *915:Y O *D CLKBUFD8
*CAP
1 *893:CK 8.67655e-05
2 *862:CK 1.36558e-05
3 *863:CK 0.000141025
4 *864:CK 2.26403e-05
5 *923:A 2.26403e-05
6 *896:CK 1.36558e-05
7 *865:CK 5.37588e-06
8 *866:CK 0.000136907
9 *895:CK 7.03819e-05
10 *915:Y 3.74385e-05
11 *268:80 0.000167013
12 *268:78 0.000154586
13 *268:31 0.000286212
14 *268:27 0.00019458
15 *268:16 0.000153166
16 *268:12 8.98858e-05
17 *268:10 6.55538e-05
18 *268:8 0.000114384
*RES
1 *915:Y *268:8 11.902 
2 *268:8 *268:10 0.855143 
3 *268:10 *268:12 0.855143 
4 *268:12 *268:16 7.12829 
5 *268:16 *895:CK 7.66129 
6 *268:16 *268:27 1.23 
7 *268:27 *268:31 4.78529 
8 *268:31 *866:CK 21.0393 
9 *268:31 *865:CK 5.5 
10 *268:27 *896:CK 5.77529 
11 *268:12 *923:A 11.41 
12 *268:10 *864:CK 11.41 
13 *268:8 *268:78 7.51486 
14 *268:78 *268:80 0.41 
15 *268:80 *863:CK 10.01 
16 *268:80 *862:CK 5.77529 
17 *268:78 *893:CK 8.206 
*END

*D_NET *269 0.0021739
*CONN
*I *861:CK I *D DFFHQD1
*I *892:CK I *D DFFHQD1
*I *897:CK I *D DFFHQD1
*I *913:CK I *D DFFHQD1
*I *924:A I *D CLKINVD1
*I *879:CK I *D DFFHQD1
*I *894:CK I *D DFFHQD1
*I *910:CK I *D DFFHQD1
*I *911:CK I *D DFFHQD1
*I *916:Y O *D CLKBUFD8
*CAP
1 *861:CK 1.77076e-05
2 *892:CK 5.37588e-06
3 *897:CK 9.0046e-05
4 *913:CK 8.03463e-05
5 *924:A 5.37588e-06
6 *879:CK 0.000122357
7 *894:CK 0.000166576
8 *910:CK 3.74385e-05
9 *911:CK 0.000107723
10 *916:Y 1.94693e-05
11 *269:94 0.000212983
12 *269:88 0.000203752
13 *269:71 0.00019569
14 *269:33 0.000319933
15 *269:29 0.000259071
16 *269:16 0.000179338
17 *269:8 7.02886e-05
18 *269:6 8.04235e-05
*RES
1 *916:Y *269:6 5.96857 
2 *269:6 *269:8 0.468571 
3 *269:8 *269:16 7.08436 
4 *269:16 *911:CK 14.8335 
5 *269:16 *269:29 0.828786 
6 *269:29 *269:33 9.19 
7 *269:33 *910:CK 6.566 
8 *269:33 *894:CK 21.1776 
9 *269:29 *879:CK 15.1234 
10 *269:8 *924:A 5.5 
11 *269:6 *269:71 1.558 
12 *269:71 *913:CK 19.0947 
13 *269:71 *269:88 7.69057 
14 *269:88 *269:94 9.41843 
15 *269:94 *897:CK 19.4813 
16 *269:94 *892:CK 5.5 
17 *269:88 *861:CK 11.246 
*END

*D_NET *270 0.00209496
*CONN
*I *851:CK I *D DFFHQD1
*I *883:CK I *D DFFHQD1
*I *852:CK I *D DFFHQD1
*I *853:CK I *D DFFHQD1
*I *854:CK I *D DFFHQD1
*I *867:CK I *D DFFHQD1
*I *899:CK I *D DFFHQD1
*I *885:CK I *D DFFHQD1
*I *898:CK I *D DFFHQD1
*I *917:Y O *D CLKBUFD8
*CAP
1 *851:CK 0.000123912
2 *883:CK 2.69155e-05
3 *852:CK 2.59875e-05
4 *853:CK 2.59875e-05
5 *854:CK 5.37588e-06
6 *867:CK 5.37588e-06
7 *899:CK 9.0046e-05
8 *885:CK 5.37588e-06
9 *898:CK 0.000157585
10 *917:Y 5.37588e-06
11 *270:89 0.00023715
12 *270:76 0.00016745
13 *270:63 0.00015688
14 *270:38 0.000239351
15 *270:34 0.000233892
16 *270:14 0.000245911
17 *270:8 0.000214398
18 *270:4 0.000127989
*RES
1 *917:Y *270:4 5.5 
2 *270:4 *270:8 6.894 
3 *270:8 *270:14 8.29971 
4 *270:14 *898:CK 10.5606 
5 *270:14 *885:CK 5.5 
6 *270:8 *270:34 8.67457 
7 *270:34 *270:38 4.78529 
8 *270:38 *899:CK 19.4813 
9 *270:38 *867:CK 5.5 
10 *270:34 *854:CK 5.5 
11 *270:4 *270:63 2.51857 
12 *270:63 *853:CK 6.18529 
13 *270:63 *270:76 1.83329 
14 *270:76 *852:CK 6.18529 
15 *270:76 *270:89 8.206 
16 *270:89 *883:CK 11.6619 
17 *270:89 *851:CK 15.5276 
*END

*D_NET *271 0.00207911
*CONN
*I *850:CK I *D DFFHQD1
*I *882:CK I *D DFFHQD1
*I *925:A I *D CLKINVD1
*I *888:CK I *D DFFHQD1
*I *855:CK I *D DFFHQD1
*I *857:CK I *D DFFHQD1
*I *868:CK I *D DFFHQD1
*I *884:CK I *D DFFHQD1
*I *886:CK I *D DFFHQD1
*I *918:Y O *D CLKBUFD8
*CAP
1 *850:CK 5.45947e-05
2 *882:CK 0.000119062
3 *925:A 4.418e-05
4 *888:CK 6.57969e-05
5 *855:CK 2.69155e-05
6 *857:CK 5.37588e-06
7 *868:CK 0.000127284
8 *884:CK 0.000107377
9 *886:CK 5.37588e-06
10 *918:Y 5.37588e-06
11 *271:99 0.000259979
12 *271:82 0.000187228
13 *271:69 0.000169384
14 *271:40 0.000184453
15 *271:36 0.000114715
16 *271:18 0.000261467
17 *271:8 0.000236514
18 *271:4 0.00010403
*RES
1 *918:Y *271:4 5.5 
2 *271:4 *271:8 7.058 
3 *271:8 *271:18 11.1814 
4 *271:18 *886:CK 5.5 
5 *271:18 *884:CK 8.89129 
6 *271:8 *271:36 1.435 
7 *271:36 *271:40 7.058 
8 *271:40 *868:CK 9.55314 
9 *271:40 *857:CK 5.5 
10 *271:36 *855:CK 11.6619 
11 *271:4 *271:69 1.558 
12 *271:69 *888:CK 18.5149 
13 *271:69 *271:82 1.886 
14 *271:82 *925:A 17.5719 
15 *271:82 *271:99 8.206 
16 *271:99 *882:CK 15.3343 
17 *271:99 *850:CK 12.7103 
*END

*D_NET *272 0.00146274
*CONN
*I *859:CK I *D DFFHQD1
*I *860:CK I *D DFFHQD1
*I *890:CK I *D DFFHQD1
*I *926:A I *D CLKINVD16
*I *881:CK I *D DFFHQD1
*I *909:CK I *D DFFHQD1
*I *878:CK I *D DFFHQD1
*I *880:CK I *D DFFHQD1
*I *919:Y O *D CLKBUFD8
*CAP
1 *859:CK 9.32225e-05
2 *860:CK 2.84586e-05
3 *890:CK 7.68248e-05
4 *926:A 5.37588e-06
5 *881:CK 5.37588e-06
6 *909:CK 6.5714e-05
7 *878:CK 3.17653e-05
8 *880:CK 3.18011e-05
9 *919:Y 0.000114339
10 *272:83 0.000165697
11 *272:66 0.000192808
12 *272:29 0.000183802
13 *272:16 0.000183129
14 *272:12 0.000153533
15 *272:6 0.000130898
*RES
1 *919:Y *272:6 6.73 
2 *272:6 *272:12 2.76457 
3 *272:12 *272:16 2.16129 
4 *272:16 *880:CK 6.37857 
5 *272:16 *272:29 8.206 
6 *272:29 *878:CK 11.8551 
7 *272:29 *909:CK 13.2081 
8 *272:12 *881:CK 5.5 
9 *272:6 *926:A 5.5 
10 *919:Y *272:66 13.05 
11 *272:66 *890:CK 13.4717 
12 *272:66 *272:83 1.75421 
13 *272:83 *860:CK 11.7234 
14 *272:83 *859:CK 13.8319 
*END

*D_NET *273 0.0019144
*CONN
*I *927:A I *D CLKINVD1
*I *891:CK I *D DFFHQD1
*I *875:CK I *D DFFHQD1
*I *906:CK I *D DFFHQD1
*I *912:CK I *D DFFHQD1
*I *876:CK I *D DFFHQD1
*I *907:CK I *D DFFHQD1
*I *908:CK I *D DFFHQD1
*I *877:CK I *D DFFHQD1
*I *920:Y O *D CLKBUFD8
*CAP
1 *927:A 5.37588e-06
2 *891:CK 5.37588e-06
3 *875:CK 7.54136e-05
4 *906:CK 0.000101564
5 *912:CK 3.43975e-05
6 *876:CK 6.29828e-05
7 *907:CK 6.57969e-05
8 *908:CK 6.5714e-05
9 *877:CK 6.5714e-05
10 *920:Y 1.36558e-05
11 *273:89 0.000237315
12 *273:85 0.000107642
13 *273:70 0.000149741
14 *273:53 0.000212111
15 *273:45 0.000113327
16 *273:12 0.00027201
17 *273:8 0.000243374
18 *273:6 8.28898e-05
*RES
1 *920:Y *273:6 5.77529 
2 *273:6 *273:8 1.23 
3 *273:8 *273:12 10.01 
4 *273:12 *877:CK 13.2081 
5 *273:12 *908:CK 13.2081 
6 *273:8 *907:CK 18.5149 
7 *273:6 *273:45 1.07186 
8 *273:45 *273:53 13.0044 
9 *273:53 *876:CK 7.41529 
10 *273:53 *273:70 7.85457 
11 *273:70 *912:CK 11.8786 
12 *273:70 *273:85 6.73 
13 *273:85 *273:89 7.70814 
14 *273:89 *906:CK 14.034 
15 *273:89 *875:CK 13.5947 
16 *273:85 *891:CK 5.5 
17 *273:45 *927:A 5.5 
*END

*D_NET *274 0.00194587
*CONN
*I *928:A I *D CLKINVD16
*I *871:CK I *D DFFHQD1
*I *870:CK I *D DFFHQD1
*I *887:CK I *D DFFHQD1
*I *889:CK I *D DFFHQD1
*I *902:CK I *D DFFHQD1
*I *856:CK I *D DFFHQD1
*I *858:CK I *D DFFHQD1
*I *921:Y O *D CLKBUFD8
*CAP
1 *928:A 5.71693e-05
2 *871:CK 0.000198855
3 *870:CK 1.03086e-05
4 *887:CK 5.37588e-06
5 *889:CK 0.000107377
6 *902:CK 0.000150891
7 *856:CK 1.27749e-05
8 *858:CK 0.000180487
9 *921:Y 5.37588e-06
10 *274:67 0.000296964
11 *274:56 0.000136664
12 *274:37 0.000172322
13 *274:12 0.000209952
14 *274:8 0.000237535
15 *274:6 9.63443e-05
16 *274:4 6.74779e-05
*RES
1 *921:Y *274:4 5.5 
2 *274:4 *274:6 5.5 
3 *274:6 *274:8 2.788 
4 *274:8 *274:12 5.96857 
5 *274:12 *858:CK 11.322 
6 *274:12 *856:CK 5.746 
7 *274:8 *902:CK 15.674 
8 *274:6 *274:37 0.855143 
9 *274:37 *889:CK 14.2273 
10 *274:37 *274:56 6.98771 
11 *274:56 *887:CK 5.5 
12 *274:56 *274:67 8.493 
13 *274:67 *870:CK 11 
14 *274:67 *871:CK 17.3784 
15 *274:4 *928:A 7.222 
*END

*D_NET *275 0.00232838
*CONN
*I *903:CK I *D DFFHQD1
*I *872:CK I *D DFFHQD1
*I *873:CK I *D DFFHQD1
*I *905:CK I *D DFFHQD1
*I *874:CK I *D DFFHQD1
*I *901:CK I *D DFFHQD1
*I *904:CK I *D DFFHQD1
*I *869:CK I *D DFFHQD1
*I *900:CK I *D DFFHQD1
*I *922:Y O *D CLKBUFD8
*CAP
1 *903:CK 0.000155295
2 *872:CK 5.37588e-06
3 *873:CK 5.37588e-06
4 *905:CK 5.37588e-06
5 *874:CK 5.37588e-06
6 *901:CK 1.36558e-05
7 *904:CK 0.000104911
8 *869:CK 5.37588e-06
9 *900:CK 7.54136e-05
10 *922:Y 2.26403e-05
11 *275:89 0.00029632
12 *275:82 0.000201451
13 *275:52 0.000276589
14 *275:41 0.000225938
15 *275:24 0.00022739
16 *275:20 0.000208441
17 *275:14 0.000264695
18 *275:6 0.000228757
*RES
1 *922:Y *275:6 6.074 
2 *275:6 *275:14 4.84386 
3 *275:14 *275:20 3.77786 
4 *275:20 *275:24 8.86786 
5 *275:24 *900:CK 13.5947 
6 *275:24 *275:41 7.41529 
7 *275:41 *869:CK 5.5 
8 *275:41 *275:52 5.25386 
9 *275:52 *904:CK 8.80929 
10 *275:52 *901:CK 5.77529 
11 *275:20 *874:CK 5.5 
12 *275:14 *905:CK 5.5 
13 *275:6 *275:82 2.009 
14 *275:82 *873:CK 5.5 
15 *275:82 *275:89 4.51 
16 *275:89 *872:CK 5.5 
17 *275:89 *903:CK 10.4844 
*END

*D_NET *2 0.000999593
*CONN
*P p O
*I *850:Q O *D DFFHQD1
*CAP
1 p 0.000499795
2 *850:Q 0.000499795
*RES
1 *850:Q p 32.1083 
*END

*D_NET *3 0.0217646
*CONN
*P rst I
*I *805:C0 I *D AOI211D1
*I *754:A I *D NOR2D1
*I *749:A I *D NOR2D1
*I *694:A I *D NOR2D1
*I *821:C0 I *D AOI211D1
*I *808:C0 I *D AOI211D1
*I *818:C0 I *D AOI211D1
*I *802:C0 I *D AOI211D1
*I *801:C0 I *D AOI211D1
*I *659:A I *D NOR2D1
*I *664:A I *D NOR2D1
*I *804:C0 I *D AOI211D1
*I *674:A I *D NOR2D1
*I *669:A I *D NOR2D1
*I *803:C0 I *D AOI211D1
*I *806:C0 I *D AOI211D1
*I *684:A I *D NOR2D1
*I *679:A I *D NOR2D1
*I *820:C0 I *D AOI211D1
*I *689:A I *D NOR2D1
*I *807:C0 I *D AOI211D1
*I *744:A I *D NOR2D1
*I *817:C0 I *D AOI211D1
*I *825:A I *D NOR3D1
*I *739:A I *D NOR2D1
*I *816:C0 I *D AOI211D1
*I *783:C0 I *D AOI211D1
*I *795:C0 I *D AOI211D1
*I *654:A I *D INVD1
*I *800:C0 I *D AOI211D1
*I *799:C0 I *D AOI211D1
*I *734:A I *D NOR2D1
*I *815:C0 I *D AOI211D1
*I *729:A I *D NOR2D1
*I *787:C0 I *D AOI211D1
*I *814:C0 I *D AOI211D1
*I *791:C0 I *D AOI211D1
*I *813:C0 I *D AOI211D1
*I *719:A I *D NOR2D1
*I *724:A I *D NOR2D1
*I *714:A I *D NOR2D1
*I *812:C0 I *D AOI211D1
*I *810:C0 I *D AOI211D1
*I *819:C0 I *D AOI211D1
*I *759:A I *D NOR2D1
*I *830:A I *D NOR2D1
*I *834:C0 I *D AOI211D1
*I *832:C0 I *D AOI211D1
*I *833:C0 I *D AOI211D1
*I *779:A I *D NOR2D1
*I *764:A I *D NOR2D1
*I *699:A I *D NOR2D1
*I *822:C0 I *D AOI211D1
*I *809:C0 I *D AOI211D1
*I *704:A I *D NOR2D1
*I *709:A I *D NOR2D1
*I *811:C0 I *D AOI211D1
*I *774:A I *D NOR2D1
*I *769:A I *D NOR2D1
*CAP
1 rst 0.000397922
2 *805:C0 1.27335e-05
3 *754:A 5.37588e-06
4 *749:A 3.00394e-05
5 *694:A 5.37588e-06
6 *821:C0 0.000155823
7 *808:C0 2.20657e-05
8 *818:C0 3.25058e-05
9 *802:C0 5.37588e-06
10 *801:C0 8.77454e-05
11 *659:A 9.66309e-05
12 *664:A 1.36558e-05
13 *804:C0 0.000101564
14 *674:A 5.37588e-06
15 *669:A 0.000166746
16 *803:C0 3.18482e-05
17 *806:C0 1.23345e-05
18 *684:A 5.37588e-06
19 *679:A 0.000122357
20 *820:C0 2.69155e-05
21 *689:A 2.7573e-05
22 *807:C0 7.69001e-05
23 *744:A 1.27749e-05
24 *817:C0 5.37588e-06
25 *825:A 5.37588e-06
26 *739:A 1.27749e-05
27 *816:C0 1.77076e-05
28 *783:C0 2.26403e-05
29 *795:C0 0.000272644
30 *654:A 5.37588e-06
31 *800:C0 1.77076e-05
32 *799:C0 0.0002169
33 *734:A 1.77076e-05
34 *815:C0 4.73039e-05
35 *729:A 5.37588e-06
36 *787:C0 5.37588e-06
37 *814:C0 4.68634e-05
38 *791:C0 0.000336077
39 *813:C0 8.72087e-05
40 *719:A 0.00013528
41 *724:A 1.03086e-05
42 *714:A 1.03086e-05
43 *812:C0 8.0205e-05
44 *810:C0 0.000193477
45 *819:C0 8.07608e-05
46 *759:A 2.20238e-05
47 *830:A 1.27749e-05
48 *834:C0 5.37588e-06
49 *832:C0 4.73039e-05
50 *833:C0 6.82679e-05
51 *779:A 5.37588e-06
52 *764:A 5.37588e-06
53 *699:A 0.000149305
54 *822:C0 1.03086e-05
55 *809:C0 5.37588e-06
56 *704:A 5.37588e-06
57 *709:A 5.37588e-06
58 *811:C0 0.000146839
59 *774:A 2.26403e-05
60 *769:A 0.00011002
61 *3:778 0.000269875
62 *3:772 0.000188793
63 *3:766 0.000167425
64 *3:726 0.000283911
65 *3:715 0.000237565
66 *3:709 0.000256017
67 *3:682 0.000251942
68 *3:676 0.000247271
69 *3:661 0.000274158
70 *3:630 0.000273248
71 *3:617 0.00025349
72 *3:611 0.000171246
73 *3:605 0.000330731
74 *3:599 0.00021933
75 *3:588 0.000145144
76 *3:573 0.000281851
77 *3:569 0.000153757
78 *3:510 0.000345923
79 *3:473 0.000358076
80 *3:467 0.00016584
81 *3:465 0.000243895
82 *3:459 0.000278038
83 *3:453 0.000214343
84 *3:438 0.000158695
85 *3:432 0.000100665
86 *3:372 0.000479966
87 *3:359 0.00039394
88 *3:316 0.000170168
89 *3:314 0.00010657
90 *3:312 0.000286987
91 *3:306 0.000217033
92 *3:298 0.000193467
93 *3:296 0.000163222
94 *3:277 0.000343186
95 *3:271 0.000224542
96 *3:269 0.000243871
97 *3:261 0.000189648
98 *3:259 0.000201695
99 *3:251 0.000236346
100 *3:243 0.000347858
101 *3:217 0.000133988
102 *3:213 0.000309409
103 *3:201 0.000159821
104 *3:160 0.000212816
105 *3:138 0.000222735
106 *3:97 0.000198086
107 *3:91 0.000119601
108 *3:85 0.000289862
109 *3:79 0.000248412
110 *3:77 0.000264015
111 *3:49 0.000241496
112 *3:45 0.000318832
113 *3:43 0.000201485
114 *3:41 0.000262002
115 *3:33 0.000268738
116 *3:27 0.000214178
117 *3:21 0.000218797
118 *3:19 0.000446294
119 rst x[14] 0.00213401
120 rst x[16] 0.00140014
121 rst x[11] 0.000142964
122 rst x[3] 0.000319509
123 rst x[13] 5.81466e-05
*RES
1 rst *3:19 18.7635 
2 *3:19 *3:21 1.42036 
3 *3:21 *3:27 10.0979 
4 *3:27 *3:33 13.5947 
5 *3:33 *3:41 12.3821 
6 *3:41 *3:43 1.04843 
7 *3:43 *3:45 1.435 
8 *3:45 *3:49 9.641 
9 *3:49 *769:A 8.97914 
10 *3:49 *774:A 6.074 
11 *3:45 *3:77 16.5145 
12 *3:77 *3:79 0.875643 
13 *3:79 *3:85 12.7277 
14 *3:85 *3:91 2.27257 
15 *3:91 *3:97 12.435 
16 *3:97 *811:C0 10.2033 
17 *3:97 *709:A 5.5 
18 *3:91 *704:A 5.5 
19 *3:85 *809:C0 5.5 
20 *3:79 *822:C0 11 
21 *3:77 *3:138 8.01564 
22 *3:138 *699:A 10.2853 
23 *3:138 *764:A 5.5 
24 *3:43 *3:160 9.96314 
25 *3:160 *779:A 5.5 
26 *3:160 *833:C0 7.591 
27 *3:41 *832:C0 12.23 
28 *3:33 *834:C0 5.5 
29 *3:27 *830:A 5.746 
30 *3:21 *3:201 7.222 
31 *3:201 *3:213 8.45709 
32 *3:213 *3:217 6.28791 
33 *3:217 *759:A 6.0535 
34 *3:217 *819:C0 18.9483 
35 *3:213 *3:243 11.322 
36 *3:243 *3:251 15.2991 
37 *3:251 *3:259 14.157 
38 *3:259 *3:261 3.034 
39 *3:261 *3:269 8.42857 
40 *3:269 *3:271 3.94771 
41 *3:271 *3:277 3.116 
42 *3:277 *810:C0 17.7123 
43 *3:277 *3:296 7.714 
44 *3:296 *3:298 2.87 
45 *3:298 *3:306 14.6139 
46 *3:306 *3:312 7.71986 
47 *3:312 *3:314 0.661857 
48 *3:314 *3:316 3.17457 
49 *3:316 *812:C0 13.6064 
50 *3:316 *714:A 11 
51 *3:314 *724:A 11 
52 *3:312 *3:359 17.3726 
53 *3:359 *719:A 14.9003 
54 *3:359 *3:372 1.72913 
55 *3:372 *813:C0 13.542 
56 *3:372 *791:C0 21.0689 
57 *3:306 *814:C0 6.87936 
58 *3:298 *787:C0 5.5 
59 *3:296 *729:A 5.5 
60 *3:271 *815:C0 12.23 
61 *3:269 *3:432 7.28643 
62 *3:432 *3:438 6.98771 
63 *3:438 *734:A 11.246 
64 *3:438 *3:453 8.87957 
65 *3:453 *3:459 14.7544 
66 *3:459 *3:465 5.19529 
67 *3:465 *3:467 1.23 
68 *3:467 *3:473 15.5276 
69 *3:473 *799:C0 23.4144 
70 *3:473 *800:C0 5.91 
71 *3:467 *654:A 5.5 
72 *3:465 *3:510 7.32157 
73 *3:510 *795:C0 30.7096 
74 *3:510 *783:C0 11.41 
75 *3:459 *816:C0 5.91 
76 *3:453 *739:A 5.746 
77 *3:432 *825:A 5.5 
78 *3:261 *817:C0 5.5 
79 *3:259 *744:A 5.746 
80 *3:251 *3:569 0.574 
81 *3:569 *3:573 9.44771 
82 *3:573 *807:C0 13.214 
83 *3:573 *3:588 4.02386 
84 *3:588 *689:A 11.574 
85 *3:588 *3:599 0.661857 
86 *3:599 *3:605 13.214 
87 *3:605 *3:611 8.19429 
88 *3:611 *3:617 8.534 
89 *3:617 *820:C0 11.6619 
90 *3:617 *3:630 10.174 
91 *3:630 *679:A 20.4594 
92 *3:630 *684:A 5.5 
93 *3:611 *806:C0 5.73136 
94 *3:605 *3:661 11.5036 
95 *3:661 *803:C0 17.1619 
96 *3:661 *3:676 2.19057 
97 *3:676 *3:682 13.788 
98 *3:682 *669:A 10.8651 
99 *3:682 *674:A 5.5 
100 *3:676 *804:C0 8.698 
101 *3:599 *3:709 10.1564 
102 *3:709 *3:715 4.13514 
103 *3:715 *664:A 5.77529 
104 *3:715 *3:726 3.30929 
105 *3:726 *659:A 8.534 
106 *3:726 *801:C0 19.3407 
107 *3:709 *802:C0 5.5 
108 *3:569 *818:C0 6.402 
109 *3:243 *3:766 12.4057 
110 *3:766 *3:772 3.03986 
111 *3:772 *3:778 8.92057 
112 *3:778 *808:C0 11.4686 
113 *3:778 *821:C0 15.838 
114 *3:772 *694:A 5.5 
115 *3:766 *749:A 6.32 
116 *3:201 *754:A 5.5 
117 *3:19 *805:C0 11.0966 
*END

*D_NET *276 0.000590614
*CONN
*I *829:B I *D XOR3D2
*I *828:B I *D NOR2D1
*I *827:B I *D NAND2D1
*I *851:Q O *D DFFHQD1
*CAP
1 *829:B 2.74299e-05
2 *828:B 5.52305e-05
3 *827:B 1.77076e-05
4 *851:Q 0.000136919
5 *276:27 0.000140681
6 *276:14 0.000212647
*RES
1 *851:Q *276:14 20.2549 
2 *276:14 *827:B 5.91 
3 *276:14 *276:27 7.37136 
4 *276:27 *828:B 12.5785 
5 *276:27 *829:B 11.6824 
*END

*D_NET *277 0.00053686
*CONN
*I *733:B I *D XOR3D2
*I *732:B I *D NOR2D1
*I *731:B I *D NAND2D1
*I *861:Q O *D DFFHQD1
*CAP
1 *733:B 4.90298e-05
2 *732:B 0.000101035
3 *731:B 5.37588e-06
4 *861:Q 7.59939e-05
5 *277:21 0.00018706
6 *277:14 0.000118365
*RES
1 *861:Q *277:14 18.7257 
2 *277:14 *731:B 5.5 
3 *277:14 *277:21 1.23 
4 *277:21 *732:B 8.68043 
5 *277:21 *733:B 17.7651 
*END

*D_NET *278 0.000455139
*CONN
*I *726:B I *D NAND2D1
*I *728:B I *D XOR3D2
*I *727:B I *D NOR2D1
*I *862:Q O *D DFFHQD1
*CAP
1 *726:B 6.08419e-05
2 *728:B 4.53369e-05
3 *727:B 1.77076e-05
4 *862:Q 9.64085e-05
5 *278:20 7.03192e-05
6 *278:16 0.000164525
*RES
1 *862:Q *278:16 19.6892 
2 *278:16 *278:20 5.62593 
3 *278:20 *727:B 11.246 
4 *278:20 *728:B 12.3471 
5 *278:16 *726:B 18.6174 
*END

*D_NET *279 0.000326048
*CONN
*I *722:B I *D NOR2D1
*I *723:B I *D XOR3D2
*I *721:B I *D NAND2D1
*I *863:Q O *D DFFHQD1
*CAP
1 *722:B 5.37588e-06
2 *723:B 5.55838e-05
3 *721:B 7.11441e-05
4 *863:Q 5.37588e-06
5 *279:23 8.6504e-05
6 *279:4 0.000102064
*RES
1 *863:Q *279:4 5.5 
2 *279:4 *721:B 18.5324 
3 *279:4 *279:23 0.849286 
4 *279:23 *723:B 7.16929 
5 *279:23 *722:B 5.5 
*END

*D_NET *280 0.000513276
*CONN
*I *717:B I *D NOR2D1
*I *718:B I *D XOR3D2
*I *716:B I *D NAND2D1
*I *864:Q O *D DFFHQD1
*CAP
1 *717:B 1.03086e-05
2 *718:B 5.80869e-05
3 *716:B 5.37873e-05
4 *864:Q 0.000127621
5 *280:12 0.000118708
6 *280:10 0.000144764
*RES
1 *864:Q *280:10 15.1703 
2 *280:10 *280:12 0.272357 
3 *280:12 *716:B 12.6839 
4 *280:12 *718:B 12.7249 
5 *280:10 *717:B 11 
*END

*D_NET *281 0.000448797
*CONN
*I *711:B I *D NAND2D1
*I *712:B I *D NOR2D1
*I *713:B I *D XOR3D2
*I *865:Q O *D DFFHQD1
*CAP
1 *711:B 1.03086e-05
2 *712:B 9.32583e-05
3 *713:B 5.22366e-05
4 *865:Q 3.25058e-05
5 *281:17 0.000139656
6 *281:6 0.000120831
*RES
1 *865:Q *281:6 6.402 
2 *281:6 *713:B 7.058 
3 *281:6 *281:17 6.74171 
4 *281:17 *712:B 13.9637 
5 *281:17 *711:B 11 
*END

*D_NET *282 0.000306554
*CONN
*I *706:B I *D NAND2D1
*I *707:B I *D NOR2D1
*I *708:B I *D XOR3D2
*I *866:Q O *D DFFHQD1
*CAP
1 *706:B 4.90655e-05
2 *707:B 2.26403e-05
3 *708:B 6.2102e-05
4 *866:Q 5.37588e-06
5 *282:13 8.57993e-05
6 *282:4 8.15713e-05
*RES
1 *866:Q *282:4 5.5 
2 *282:4 *708:B 7.386 
3 *282:4 *282:13 0.468571 
4 *282:13 *707:B 6.074 
5 *282:13 *706:B 6.95257 
*END

*D_NET *283 0.000528851
*CONN
*I *703:B I *D XOR3D2
*I *702:B I *D NOR2D1
*I *701:B I *D NAND2D1
*I *867:Q O *D DFFHQD1
*CAP
1 *703:B 6.2102e-05
2 *702:B 1.77076e-05
3 *701:B 7.80458e-05
4 *867:Q 8.51133e-05
5 *283:10 0.00011721
6 *283:8 0.000168672
*RES
1 *867:Q *283:8 13.9813 
2 *283:8 *283:10 0.855143 
3 *283:10 *701:B 13.6181 
4 *283:10 *702:B 11.246 
5 *283:8 *703:B 12.722 
*END

*D_NET *284 0.000646022
*CONN
*I *698:B I *D XOR3D2
*I *697:B I *D NOR2D1
*I *696:B I *D NAND2D1
*I *868:Q O *D DFFHQD1
*CAP
1 *698:B 5.37588e-06
2 *697:B 7.54907e-05
3 *696:B 5.62404e-05
4 *868:Q 0.000162917
5 *284:31 0.000103853
6 *284:10 0.000242145
*RES
1 *868:Q *284:10 17.0006 
2 *284:10 *696:B 12.6839 
3 *284:10 *284:31 6.17064 
4 *284:31 *697:B 7.83114 
5 *284:31 *698:B 5.5 
*END

*D_NET *285 0.000773594
*CONN
*I *691:B I *D NAND2D1
*I *692:B I *D NOR2D1
*I *693:B I *D XOR3D2
*I *869:Q O *D DFFHQD1
*CAP
1 *691:B 5.37588e-06
2 *692:B 8.87033e-05
3 *693:B 7.36933e-05
4 *869:Q 0.000214089
5 *285:23 9.90119e-05
6 *285:10 0.000292715
*RES
1 *869:Q *285:10 18.9423 
2 *285:10 *693:B 13.2491 
3 *285:10 *285:23 5.5 
4 *285:23 *692:B 8.27043 
5 *285:23 *691:B 5.5 
*END

*D_NET *286 0.00062429
*CONN
*I *687:B I *D NOR2D1
*I *688:B I *D XOR3D2
*I *686:B I *D NAND2D1
*I *870:Q O *D DFFHQD1
*CAP
1 *687:B 8.60608e-05
2 *688:B 5.37588e-06
3 *686:B 4.90298e-05
4 *870:Q 0.000140321
5 *286:20 8.57636e-05
6 *286:16 0.000257739
*RES
1 *870:Q *286:16 9.98657 
2 *286:16 *286:20 1.04257 
3 *286:20 *686:B 17.7651 
4 *286:20 *688:B 5.5 
5 *286:16 *687:B 8.18257 
*END

*D_NET *287 0.000357825
*CONN
*I *777:B I *D NOR2D1
*I *778:B I *D XOR3D2
*I *776:B I *D NAND2D1
*I *852:Q O *D DFFHQD1
*CAP
1 *777:B 8.52708e-05
2 *778:B 0.00010474
3 *776:B 3.18011e-05
4 *852:Q 4.23712e-05
5 *287:6 9.36416e-05
*RES
1 *852:Q *287:6 6.73 
2 *287:6 *776:B 6.37857 
3 *287:6 *778:B 5.96857 
4 *778:B *777:B 13.4776 
*END

*D_NET *288 0.000806891
*CONN
*I *683:B I *D XOR3D2
*I *682:B I *D NOR2D1
*I *681:B I *D NAND2D1
*I *871:Q O *D DFFHQD1
*CAP
1 *683:B 1.77076e-05
2 *682:B 3.74385e-05
3 *681:B 0.000100326
4 *871:Q 0.000170441
5 *288:18 0.000215297
6 *288:10 0.000265681
*RES
1 *871:Q *288:10 17.2027 
2 *288:10 *288:18 8.39343 
3 *288:18 *681:B 19.6629 
4 *288:18 *682:B 6.566 
5 *288:10 *683:B 11.246 
*END

*D_NET *289 0.000568478
*CONN
*I *677:B I *D NOR2D1
*I *676:B I *D NAND2D1
*I *678:B I *D XOR3D2
*I *872:Q O *D DFFHQD1
*CAP
1 *677:B 5.22366e-05
2 *676:B 1.03086e-05
3 *678:B 6.39937e-05
4 *872:Q 9.7445e-05
5 *289:12 0.000134558
6 *289:10 0.000209937
*RES
1 *872:Q *289:10 14.3913 
2 *289:10 *289:12 2.40143 
3 *289:12 *678:B 12.8626 
4 *289:12 *676:B 11 
5 *289:10 *677:B 12.394 
*END

*D_NET *290 0.000604488
*CONN
*I *673:B I *D XOR3D2
*I *671:B I *D NAND2D1
*I *672:B I *D NOR2D1
*I *873:Q O *D DFFHQD1
*CAP
1 *673:B 4.73039e-05
2 *671:B 5.37588e-06
3 *672:B 0.000117507
4 *873:Q 0.000127124
5 *290:23 5.76124e-05
6 *290:10 0.000249564
*RES
1 *873:Q *290:10 15.346 
2 *290:10 *672:B 14.9301 
3 *290:10 *290:23 5.5 
4 *290:23 *671:B 5.5 
5 *290:23 *673:B 6.894 
*END

*D_NET *291 0.000645628
*CONN
*I *668:B I *D XOR3D2
*I *666:B I *D NAND2D1
*I *667:B I *D NOR2D1
*I *874:Q O *D DFFHQD1
*CAP
1 *668:B 1.03086e-05
2 *666:B 9.42221e-05
3 *667:B 5.37588e-06
4 *874:Q 9.59262e-05
5 *291:19 0.000221512
6 *291:8 0.000218283
*RES
1 *874:Q *291:8 8.51057 
2 *291:8 *667:B 5.5 
3 *291:8 *291:19 9.62343 
4 *291:19 *666:B 13.9637 
5 *291:19 *668:B 11 
*END

*D_NET *292 0.000462543
*CONN
*I *663:B I *D XOR3D2
*I *662:B I *D NOR2D1
*I *661:B I *D NAND2D1
*I *875:Q O *D DFFHQD1
*CAP
1 *663:B 4.73039e-05
2 *662:B 1.70911e-05
3 *661:B 5.241e-05
4 *875:Q 0.000102709
5 *292:12 8.12581e-05
6 *292:10 0.00016177
*RES
1 *875:Q *292:10 14.4381 
2 *292:10 *292:12 0.468571 
3 *292:12 *661:B 12.5639 
4 *292:12 *662:B 11.2255 
5 *292:10 *663:B 12.23 
*END

*D_NET *293 0.000627825
*CONN
*I *658:B I *D XOR3D2
*I *657:B I *D NOR2D1
*I *656:B I *D NAND2D1
*I *876:Q O *D DFFHQD1
*CAP
1 *658:B 8.85272e-05
2 *657:B 6.34963e-05
3 *656:B 8.32272e-05
4 *876:Q 1.36558e-05
5 *293:23 0.00021703
6 *293:6 0.000161889
*RES
1 *876:Q *293:6 5.77529 
2 *293:6 *656:B 19.0303 
3 *293:6 *293:23 2.16129 
4 *293:23 *657:B 18.3743 
5 *293:23 *658:B 8.26457 
*END

*D_NET *294 0.000462521
*CONN
*I *797:B I *D NAND2D1
*I *798:B I *D NOR2D1
*I *847:B I *D XNOR2D1
*I *877:Q O *D DFFHQD1
*CAP
1 *797:B 5.37588e-06
2 *798:B 3.80207e-05
3 *847:B 0.000110499
4 *877:Q 0.000187864
5 *294:36 0.000120762
*RES
1 *877:Q *847:B 24.8458 
2 *877:Q *294:36 18.4652 
3 *294:36 *798:B 17.4079 
4 *294:36 *797:B 5.5 
*END

*D_NET *295 0.000585695
*CONN
*I *794:B I *D NOR2D1
*I *844:B I *D XNOR2D1
*I *793:B I *D NAND2D1
*I *878:Q O *D DFFHQD1
*CAP
1 *794:B 5.37588e-06
2 *844:B 7.03819e-05
3 *793:B 1.77076e-05
4 *878:Q 0.000172076
5 *295:25 0.000103064
6 *295:14 0.00021709
*RES
1 *878:Q *295:14 21.3815 
2 *295:14 *793:B 5.91 
3 *295:14 *295:25 0.907857 
4 *295:25 *844:B 7.66129 
5 *295:25 *794:B 5.5 
*END

*D_NET *296 0.000493638
*CONN
*I *841:B I *D XNOR2D1
*I *790:B I *D NOR2D1
*I *789:B I *D NAND2D1
*I *879:Q O *D DFFHQD1
*CAP
1 *841:B 5.37588e-06
2 *790:B 4.40971e-05
3 *789:B 4.40971e-05
4 *879:Q 9.15899e-05
5 *296:27 0.000111132
6 *296:12 0.000197346
*RES
1 *879:Q *296:12 13.9403 
2 *296:12 *789:B 12.2651 
3 *296:12 *296:27 7.386 
4 *296:27 *790:B 17.6011 
5 *296:27 *841:B 5.5 
*END

*D_NET *297 0.000619256
*CONN
*I *838:B I *D XNOR2D1
*I *786:B I *D NOR2D1
*I *785:B I *D NAND2D1
*I *880:Q O *D DFFHQD1
*CAP
1 *838:B 1.03086e-05
2 *786:B 1.77076e-05
3 *785:B 3.92473e-05
4 *880:Q 0.000220908
5 *297:10 7.84117e-05
6 *297:8 0.000252673
*RES
1 *880:Q *297:8 19.3933 
2 *297:8 *297:10 0.855143 
3 *297:10 *785:B 12.0719 
4 *297:10 *786:B 11.246 
5 *297:8 *838:B 11 
*END

*D_NET *298 0.000312509
*CONN
*I *772:B I *D NOR2D1
*I *773:B I *D XOR3D2
*I *771:B I *D NAND2D1
*I *853:Q O *D DFFHQD1
*CAP
1 *772:B 3.51455e-05
2 *773:B 4.73039e-05
3 *771:B 5.37588e-06
4 *853:Q 6.34963e-05
5 *298:12 5.76124e-05
6 *298:10 0.000103575
*RES
1 *853:Q *298:10 13.0383 
2 *298:10 *298:12 5.5 
3 *298:12 *771:B 5.5 
4 *298:12 *773:B 6.894 
5 *298:10 *772:B 11.9899 
*END

*D_NET *299 0.000362267
*CONN
*I *781:B I *D NAND2D1
*I *782:B I *D NOR2D1
*I *835:B I *D XNOR2D1
*I *881:Q O *D DFFHQD1
*CAP
1 *781:B 7.8626e-05
2 *782:B 5.55838e-05
3 *835:B 5.37588e-06
4 *881:Q 3.66151e-05
5 *299:10 6.58923e-05
6 *299:8 0.000120174
*RES
1 *881:Q *299:8 12.0484 
2 *299:8 *299:10 5.5 
3 *299:10 *835:B 5.5 
4 *299:10 *782:B 7.16929 
5 *299:8 *781:B 13.4131 
*END

*D_NET *300 0.000575928
*CONN
*I *767:B I *D NOR2D1
*I *768:B I *D XOR3D2
*I *766:B I *D NAND2D1
*I *854:Q O *D DFFHQD1
*CAP
1 *767:B 3.53244e-05
2 *768:B 3.25058e-05
3 *766:B 6.2102e-05
4 *854:Q 0.000112243
5 *300:14 0.000140396
6 *300:10 0.000193356
*RES
1 *854:Q *300:10 14.8833 
2 *300:10 *300:14 7.12829 
3 *300:14 *766:B 7.386 
4 *300:14 *768:B 6.402 
5 *300:10 *767:B 11.8317 
*END

*D_NET *301 0.000540311
*CONN
*I *761:B I *D NAND2D1
*I *763:B I *D XOR3D2
*I *762:B I *D NOR2D1
*I *855:Q O *D DFFHQD1
*CAP
1 *761:B 2.0174e-05
2 *763:B 4.07856e-05
3 *762:B 5.41283e-05
4 *855:Q 0.000114212
5 *301:10 0.00013577
6 *301:8 0.000175242
*RES
1 *855:Q *301:8 15.141 
2 *301:8 *301:10 1.62829 
3 *301:10 *762:B 12.5346 
4 *301:10 *763:B 12.0133 
5 *301:8 *761:B 11.328 
*END

*D_NET *302 0.000491178
*CONN
*I *756:B I *D NAND2D1
*I *758:B I *D XOR3D2
*I *757:B I *D NOR2D1
*I *856:Q O *D DFFHQD1
*CAP
1 *756:B 5.22366e-05
2 *758:B 1.36558e-05
3 *757:B 0.000109139
4 *856:Q 1.94693e-05
5 *302:21 0.000116981
6 *302:6 0.000179697
*RES
1 *856:Q *302:6 5.96857 
2 *302:6 *757:B 8.94986 
3 *302:6 *302:21 1.69857 
4 *302:21 *758:B 5.77529 
5 *302:21 *756:B 7.058 
*END

*D_NET *303 0.000725329
*CONN
*I *752:B I *D NOR2D1
*I *751:B I *D NAND2D1
*I *753:B I *D XOR3D2
*I *857:Q O *D DFFHQD1
*CAP
1 *752:B 1.03086e-05
2 *751:B 9.4564e-05
3 *753:B 5.37588e-06
4 *857:Q 0.000204078
5 *303:25 0.000153211
6 *303:14 0.000257792
*RES
1 *857:Q *303:14 23.0483 
2 *303:14 *753:B 5.5 
3 *303:14 *303:25 7.181 
4 *303:25 *751:B 13.911 
5 *303:25 *752:B 11 
*END

*D_NET *304 0.000441024
*CONN
*I *748:B I *D XOR3D2
*I *747:B I *D NOR2D1
*I *746:B I *D NAND2D1
*I *858:Q O *D DFFHQD1
*CAP
1 *748:B 5.22366e-05
2 *747:B 5.37588e-06
3 *746:B 3.92473e-05
4 *858:Q 0.000111321
5 *304:27 6.99442e-05
6 *304:12 0.0001629
*RES
1 *858:Q *304:12 14.5963 
2 *304:12 *746:B 12.0719 
3 *304:12 *304:27 5.746 
4 *304:27 *747:B 5.5 
5 *304:27 *748:B 7.058 
*END

*D_NET *305 0.000579248
*CONN
*I *742:B I *D NOR2D1
*I *741:B I *D NAND2D1
*I *743:B I *D XOR3D2
*I *859:Q O *D DFFHQD1
*CAP
1 *742:B 2.26403e-05
2 *741:B 5.37588e-06
3 *743:B 6.87964e-05
4 *859:Q 0.000126461
5 *305:20 0.000140523
6 *305:10 0.000215452
*RES
1 *859:Q *305:10 15.5803 
2 *305:10 *305:20 7.86629 
3 *305:20 *743:B 7.60857 
4 *305:20 *741:B 5.5 
5 *305:10 *742:B 11.41 
*END

*D_NET *306 0.000323208
*CONN
*I *738:B I *D XOR3D2
*I *736:B I *D NAND2D1
*I *737:B I *D NOR2D1
*I *860:Q O *D DFFHQD1
*CAP
1 *738:B 5.06511e-05
2 *736:B 1.77076e-05
3 *737:B 5.37588e-06
4 *860:Q 5.39982e-05
5 *306:23 0.00010223
6 *306:10 9.32455e-05
*RES
1 *860:Q *306:10 7.11657 
2 *306:10 *737:B 5.5 
3 *306:10 *306:23 11.9079 
4 *306:23 *736:B 5.91 
5 *306:23 *738:B 7.00529 
*END

*D_NET *4 0.000591398
*CONN
*P x[0] I
*I *826:B I *D NAND2D1
*CAP
1 x[0] 0.000295699
2 *826:B 0.000295699
*RES
1 x[0] *826:B 25.6608 
*END

*D_NET *5 0.00159239
*CONN
*P x[10] I
*I *730:B I *D NAND2D1
*CAP
1 x[10] 0.000796194
2 *730:B 0.000796194
*RES
1 x[10] *730:B 31.7927 
*END

*D_NET *6 0.00985348
*CONN
*P x[11] I
*I *725:B I *D NAND2D1
*CAP
1 x[11] 0.00104853
2 *725:B 0.000256415
3 *6:23 0.00130495
4 x[11] x[14] 0.00370241
5 x[11] x[16] 0.000581748
6 x[11] x[3] 0.00199727
7 x[11] x[13] 0.000962164
*RES
1 x[11] *6:23 44.4815 
2 *6:23 *725:B 13.8464 
*END

*D_NET *7 0.00076769
*CONN
*P x[12] I
*I *720:B I *D NAND2D1
*CAP
1 x[12] 0.000383844
2 *720:B 0.000383844
*RES
1 x[12] *720:B 28.528 
*END

*D_NET *8 0.00616757
*CONN
*P x[13] I
*I *715:B I *D NAND2D1
*CAP
1 x[13] 0.000694096
2 *715:B 0.000472937
3 *8:33 0.00116703
4 x[13] x[14] 0.00148365
5 x[13] x[16] 0.00153027
6 x[13] x[3] 0.000819567
*RES
1 x[13] *8:33 49.2602 
2 *8:33 *715:B 37.5419 
*END

*D_NET *9 0.0131144
*CONN
*P x[14] I
*I *710:B I *D NAND2D1
*CAP
1 x[14] 0.00100884
2 *710:B 0.000512916
3 *9:17 0.00152176
4 x[14] x[16] 0.00736328
5 x[14] x[3] 0.00270764
*RES
1 x[14] *9:17 48.122 
2 *9:17 *710:B 27.7104 
*END

*D_NET *10 0.00175476
*CONN
*P x[15] I
*I *705:B I *D NAND2D1
*CAP
1 x[15] 0.000867069
2 *705:B 1.03086e-05
3 *10:27 0.000877378
*RES
1 x[15] *10:27 45.5573 
2 *10:27 *705:B 11 
*END

*D_NET *11 0.00442363
*CONN
*P x[16] I
*I *700:B I *D NAND2D1
*CAP
1 x[16] 0.000974376
2 *700:B 0.000288482
3 *11:23 0.00126286
4 x[16] x[3] 0.00189792
*RES
1 x[16] *11:23 46.7906 
2 *11:23 *700:B 42.1196 
*END

*D_NET *12 0.00147338
*CONN
*P x[17] I
*I *695:B I *D NAND2D1
*CAP
1 x[17] 0.000687777
2 *695:B 4.89111e-05
3 *12:35 0.000736689
*RES
1 x[17] *12:35 49.9856 
2 *12:35 *695:B 12.1979 
*END

*D_NET *13 0.000638191
*CONN
*P x[18] I
*I *690:B I *D NAND2D1
*CAP
1 x[18] 0.000319095
2 *690:B 0.000319095
*RES
1 x[18] *690:B 26.7441 
*END

*D_NET *14 0.000654485
*CONN
*P x[19] I
*I *685:B I *D NAND2D1
*CAP
1 x[19] 0.000327242
2 *685:B 0.000327242
*RES
1 x[19] *685:B 27.1014 
*END

*D_NET *15 0.000978832
*CONN
*P x[1] I
*I *775:B I *D NAND2D1
*CAP
1 x[1] 0.000489419
2 *775:B 0.000489419
*RES
1 x[1] *775:B 33.3041 
*END

*D_NET *16 0.00066461
*CONN
*P x[20] I
*I *680:B I *D NAND2D1
*CAP
1 x[20] 0.000332308
2 *680:B 0.000332308
*RES
1 x[20] *680:B 27.1834 
*END

*D_NET *17 0.000753073
*CONN
*P x[21] I
*I *675:B I *D NAND2D1
*CAP
1 x[21] 0.000376536
2 *675:B 0.000376536
*RES
1 x[21] *675:B 28.718 
*END

*D_NET *18 0.00101634
*CONN
*P x[22] I
*I *670:B I *D NAND2D1
*CAP
1 x[22] 0.000508166
2 *670:B 0.000508166
*RES
1 x[22] *670:B 32.5346 
*END

*D_NET *19 0.000715344
*CONN
*P x[23] I
*I *665:B I *D NAND2D1
*CAP
1 x[23] 0.000357672
2 *665:B 0.000357672
*RES
1 x[23] *665:B 27.7001 
*END

*D_NET *20 0.00207121
*CONN
*P x[24] I
*I *660:B I *D NAND2D1
*CAP
1 x[24] 0.000751566
2 *660:B 0.000284038
3 *20:25 0.0010356
*RES
1 x[24] *20:25 47.0276 
2 *20:25 *660:B 27.2127 
*END

*D_NET *21 0.00234921
*CONN
*P x[25] I
*I *655:B I *D NAND2D1
*CAP
1 x[25] 0.00116923
2 *655:B 5.37588e-06
3 *21:15 0.0011746
*RES
1 x[25] *21:15 48.896 
2 *21:15 *655:B 5.5 
*END

*D_NET *22 0.00239054
*CONN
*P x[26] I
*I *796:B I *D NAND2D1
*CAP
1 x[26] 0.00117756
2 *796:B 1.77076e-05
3 *22:33 0.00119527
*RES
1 x[26] *22:33 45.2056 
2 *22:33 *796:B 11.246 
*END

*D_NET *23 0.00214996
*CONN
*P x[27] I
*I *792:B I *D NAND2D1
*CAP
1 x[27] 0.00083903
2 *792:B 0.000235947
3 *23:23 0.00107498
*RES
1 x[27] *23:23 49.15 
2 *23:23 *792:B 24.5741 
*END

*D_NET *24 0.00200437
*CONN
*P x[28] I
*I *788:B I *D NAND2D1
*CAP
1 x[28] 0.00073784
2 *788:B 0.000264343
3 *24:23 0.00100218
*RES
1 x[28] *24:23 47.6601 
2 *24:23 *788:B 14.11 
*END

*D_NET *25 0.00214609
*CONN
*P x[29] I
*I *784:B I *D NAND2D1
*CAP
1 x[29] 0.000521986
2 *784:B 0.000551056
3 *25:27 0.00107304
*RES
1 x[29] *25:27 45.8914 
2 *25:27 *784:B 28.9785 
*END

*D_NET *26 0.00107661
*CONN
*P x[2] I
*I *770:B I *D NAND2D1
*CAP
1 x[2] 0.000538306
2 *770:B 0.000538306
*RES
1 x[2] *770:B 45.1379 
*END

*D_NET *27 0.002266
*CONN
*P x[30] I
*I *780:B I *D NAND2D1
*CAP
1 x[30] 0.000666202
2 *780:B 0.000466796
3 *27:29 0.001133
*RES
1 x[30] *27:29 48.8684 
2 *27:29 *780:B 36.7065 
*END

*D_NET *28 0.00229985
*CONN
*P x[31] I
*I *823:B I *D AND3D1
*I *824:A1 I *D AOI21D1
*CAP
1 x[31] 0.00047832
2 *823:B 5.37588e-06
3 *824:A1 8.28898e-05
4 *28:45 0.000671605
5 *28:27 0.00106166
*RES
1 x[31] *28:27 48.8899 
2 *28:27 *28:45 30.1763 
3 *28:45 *824:A1 8.07714 
4 *28:45 *823:B 5.5 
*END

*D_NET *29 0.00244521
*CONN
*P x[3] I
*I *765:B I *D NAND2D1
*CAP
1 x[3] 0.00121723
2 *765:B 5.37588e-06
3 *29:29 0.0012226
*RES
1 x[3] *29:29 49.2362 
2 *29:29 *765:B 5.5 
*END

*D_NET *30 0.000912298
*CONN
*P x[4] I
*I *760:B I *D NAND2D1
*CAP
1 x[4] 0.000450775
2 *760:B 5.37588e-06
3 *30:33 0.000456151
*RES
1 x[4] *30:33 47.9467 
2 *30:33 *760:B 5.5 
*END

*D_NET *31 0.000709771
*CONN
*P x[5] I
*I *755:B I *D NAND2D1
*CAP
1 x[5] 0.000354885
2 *755:B 0.000354885
*RES
1 x[5] *755:B 27.6498 
*END

*D_NET *32 0.000666097
*CONN
*P x[6] I
*I *750:B I *D NAND2D1
*CAP
1 x[6] 0.000333048
2 *750:B 0.000333048
*RES
1 x[6] *750:B 16.3943 
*END

*D_NET *33 0.000653638
*CONN
*P x[7] I
*I *745:B I *D NAND2D1
*CAP
1 x[7] 0.000326819
2 *745:B 0.000326819
*RES
1 x[7] *745:B 26.7589 
*END

*D_NET *34 0.00136365
*CONN
*P x[8] I
*I *740:B I *D NAND2D1
*CAP
1 x[8] 0.000676448
2 *740:B 5.37588e-06
3 *34:33 0.000681824
*RES
1 x[8] *34:33 46.1314 
2 *34:33 *740:B 5.5 
*END

*D_NET *35 0.00162662
*CONN
*P x[9] I
*I *735:B I *D NAND2D1
*CAP
1 x[9] 0.000807935
2 *735:B 5.37588e-06
3 *35:25 0.000813311
*RES
1 x[9] *35:25 48.1621 
2 *35:25 *735:B 5.5 
*END

*D_NET *36 0.00874457
*CONN
*P y I
*I *826:A I *D NAND2D1
*I *680:A I *D NAND2D1
*I *685:A I *D NAND2D1
*I *755:A I *D NAND2D1
*I *675:A I *D NAND2D1
*I *670:A I *D NAND2D1
*I *690:A I *D NAND2D1
*I *665:A I *D NAND2D1
*I *745:A I *D NAND2D1
*I *720:A I *D NAND2D1
*I *750:A I *D NAND2D1
*I *760:A I *D NAND2D1
*I *775:A I *D NAND2D1
*I *765:A I *D NAND2D1
*I *695:A I *D NAND2D1
*I *740:A I *D NAND2D1
*I *730:A I *D NAND2D1
*I *705:A I *D NAND2D1
*I *715:A I *D NAND2D1
*I *655:A I *D NAND2D1
*I *660:A I *D NAND2D1
*I *735:A I *D NAND2D1
*I *796:A I *D NAND2D1
*I *792:A I *D NAND2D1
*I *780:A I *D NAND2D1
*I *823:A I *D AND3D1
*I *824:A0 I *D AOI21D1
*I *788:A I *D NAND2D1
*I *784:A I *D NAND2D1
*I *725:A I *D NAND2D1
*I *710:A I *D NAND2D1
*I *700:A I *D NAND2D1
*I *770:A I *D NAND2D1
*CAP
1 y 0.000310996
2 *826:A 2.69984e-05
3 *680:A 5.37588e-06
4 *685:A 5.37588e-06
5 *755:A 3.83193e-05
6 *675:A 1.77076e-05
7 *670:A 0.000124824
8 *690:A 1.77076e-05
9 *665:A 5.37588e-06
10 *745:A 1.03086e-05
11 *720:A 1.03086e-05
12 *750:A 5.37588e-06
13 *760:A 5.37588e-06
14 *775:A 2.26403e-05
15 *765:A 3.18011e-05
16 *695:A 6.85119e-05
17 *740:A 0.000156472
18 *730:A 1.77076e-05
19 *705:A 1.27749e-05
20 *715:A 5.37588e-06
21 *655:A 9.28439e-05
22 *660:A 3.43146e-05
23 *735:A 5.37138e-05
24 *796:A 6.35792e-05
25 *792:A 1.77076e-05
26 *780:A 2.7573e-05
27 *823:A 1.03086e-05
28 *824:A0 4.73039e-05
29 *788:A 9.48129e-05
30 *784:A 3.66151e-05
31 *725:A 2.26403e-05
32 *710:A 0.000131394
33 *700:A 1.94693e-05
34 *770:A 5.37588e-06
35 *36:404 0.000183755
36 *36:400 0.000115833
37 *36:396 7.39052e-05
38 *36:385 0.000175223
39 *36:368 0.000166742
40 *36:357 6.30046e-05
41 *36:348 4.84552e-05
42 *36:344 9.84473e-05
43 *36:273 0.000248984
44 *36:226 0.000248341
45 *36:220 0.000320907
46 *36:194 0.000182407
47 *36:190 0.000190328
48 *36:179 0.000222741
49 *36:166 0.000195777
50 *36:155 0.000158115
51 *36:135 0.000232548
52 *36:129 0.000216864
53 *36:125 0.000148995
54 *36:110 0.000171027
55 *36:97 0.000268769
56 *36:93 0.000179332
57 *36:89 0.000266025
58 *36:85 0.000470469
59 *36:66 0.000396763
60 *36:64 0.000413772
61 *36:50 0.000426037
62 *36:35 0.000217691
63 *36:29 0.000238758
64 *36:19 0.000204727
65 *36:15 0.000208658
66 *36:11 0.000434182
*RES
1 y *36:11 20.7847 
2 *36:11 *36:15 8.534 
3 *36:15 *36:19 6.935 
4 *36:19 *36:29 16.5291 
5 *36:29 *36:35 13.5947 
6 *36:35 *770:A 5.5 
7 *36:35 *36:50 10.3966 
8 *36:50 *36:64 24.9707 
9 *36:64 *36:66 3.854 
10 *36:66 *700:A 5.96857 
11 *36:66 *36:85 18.6795 
12 *36:85 *36:89 10.01 
13 *36:89 *36:93 7.32157 
14 *36:93 *36:97 9.19 
15 *36:97 *710:A 15.7443 
16 *36:97 *36:110 0.855143 
17 *36:110 *725:A 11.41 
18 *36:110 *36:125 9.92214 
19 *36:125 *36:129 5.96857 
20 *36:129 *36:135 14.034 
21 *36:135 *784:A 12.0484 
22 *36:135 *788:A 14.3679 
23 *36:129 *36:155 3.94771 
24 *36:155 *824:A0 12.23 
25 *36:155 *36:166 0.468571 
26 *36:166 *823:A 11 
27 *36:166 *36:179 6.92314 
28 *36:179 *780:A 11.574 
29 *36:179 *36:190 0.855143 
30 *36:190 *36:194 8.698 
31 *36:194 *792:A 5.91 
32 *36:194 *796:A 18.345 
33 *36:190 *36:220 2.70014 
34 *36:220 *36:226 16.002 
35 *36:226 *735:A 12.681 
36 *36:226 *660:A 11.9079 
37 *36:220 *655:A 14.1101 
38 *36:125 *715:A 5.5 
39 *36:93 *705:A 5.746 
40 *36:89 *36:273 2.98129 
41 *36:273 *730:A 11.246 
42 *36:273 *740:A 16.4179 
43 *36:85 *695:A 18.509 
44 *36:64 *765:A 6.37857 
45 *36:50 *775:A 11.41 
46 *36:29 *760:A 5.5 
47 *36:19 *750:A 5.5 
48 *36:15 *36:344 7.94243 
49 *36:344 *36:348 6.16186 
50 *36:348 *720:A 11 
51 *36:348 *36:357 0.661857 
52 *36:357 *745:A 11 
53 *36:357 *36:368 6.74171 
54 *36:368 *665:A 5.5 
55 *36:368 *36:385 14.5889 
56 *36:385 *690:A 5.91 
57 *36:385 *36:396 1.07186 
58 *36:396 *36:400 1.20657 
59 *36:400 *36:404 1.37057 
60 *36:404 *670:A 20.5414 
61 *36:404 *675:A 5.91 
62 *36:400 *755:A 6.59529 
63 *36:396 *685:A 5.5 
64 *36:344 *680:A 5.5 
65 *36:11 *826:A 16.9686 
*END
