*SPEF "ieee 1481-1999"
*DESIGN "spm"
*DATE "13:01:50 Friday July 24, 2026"
*VENDOR "The OpenROAD Project"
*PROGRAM "OpenROAD"
*VERSION "26Q3-155-g1bade74e72"
*DESIGN_FLOW "NAME_SCOPE LOCAL" "PIN_CAP NONE"
*DIVIDER /
*DELIMITER :
*BUS_DELIMITER []
*T_UNIT 1 NS
*C_UNIT 1 PF
*R_UNIT 1 OHM
*L_UNIT 1 HENRY

*NAME_MAP
*39 _000_
*40 _001_
*41 _002_
*42 _003_
*43 _004_
*44 _005_
*45 _006_
*46 _007_
*47 _008_
*48 _009_
*49 _010_
*50 _011_
*51 _012_
*52 _013_
*53 _014_
*54 _015_
*55 _016_
*56 _017_
*57 _018_
*58 _019_
*59 _020_
*60 _021_
*61 _022_
*62 _023_
*63 _024_
*64 _025_
*65 _026_
*66 _027_
*67 _028_
*68 _029_
*69 _030_
*70 _031_
*71 _032_
*72 _033_
*73 _034_
*74 _035_
*75 _036_
*76 _037_
*77 _038_
*78 _039_
*79 _040_
*80 _041_
*81 _042_
*82 _043_
*83 _044_
*84 _045_
*85 _046_
*86 _047_
*87 _048_
*88 _049_
*89 _050_
*90 _051_
*91 _052_
*92 _053_
*93 _054_
*94 _055_
*95 _056_
*96 _057_
*97 _058_
*98 _059_
*99 _060_
*100 _061_
*101 _062_
*102 _063_
*103 _064_
*104 _065_
*105 _066_
*106 _067_
*107 _068_
*108 _069_
*109 _070_
*110 _071_
*111 _072_
*112 _073_
*113 _074_
*114 _075_
*115 _076_
*116 _077_
*117 _078_
*118 _079_
*119 _080_
*120 _081_
*121 _082_
*122 _083_
*123 _084_
*124 _085_
*125 _086_
*126 _087_
*127 _088_
*128 _089_
*129 _090_
*130 _091_
*131 _092_
*132 _093_
*133 _094_
*134 _095_
*135 _096_
*136 _097_
*137 _098_
*138 _099_
*139 _100_
*140 _101_
*141 _102_
*142 _103_
*143 _104_
*144 _105_
*145 _106_
*146 _107_
*147 _108_
*148 _109_
*149 _110_
*150 _111_
*151 _112_
*152 _113_
*153 _114_
*154 _115_
*155 _116_
*156 _117_
*157 _118_
*158 _119_
*159 _120_
*160 _121_
*161 _122_
*162 _123_
*163 _124_
*164 _125_
*165 _126_
*166 _127_
*167 _128_
*168 _129_
*169 _130_
*170 _131_
*171 _132_
*172 _133_
*173 _134_
*174 _135_
*175 _136_
*176 _137_
*177 _138_
*178 _139_
*179 _140_
*180 _141_
*181 _142_
*182 _143_
*183 _144_
*184 _145_
*185 _146_
*186 _147_
*187 _148_
*188 _149_
*189 _150_
*190 _151_
*191 _152_
*192 _153_
*193 _154_
*194 _155_
*195 _156_
*196 _157_
*197 _158_
*198 _159_
*199 _160_
*200 _161_
*201 _162_
*202 _163_
*203 _164_
*204 _165_
*205 _166_
*206 _167_
*207 _168_
*208 _169_
*209 _170_
*210 _171_
*211 _172_
*212 _173_
*213 _174_
*214 _175_
*215 _176_
*216 _177_
*217 _178_
*218 _179_
*219 _180_
*220 _181_
*221 _182_
*222 _183_
*223 _184_
*224 _185_
*225 _186_
*226 _187_
*227 _188_
*228 _189_
*229 _190_
*230 _191_
*231 _192_
*232 _193_
*233 _194_
*234 _195_
*235 _196_
*236 _197_
*237 _198_
*238 _199_
*239 _200_
*240 _201_
*241 _202_
*242 _203_
*243 _204_
*244 _205_
*245 _206_
*246 _207_
*247 _208_
*248 _209_
*249 _210_
*250 _211_
*251 _212_
*252 _213_
*253 _214_
*254 _215_
*255 c[0]
*256 c[10]
*257 c[11]
*258 c[12]
*259 c[13]
*260 c[14]
*261 c[15]
*262 c[16]
*263 c[17]
*264 c[18]
*265 c[19]
*266 c[1]
*267 c[20]
*268 c[21]
*269 c[22]
*270 c[23]
*271 c[24]
*272 c[25]
*273 c[26]
*274 c[27]
*275 c[28]
*276 c[29]
*277 c[2]
*278 c[30]
*279 c[31]
*280 c[3]
*281 c[4]
*282 c[5]
*283 c[6]
*284 c[7]
*285 c[8]
*286 c[9]
*1 clk
*287 clknet_0_clk
*288 clknet_3_0__leaf_clk
*289 clknet_3_1__leaf_clk
*290 clknet_3_2__leaf_clk
*291 clknet_3_3__leaf_clk
*292 clknet_3_4__leaf_clk
*293 clknet_3_5__leaf_clk
*294 clknet_3_6__leaf_clk
*295 clknet_3_7__leaf_clk
*296 net10
*297 net11
*298 net12
*299 net13
*300 net14
*301 net15
*302 net16
*303 net17
*304 net18
*305 net19
*306 net20
*307 net21
*308 net22
*309 net23
*310 net24
*311 net25
*312 net26
*313 net27
*314 net28
*315 net29
*316 net30
*317 net31
*318 net32
*319 net33
*320 net34
*321 net35
*322 net36
*323 net37
*324 net38
*325 net39
*326 net40
*327 net41
*328 net42
*329 net43
*330 net44
*331 net45
*332 net46
*333 net6
*334 net7
*335 net8
*336 net9
*2 p_reg
*3 rst
*337 s[0]
*338 s[10]
*339 s[11]
*340 s[12]
*341 s[13]
*342 s[14]
*343 s[15]
*344 s[16]
*345 s[17]
*346 s[18]
*347 s[19]
*348 s[1]
*349 s[20]
*350 s[21]
*351 s[22]
*352 s[23]
*353 s[24]
*354 s[25]
*355 s[26]
*356 s[27]
*357 s[28]
*358 s[29]
*359 s[2]
*360 s[30]
*361 s[3]
*362 s[4]
*363 s[5]
*364 s[6]
*365 s[7]
*366 s[8]
*367 s[9]
*368 spare_tielo
*4 x[0]
*5 x[10]
*6 x[11]
*7 x[12]
*8 x[13]
*9 x[14]
*10 x[15]
*11 x[16]
*12 x[17]
*13 x[18]
*14 x[19]
*15 x[1]
*16 x[20]
*17 x[21]
*18 x[22]
*19 x[23]
*20 x[24]
*21 x[25]
*22 x[26]
*23 x[27]
*24 x[28]
*25 x[29]
*26 x[2]
*27 x[30]
*28 x[31]
*29 x[3]
*30 x[4]
*31 x[5]
*32 x[6]
*33 x[7]
*34 x[8]
*35 x[9]
*36 y
*369 y_rep[0]
*370 FILLER_0_0
*371 FILLER_0_114
*372 FILLER_0_118
*373 FILLER_0_122
*374 FILLER_0_138
*375 FILLER_0_142
*376 FILLER_0_146
*377 FILLER_0_162
*378 FILLER_0_166
*379 FILLER_0_17
*380 FILLER_0_170
*381 FILLER_0_186
*382 FILLER_0_190
*383 FILLER_0_194
*384 FILLER_0_21
*385 FILLER_0_210
*386 FILLER_0_214
*387 FILLER_0_218
*388 FILLER_0_23
*389 FILLER_0_234
*390 FILLER_0_238
*391 FILLER_0_242
*392 FILLER_0_258
*393 FILLER_0_26
*394 FILLER_0_262
*395 FILLER_0_266
*396 FILLER_0_282
*397 FILLER_0_286
*398 FILLER_0_290
*399 FILLER_0_306
*400 FILLER_0_310
*401 FILLER_0_314
*402 FILLER_0_330
*403 FILLER_0_334
*404 FILLER_0_338
*405 FILLER_0_354
*406 FILLER_0_358
*407 FILLER_0_362
*408 FILLER_0_366
*409 FILLER_0_368
*410 FILLER_0_42
*411 FILLER_0_46
*412 FILLER_0_59
*413 FILLER_0_67
*414 FILLER_0_71
*415 FILLER_0_74
*416 FILLER_0_82
*417 FILLER_0_9
*418 FILLER_0_94
*419 FILLER_0_98
*420 FILLER_10_0
*421 FILLER_10_109
*422 FILLER_10_127
*423 FILLER_10_159
*424 FILLER_10_16
*425 FILLER_10_177
*426 FILLER_10_209
*427 FILLER_10_227
*428 FILLER_10_24
*429 FILLER_10_259
*430 FILLER_10_27
*431 FILLER_10_277
*432 FILLER_10_309
*433 FILLER_10_327
*434 FILLER_10_359
*435 FILLER_10_367
*436 FILLER_10_59
*437 FILLER_10_77
*438 FILLER_11_0
*439 FILLER_11_102
*440 FILLER_11_134
*441 FILLER_11_152
*442 FILLER_11_184
*443 FILLER_11_202
*444 FILLER_11_234
*445 FILLER_11_252
*446 FILLER_11_284
*447 FILLER_11_302
*448 FILLER_11_32
*449 FILLER_11_334
*450 FILLER_11_352
*451 FILLER_11_368
*452 FILLER_11_48
*453 FILLER_11_52
*454 FILLER_11_84
*455 FILLER_12_0
*456 FILLER_12_109
*457 FILLER_12_127
*458 FILLER_12_159
*459 FILLER_12_16
*460 FILLER_12_177
*461 FILLER_12_209
*462 FILLER_12_227
*463 FILLER_12_24
*464 FILLER_12_259
*465 FILLER_12_27
*466 FILLER_12_277
*467 FILLER_12_309
*468 FILLER_12_327
*469 FILLER_12_359
*470 FILLER_12_367
*471 FILLER_12_59
*472 FILLER_12_77
*473 FILLER_13_0
*474 FILLER_13_102
*475 FILLER_13_134
*476 FILLER_13_152
*477 FILLER_13_184
*478 FILLER_13_202
*479 FILLER_13_234
*480 FILLER_13_252
*481 FILLER_13_284
*482 FILLER_13_302
*483 FILLER_13_32
*484 FILLER_13_334
*485 FILLER_13_352
*486 FILLER_13_368
*487 FILLER_13_48
*488 FILLER_13_52
*489 FILLER_13_84
*490 FILLER_14_0
*491 FILLER_14_109
*492 FILLER_14_127
*493 FILLER_14_159
*494 FILLER_14_16
*495 FILLER_14_177
*496 FILLER_14_209
*497 FILLER_14_227
*498 FILLER_14_24
*499 FILLER_14_259
*500 FILLER_14_27
*501 FILLER_14_277
*502 FILLER_14_309
*503 FILLER_14_327
*504 FILLER_14_359
*505 FILLER_14_367
*506 FILLER_14_59
*507 FILLER_14_77
*508 FILLER_15_0
*509 FILLER_15_102
*510 FILLER_15_134
*511 FILLER_15_152
*512 FILLER_15_184
*513 FILLER_15_202
*514 FILLER_15_234
*515 FILLER_15_252
*516 FILLER_15_284
*517 FILLER_15_302
*518 FILLER_15_32
*519 FILLER_15_334
*520 FILLER_15_352
*521 FILLER_15_368
*522 FILLER_15_48
*523 FILLER_15_52
*524 FILLER_15_84
*525 FILLER_16_0
*526 FILLER_16_109
*527 FILLER_16_127
*528 FILLER_16_159
*529 FILLER_16_16
*530 FILLER_16_177
*531 FILLER_16_209
*532 FILLER_16_227
*533 FILLER_16_24
*534 FILLER_16_259
*535 FILLER_16_27
*536 FILLER_16_277
*537 FILLER_16_309
*538 FILLER_16_327
*539 FILLER_16_359
*540 FILLER_16_367
*541 FILLER_16_59
*542 FILLER_16_77
*543 FILLER_17_0
*544 FILLER_17_102
*545 FILLER_17_134
*546 FILLER_17_152
*547 FILLER_17_184
*548 FILLER_17_202
*549 FILLER_17_234
*550 FILLER_17_252
*551 FILLER_17_284
*552 FILLER_17_302
*553 FILLER_17_32
*554 FILLER_17_334
*555 FILLER_17_352
*556 FILLER_17_368
*557 FILLER_17_48
*558 FILLER_17_52
*559 FILLER_17_84
*560 FILLER_18_0
*561 FILLER_18_109
*562 FILLER_18_127
*563 FILLER_18_159
*564 FILLER_18_16
*565 FILLER_18_177
*566 FILLER_18_209
*567 FILLER_18_227
*568 FILLER_18_24
*569 FILLER_18_259
*570 FILLER_18_27
*571 FILLER_18_277
*572 FILLER_18_309
*573 FILLER_18_327
*574 FILLER_18_359
*575 FILLER_18_367
*576 FILLER_18_59
*577 FILLER_18_77
*578 FILLER_19_0
*579 FILLER_19_102
*580 FILLER_19_135
*581 FILLER_19_143
*582 FILLER_19_147
*583 FILLER_19_149
*584 FILLER_19_152
*585 FILLER_19_156
*586 FILLER_19_186
*587 FILLER_19_194
*588 FILLER_19_198
*589 FILLER_19_202
*590 FILLER_19_234
*591 FILLER_19_252
*592 FILLER_19_284
*593 FILLER_19_302
*594 FILLER_19_32
*595 FILLER_19_334
*596 FILLER_19_352
*597 FILLER_19_368
*598 FILLER_19_48
*599 FILLER_19_52
*600 FILLER_19_68
*601 FILLER_19_98
*602 FILLER_1_0
*603 FILLER_1_102
*604 FILLER_1_134
*605 FILLER_1_152
*606 FILLER_1_184
*607 FILLER_1_202
*608 FILLER_1_234
*609 FILLER_1_252
*610 FILLER_1_284
*611 FILLER_1_302
*612 FILLER_1_32
*613 FILLER_1_334
*614 FILLER_1_352
*615 FILLER_1_368
*616 FILLER_1_48
*617 FILLER_1_52
*618 FILLER_1_84
*619 FILLER_20_0
*620 FILLER_20_109
*621 FILLER_20_133
*622 FILLER_20_16
*623 FILLER_20_173
*624 FILLER_20_177
*625 FILLER_20_193
*626 FILLER_20_201
*627 FILLER_20_205
*628 FILLER_20_222
*629 FILLER_20_224
*630 FILLER_20_227
*631 FILLER_20_231
*632 FILLER_20_233
*633 FILLER_20_24
*634 FILLER_20_263
*635 FILLER_20_27
*636 FILLER_20_271
*637 FILLER_20_277
*638 FILLER_20_309
*639 FILLER_20_327
*640 FILLER_20_359
*641 FILLER_20_367
*642 FILLER_20_59
*643 FILLER_20_77
*644 FILLER_21_0
*645 FILLER_21_102
*646 FILLER_21_110
*647 FILLER_21_134
*648 FILLER_21_152
*649 FILLER_21_160
*650 FILLER_21_162
*651 FILLER_21_178
*652 FILLER_21_194
*653 FILLER_21_198
*654 FILLER_21_231
*655 FILLER_21_239
*656 FILLER_21_247
*657 FILLER_21_249
*658 FILLER_21_280
*659 FILLER_21_296
*660 FILLER_21_302
*661 FILLER_21_32
*662 FILLER_21_334
*663 FILLER_21_352
*664 FILLER_21_368
*665 FILLER_21_48
*666 FILLER_21_52
*667 FILLER_21_84
*668 FILLER_22_0
*669 FILLER_22_115
*670 FILLER_22_137
*671 FILLER_22_153
*672 FILLER_22_16
*673 FILLER_22_161
*674 FILLER_22_177
*675 FILLER_22_181
*676 FILLER_22_211
*677 FILLER_22_219
*678 FILLER_22_223
*679 FILLER_22_227
*680 FILLER_22_24
*681 FILLER_22_243
*682 FILLER_22_245
*683 FILLER_22_27
*684 FILLER_22_312
*685 FILLER_22_320
*686 FILLER_22_324
*687 FILLER_22_327
*688 FILLER_22_359
*689 FILLER_22_367
*690 FILLER_22_59
*691 FILLER_22_83
*692 FILLER_23_0
*693 FILLER_23_102
*694 FILLER_23_118
*695 FILLER_23_122
*696 FILLER_23_132
*697 FILLER_23_148
*698 FILLER_23_152
*699 FILLER_23_156
*700 FILLER_23_158
*701 FILLER_23_177
*702 FILLER_23_193
*703 FILLER_23_197
*704 FILLER_23_199
*705 FILLER_23_202
*706 FILLER_23_206
*707 FILLER_23_208
*708 FILLER_23_232
*709 FILLER_23_248
*710 FILLER_23_252
*711 FILLER_23_254
*712 FILLER_23_271
*713 FILLER_23_287
*714 FILLER_23_295
*715 FILLER_23_299
*716 FILLER_23_302
*717 FILLER_23_32
*718 FILLER_23_334
*719 FILLER_23_352
*720 FILLER_23_368
*721 FILLER_23_48
*722 FILLER_23_52
*723 FILLER_23_56
*724 FILLER_23_58
*725 FILLER_23_88
*726 FILLER_23_96
*727 FILLER_24_0
*728 FILLER_24_114
*729 FILLER_24_122
*730 FILLER_24_124
*731 FILLER_24_127
*732 FILLER_24_16
*733 FILLER_24_167
*734 FILLER_24_177
*735 FILLER_24_209
*736 FILLER_24_227
*737 FILLER_24_24
*738 FILLER_24_259
*739 FILLER_24_27
*740 FILLER_24_277
*741 FILLER_24_285
*742 FILLER_24_289
*743 FILLER_24_320
*744 FILLER_24_324
*745 FILLER_24_327
*746 FILLER_24_359
*747 FILLER_24_367
*748 FILLER_24_60
*749 FILLER_24_64
*750 FILLER_24_77
*751 FILLER_24_98
*752 FILLER_25_0
*753 FILLER_25_131
*754 FILLER_25_147
*755 FILLER_25_149
*756 FILLER_25_152
*757 FILLER_25_184
*758 FILLER_25_202
*759 FILLER_25_210
*760 FILLER_25_214
*761 FILLER_25_223
*762 FILLER_25_239
*763 FILLER_25_247
*764 FILLER_25_249
*765 FILLER_25_252
*766 FILLER_25_284
*767 FILLER_25_310
*768 FILLER_25_32
*769 FILLER_25_342
*770 FILLER_25_352
*771 FILLER_25_368
*772 FILLER_25_48
*773 FILLER_25_52
*774 FILLER_25_68
*775 FILLER_25_88
*776 FILLER_25_96
*777 FILLER_26_0
*778 FILLER_26_105
*779 FILLER_26_123
*780 FILLER_26_127
*781 FILLER_26_143
*782 FILLER_26_145
*783 FILLER_26_16
*784 FILLER_26_177
*785 FILLER_26_185
*786 FILLER_26_189
*787 FILLER_26_191
*788 FILLER_26_200
*789 FILLER_26_220
*790 FILLER_26_224
*791 FILLER_26_227
*792 FILLER_26_235
*793 FILLER_26_237
*794 FILLER_26_24
*795 FILLER_26_267
*796 FILLER_26_27
*797 FILLER_26_277
*798 FILLER_26_293
*799 FILLER_26_307
*800 FILLER_26_323
*801 FILLER_26_327
*802 FILLER_26_359
*803 FILLER_26_367
*804 FILLER_26_49
*805 FILLER_26_65
*806 FILLER_26_73
*807 FILLER_26_77
*808 FILLER_26_89
*809 FILLER_27_102
*810 FILLER_27_110
*811 FILLER_27_122
*812 FILLER_27_160
*813 FILLER_27_192
*814 FILLER_27_202
*815 FILLER_27_206
*816 FILLER_27_237
*817 FILLER_27_245
*818 FILLER_27_249
*819 FILLER_27_252
*820 FILLER_27_268
*821 FILLER_27_277
*822 FILLER_27_285
*823 FILLER_27_289
*824 FILLER_27_314
*825 FILLER_27_346
*826 FILLER_27_352
*827 FILLER_27_368
*828 FILLER_27_52
*829 FILLER_27_84
*830 FILLER_28_0
*831 FILLER_28_109
*832 FILLER_28_127
*833 FILLER_28_131
*834 FILLER_28_16
*835 FILLER_28_170
*836 FILLER_28_174
*837 FILLER_28_177
*838 FILLER_28_185
*839 FILLER_28_209
*840 FILLER_28_220
*841 FILLER_28_224
*842 FILLER_28_227
*843 FILLER_28_235
*844 FILLER_28_239
*845 FILLER_28_241
*846 FILLER_28_258
*847 FILLER_28_262
*848 FILLER_28_283
*849 FILLER_28_291
*850 FILLER_28_295
*851 FILLER_28_297
*852 FILLER_28_308
*853 FILLER_28_324
*854 FILLER_28_327
*855 FILLER_28_329
*856 FILLER_28_359
*857 FILLER_28_367
*858 FILLER_28_56
*859 FILLER_28_72
*860 FILLER_28_74
*861 FILLER_28_77
*862 FILLER_29_102
*863 FILLER_29_110
*864 FILLER_29_112
*865 FILLER_29_119
*866 FILLER_29_135
*867 FILLER_29_143
*868 FILLER_29_147
*869 FILLER_29_149
*870 FILLER_29_158
*871 FILLER_29_176
*872 FILLER_29_192
*873 FILLER_29_202
*874 FILLER_29_210
*875 FILLER_29_214
*876 FILLER_29_216
*877 FILLER_29_223
*878 FILLER_29_227
*879 FILLER_29_229
*880 FILLER_29_244
*881 FILLER_29_291
*882 FILLER_29_299
*883 FILLER_29_302
*884 FILLER_29_332
*885 FILLER_29_348
*886 FILLER_29_352
*887 FILLER_29_368
*888 FILLER_29_61
*889 FILLER_29_69
*890 FILLER_29_73
*891 FILLER_29_75
*892 FILLER_29_82
*893 FILLER_29_98
*894 FILLER_2_0
*895 FILLER_2_109
*896 FILLER_2_127
*897 FILLER_2_159
*898 FILLER_2_16
*899 FILLER_2_177
*900 FILLER_2_209
*901 FILLER_2_227
*902 FILLER_2_24
*903 FILLER_2_259
*904 FILLER_2_27
*905 FILLER_2_277
*906 FILLER_2_309
*907 FILLER_2_327
*908 FILLER_2_359
*909 FILLER_2_367
*910 FILLER_2_59
*911 FILLER_2_77
*912 FILLER_30_0
*913 FILLER_30_102
*914 FILLER_30_104
*915 FILLER_30_113
*916 FILLER_30_121
*917 FILLER_30_127
*918 FILLER_30_159
*919 FILLER_30_16
*920 FILLER_30_177
*921 FILLER_30_209
*922 FILLER_30_227
*923 FILLER_30_24
*924 FILLER_30_259
*925 FILLER_30_263
*926 FILLER_30_265
*927 FILLER_30_27
*928 FILLER_30_277
*929 FILLER_30_293
*930 FILLER_30_297
*931 FILLER_30_315
*932 FILLER_30_323
*933 FILLER_30_327
*934 FILLER_30_349
*935 FILLER_30_365
*936 FILLER_30_54
*937 FILLER_30_70
*938 FILLER_30_74
*939 FILLER_30_85
*940 FILLER_30_98
*941 FILLER_31_102
*942 FILLER_31_135
*943 FILLER_31_143
*944 FILLER_31_147
*945 FILLER_31_149
*946 FILLER_31_152
*947 FILLER_31_184
*948 FILLER_31_199
*949 FILLER_31_202
*950 FILLER_31_234
*951 FILLER_31_252
*952 FILLER_31_268
*953 FILLER_31_286
*954 FILLER_31_294
*955 FILLER_31_298
*956 FILLER_31_302
*957 FILLER_31_334
*958 FILLER_31_352
*959 FILLER_31_368
*960 FILLER_31_52
*961 FILLER_31_98
*962 FILLER_32_0
*963 FILLER_32_116
*964 FILLER_32_124
*965 FILLER_32_127
*966 FILLER_32_159
*967 FILLER_32_16
*968 FILLER_32_206
*969 FILLER_32_222
*970 FILLER_32_224
*971 FILLER_32_237
*972 FILLER_32_24
*973 FILLER_32_269
*974 FILLER_32_273
*975 FILLER_32_277
*976 FILLER_32_309
*977 FILLER_32_327
*978 FILLER_32_359
*979 FILLER_32_367
*980 FILLER_32_56
*981 FILLER_32_72
*982 FILLER_32_74
*983 FILLER_32_77
*984 FILLER_32_79
*985 FILLER_32_86
*986 FILLER_32_94
*987 FILLER_33_102
*988 FILLER_33_110
*989 FILLER_33_143
*990 FILLER_33_147
*991 FILLER_33_149
*992 FILLER_33_152
*993 FILLER_33_156
*994 FILLER_33_158
*995 FILLER_33_177
*996 FILLER_33_193
*997 FILLER_33_197
*998 FILLER_33_199
*999 FILLER_33_202
*1000 FILLER_33_210
*1001 FILLER_33_248
*1002 FILLER_33_252
*1003 FILLER_33_284
*1004 FILLER_33_302
*1005 FILLER_33_335
*1006 FILLER_33_343
*1007 FILLER_33_347
*1008 FILLER_33_349
*1009 FILLER_33_352
*1010 FILLER_33_368
*1011 FILLER_33_52
*1012 FILLER_33_60
*1013 FILLER_33_64
*1014 FILLER_33_95
*1015 FILLER_33_99
*1016 FILLER_34_0
*1017 FILLER_34_109
*1018 FILLER_34_127
*1019 FILLER_34_146
*1020 FILLER_34_162
*1021 FILLER_34_170
*1022 FILLER_34_174
*1023 FILLER_34_177
*1024 FILLER_34_185
*1025 FILLER_34_195
*1026 FILLER_34_211
*1027 FILLER_34_219
*1028 FILLER_34_223
*1029 FILLER_34_235
*1030 FILLER_34_239
*1031 FILLER_34_241
*1032 FILLER_34_271
*1033 FILLER_34_277
*1034 FILLER_34_285
*1035 FILLER_34_289
*1036 FILLER_34_301
*1037 FILLER_34_305
*1038 FILLER_34_307
*1039 FILLER_34_314
*1040 FILLER_34_322
*1041 FILLER_34_324
*1042 FILLER_34_327
*1043 FILLER_34_335
*1044 FILLER_34_366
*1045 FILLER_34_368
*1046 FILLER_34_56
*1047 FILLER_34_72
*1048 FILLER_34_74
*1049 FILLER_34_77
*1050 FILLER_35_102
*1051 FILLER_35_118
*1052 FILLER_35_122
*1053 FILLER_35_124
*1054 FILLER_35_145
*1055 FILLER_35_149
*1056 FILLER_35_152
*1057 FILLER_35_184
*1058 FILLER_35_202
*1059 FILLER_35_234
*1060 FILLER_35_267
*1061 FILLER_35_322
*1062 FILLER_35_338
*1063 FILLER_35_363
*1064 FILLER_35_367
*1065 FILLER_35_52
*1066 FILLER_35_84
*1067 FILLER_36_0
*1068 FILLER_36_111
*1069 FILLER_36_119
*1070 FILLER_36_123
*1071 FILLER_36_127
*1072 FILLER_36_143
*1073 FILLER_36_160
*1074 FILLER_36_168
*1075 FILLER_36_172
*1076 FILLER_36_174
*1077 FILLER_36_177
*1078 FILLER_36_185
*1079 FILLER_36_189
*1080 FILLER_36_219
*1081 FILLER_36_223
*1082 FILLER_36_227
*1083 FILLER_36_243
*1084 FILLER_36_247
*1085 FILLER_36_257
*1086 FILLER_36_265
*1087 FILLER_36_269
*1088 FILLER_36_27
*1089 FILLER_36_277
*1090 FILLER_36_285
*1091 FILLER_36_289
*1092 FILLER_36_308
*1093 FILLER_36_31
*1094 FILLER_36_324
*1095 FILLER_36_327
*1096 FILLER_36_335
*1097 FILLER_36_337
*1098 FILLER_36_361
*1099 FILLER_36_44
*1100 FILLER_36_74
*1101 FILLER_36_77
*1102 FILLER_36_8
*1103 FILLER_36_85
*1104 FILLER_36_95
*1105 FILLER_37_102
*1106 FILLER_37_134
*1107 FILLER_37_138
*1108 FILLER_37_152
*1109 FILLER_37_156
*1110 FILLER_37_172
*1111 FILLER_37_188
*1112 FILLER_37_192
*1113 FILLER_37_210
*1114 FILLER_37_242
*1115 FILLER_37_252
*1116 FILLER_37_284
*1117 FILLER_37_302
*1118 FILLER_37_334
*1119 FILLER_37_352
*1120 FILLER_37_368
*1121 FILLER_37_60
*1122 FILLER_37_95
*1123 FILLER_37_99
*1124 FILLER_38_0
*1125 FILLER_38_101
*1126 FILLER_38_117
*1127 FILLER_38_127
*1128 FILLER_38_143
*1129 FILLER_38_145
*1130 FILLER_38_16
*1131 FILLER_38_177
*1132 FILLER_38_185
*1133 FILLER_38_189
*1134 FILLER_38_220
*1135 FILLER_38_224
*1136 FILLER_38_227
*1137 FILLER_38_24
*1138 FILLER_38_243
*1139 FILLER_38_274
*1140 FILLER_38_277
*1141 FILLER_38_309
*1142 FILLER_38_327
*1143 FILLER_38_331
*1144 FILLER_38_362
*1145 FILLER_38_366
*1146 FILLER_38_368
*1147 FILLER_38_56
*1148 FILLER_38_64
*1149 FILLER_38_66
*1150 FILLER_38_77
*1151 FILLER_39_102
*1152 FILLER_39_106
*1153 FILLER_39_108
*1154 FILLER_39_138
*1155 FILLER_39_146
*1156 FILLER_39_152
*1157 FILLER_39_184
*1158 FILLER_39_202
*1159 FILLER_39_206
*1160 FILLER_39_236
*1161 FILLER_39_244
*1162 FILLER_39_248
*1163 FILLER_39_252
*1164 FILLER_39_284
*1165 FILLER_39_302
*1166 FILLER_39_310
*1167 FILLER_39_337
*1168 FILLER_39_345
*1169 FILLER_39_349
*1170 FILLER_39_352
*1171 FILLER_39_368
*1172 FILLER_39_52
*1173 FILLER_39_60
*1174 FILLER_39_64
*1175 FILLER_39_95
*1176 FILLER_39_99
*1177 FILLER_3_0
*1178 FILLER_3_102
*1179 FILLER_3_134
*1180 FILLER_3_152
*1181 FILLER_3_184
*1182 FILLER_3_202
*1183 FILLER_3_234
*1184 FILLER_3_252
*1185 FILLER_3_284
*1186 FILLER_3_302
*1187 FILLER_3_32
*1188 FILLER_3_334
*1189 FILLER_3_352
*1190 FILLER_3_368
*1191 FILLER_3_48
*1192 FILLER_3_52
*1193 FILLER_3_84
*1194 FILLER_40_0
*1195 FILLER_40_109
*1196 FILLER_40_127
*1197 FILLER_40_159
*1198 FILLER_40_16
*1199 FILLER_40_216
*1200 FILLER_40_224
*1201 FILLER_40_227
*1202 FILLER_40_24
*1203 FILLER_40_243
*1204 FILLER_40_251
*1205 FILLER_40_255
*1206 FILLER_40_257
*1207 FILLER_40_27
*1208 FILLER_40_272
*1209 FILLER_40_274
*1210 FILLER_40_277
*1211 FILLER_40_281
*1212 FILLER_40_283
*1213 FILLER_40_31
*1214 FILLER_40_313
*1215 FILLER_40_321
*1216 FILLER_40_327
*1217 FILLER_40_33
*1218 FILLER_40_341
*1219 FILLER_40_357
*1220 FILLER_40_365
*1221 FILLER_40_50
*1222 FILLER_40_66
*1223 FILLER_40_74
*1224 FILLER_40_77
*1225 FILLER_41_102
*1226 FILLER_41_110
*1227 FILLER_41_117
*1228 FILLER_41_135
*1229 FILLER_41_143
*1230 FILLER_41_147
*1231 FILLER_41_149
*1232 FILLER_41_152
*1233 FILLER_41_184
*1234 FILLER_41_202
*1235 FILLER_41_218
*1236 FILLER_41_222
*1237 FILLER_41_224
*1238 FILLER_41_229
*1239 FILLER_41_245
*1240 FILLER_41_249
*1241 FILLER_41_252
*1242 FILLER_41_254
*1243 FILLER_41_276
*1244 FILLER_41_288
*1245 FILLER_41_296
*1246 FILLER_41_302
*1247 FILLER_41_310
*1248 FILLER_41_312
*1249 FILLER_41_342
*1250 FILLER_41_352
*1251 FILLER_41_368
*1252 FILLER_41_52
*1253 FILLER_41_84
*1254 FILLER_42_0
*1255 FILLER_42_107
*1256 FILLER_42_123
*1257 FILLER_42_136
*1258 FILLER_42_173
*1259 FILLER_42_185
*1260 FILLER_42_217
*1261 FILLER_42_227
*1262 FILLER_42_235
*1263 FILLER_42_239
*1264 FILLER_42_27
*1265 FILLER_42_273
*1266 FILLER_42_285
*1267 FILLER_42_301
*1268 FILLER_42_308
*1269 FILLER_42_31
*1270 FILLER_42_312
*1271 FILLER_42_314
*1272 FILLER_42_333
*1273 FILLER_42_365
*1274 FILLER_42_61
*1275 FILLER_42_69
*1276 FILLER_42_73
*1277 FILLER_42_77
*1278 FILLER_42_8
*1279 FILLER_42_93
*1280 FILLER_42_97
*1281 FILLER_43_143
*1282 FILLER_43_190
*1283 FILLER_43_198
*1284 FILLER_43_202
*1285 FILLER_43_218
*1286 FILLER_43_226
*1287 FILLER_43_230
*1288 FILLER_43_240
*1289 FILLER_43_248
*1290 FILLER_43_252
*1291 FILLER_43_268
*1292 FILLER_43_280
*1293 FILLER_43_296
*1294 FILLER_43_302
*1295 FILLER_43_318
*1296 FILLER_43_324
*1297 FILLER_43_340
*1298 FILLER_43_348
*1299 FILLER_43_352
*1300 FILLER_43_368
*1301 FILLER_43_52
*1302 FILLER_43_84
*1303 FILLER_43_88
*1304 FILLER_44_0
*1305 FILLER_44_106
*1306 FILLER_44_12
*1307 FILLER_44_122
*1308 FILLER_44_124
*1309 FILLER_44_127
*1310 FILLER_44_14
*1311 FILLER_44_143
*1312 FILLER_44_160
*1313 FILLER_44_168
*1314 FILLER_44_172
*1315 FILLER_44_174
*1316 FILLER_44_177
*1317 FILLER_44_193
*1318 FILLER_44_224
*1319 FILLER_44_227
*1320 FILLER_44_23
*1321 FILLER_44_231
*1322 FILLER_44_250
*1323 FILLER_44_266
*1324 FILLER_44_274
*1325 FILLER_44_277
*1326 FILLER_44_322
*1327 FILLER_44_324
*1328 FILLER_44_327
*1329 FILLER_44_359
*1330 FILLER_44_367
*1331 FILLER_44_47
*1332 FILLER_44_63
*1333 FILLER_44_71
*1334 FILLER_44_77
*1335 FILLER_44_8
*1336 FILLER_44_93
*1337 FILLER_44_97
*1338 FILLER_45_0
*1339 FILLER_45_102
*1340 FILLER_45_134
*1341 FILLER_45_152
*1342 FILLER_45_184
*1343 FILLER_45_2
*1344 FILLER_45_202
*1345 FILLER_45_206
*1346 FILLER_45_208
*1347 FILLER_45_244
*1348 FILLER_45_248
*1349 FILLER_45_252
*1350 FILLER_45_284
*1351 FILLER_45_302
*1352 FILLER_45_334
*1353 FILLER_45_352
*1354 FILLER_45_368
*1355 FILLER_45_42
*1356 FILLER_45_52
*1357 FILLER_45_97
*1358 FILLER_45_99
*1359 FILLER_46_0
*1360 FILLER_46_117
*1361 FILLER_46_127
*1362 FILLER_46_158
*1363 FILLER_46_16
*1364 FILLER_46_174
*1365 FILLER_46_182
*1366 FILLER_46_198
*1367 FILLER_46_202
*1368 FILLER_46_211
*1369 FILLER_46_213
*1370 FILLER_46_220
*1371 FILLER_46_224
*1372 FILLER_46_227
*1373 FILLER_46_24
*1374 FILLER_46_259
*1375 FILLER_46_277
*1376 FILLER_46_285
*1377 FILLER_46_289
*1378 FILLER_46_302
*1379 FILLER_46_318
*1380 FILLER_46_322
*1381 FILLER_46_324
*1382 FILLER_46_327
*1383 FILLER_46_335
*1384 FILLER_46_35
*1385 FILLER_46_368
*1386 FILLER_46_51
*1387 FILLER_46_55
*1388 FILLER_46_85
*1389 FILLER_47_0
*1390 FILLER_47_114
*1391 FILLER_47_122
*1392 FILLER_47_144
*1393 FILLER_47_148
*1394 FILLER_47_152
*1395 FILLER_47_162
*1396 FILLER_47_164
*1397 FILLER_47_189
*1398 FILLER_47_199
*1399 FILLER_47_2
*1400 FILLER_47_202
*1401 FILLER_47_218
*1402 FILLER_47_222
*1403 FILLER_47_224
*1404 FILLER_47_231
*1405 FILLER_47_247
*1406 FILLER_47_249
*1407 FILLER_47_262
*1408 FILLER_47_270
*1409 FILLER_47_274
*1410 FILLER_47_276
*1411 FILLER_47_302
*1412 FILLER_47_318
*1413 FILLER_47_326
*1414 FILLER_47_358
*1415 FILLER_47_366
*1416 FILLER_47_368
*1417 FILLER_47_40
*1418 FILLER_47_48
*1419 FILLER_47_52
*1420 FILLER_47_60
*1421 FILLER_47_64
*1422 FILLER_47_74
*1423 FILLER_47_90
*1424 FILLER_47_98
*1425 FILLER_48_0
*1426 FILLER_48_113
*1427 FILLER_48_121
*1428 FILLER_48_127
*1429 FILLER_48_129
*1430 FILLER_48_138
*1431 FILLER_48_206
*1432 FILLER_48_214
*1433 FILLER_48_216
*1434 FILLER_48_223
*1435 FILLER_48_235
*1436 FILLER_48_239
*1437 FILLER_48_27
*1438 FILLER_48_270
*1439 FILLER_48_274
*1440 FILLER_48_277
*1441 FILLER_48_307
*1442 FILLER_48_323
*1443 FILLER_48_362
*1444 FILLER_48_366
*1445 FILLER_48_368
*1446 FILLER_48_4
*1447 FILLER_48_57
*1448 FILLER_48_61
*1449 FILLER_48_77
*1450 FILLER_48_93
*1451 FILLER_48_97
*1452 FILLER_49_0
*1453 FILLER_49_131
*1454 FILLER_49_139
*1455 FILLER_49_143
*1456 FILLER_49_152
*1457 FILLER_49_208
*1458 FILLER_49_246
*1459 FILLER_49_252
*1460 FILLER_49_270
*1461 FILLER_49_278
*1462 FILLER_49_297
*1463 FILLER_49_299
*1464 FILLER_49_331
*1465 FILLER_49_348
*1466 FILLER_49_35
*1467 FILLER_49_352
*1468 FILLER_49_368
*1469 FILLER_49_43
*1470 FILLER_49_47
*1471 FILLER_49_49
*1472 FILLER_49_52
*1473 FILLER_49_56
*1474 FILLER_49_8
*1475 FILLER_49_86
*1476 FILLER_49_94
*1477 FILLER_49_98
*1478 FILLER_4_0
*1479 FILLER_4_109
*1480 FILLER_4_127
*1481 FILLER_4_159
*1482 FILLER_4_16
*1483 FILLER_4_177
*1484 FILLER_4_209
*1485 FILLER_4_227
*1486 FILLER_4_24
*1487 FILLER_4_259
*1488 FILLER_4_27
*1489 FILLER_4_277
*1490 FILLER_4_309
*1491 FILLER_4_327
*1492 FILLER_4_359
*1493 FILLER_4_367
*1494 FILLER_4_59
*1495 FILLER_4_77
*1496 FILLER_50_0
*1497 FILLER_50_101
*1498 FILLER_50_113
*1499 FILLER_50_121
*1500 FILLER_50_127
*1501 FILLER_50_16
*1502 FILLER_50_192
*1503 FILLER_50_205
*1504 FILLER_50_223
*1505 FILLER_50_24
*1506 FILLER_50_251
*1507 FILLER_50_267
*1508 FILLER_50_27
*1509 FILLER_50_277
*1510 FILLER_50_285
*1511 FILLER_50_287
*1512 FILLER_50_293
*1513 FILLER_50_302
*1514 FILLER_50_318
*1515 FILLER_50_322
*1516 FILLER_50_324
*1517 FILLER_50_327
*1518 FILLER_50_359
*1519 FILLER_50_367
*1520 FILLER_50_73
*1521 FILLER_50_77
*1522 FILLER_50_93
*1523 FILLER_51_0
*1524 FILLER_51_114
*1525 FILLER_51_118
*1526 FILLER_51_122
*1527 FILLER_51_130
*1528 FILLER_51_146
*1529 FILLER_51_16
*1530 FILLER_51_194
*1531 FILLER_51_196
*1532 FILLER_51_215
*1533 FILLER_51_236
*1534 FILLER_51_26
*1535 FILLER_51_260
*1536 FILLER_51_266
*1537 FILLER_51_282
*1538 FILLER_51_286
*1539 FILLER_51_290
*1540 FILLER_51_306
*1541 FILLER_51_310
*1542 FILLER_51_314
*1543 FILLER_51_330
*1544 FILLER_51_334
*1545 FILLER_51_338
*1546 FILLER_51_354
*1547 FILLER_51_358
*1548 FILLER_51_362
*1549 FILLER_51_366
*1550 FILLER_51_368
*1551 FILLER_51_42
*1552 FILLER_51_46
*1553 FILLER_51_50
*1554 FILLER_51_66
*1555 FILLER_51_70
*1556 FILLER_51_74
*1557 FILLER_51_90
*1558 FILLER_51_94
*1559 FILLER_51_98
*1560 FILLER_5_0
*1561 FILLER_5_102
*1562 FILLER_5_134
*1563 FILLER_5_152
*1564 FILLER_5_184
*1565 FILLER_5_202
*1566 FILLER_5_234
*1567 FILLER_5_252
*1568 FILLER_5_284
*1569 FILLER_5_302
*1570 FILLER_5_32
*1571 FILLER_5_334
*1572 FILLER_5_352
*1573 FILLER_5_368
*1574 FILLER_5_48
*1575 FILLER_5_52
*1576 FILLER_5_84
*1577 FILLER_6_0
*1578 FILLER_6_109
*1579 FILLER_6_127
*1580 FILLER_6_159
*1581 FILLER_6_16
*1582 FILLER_6_177
*1583 FILLER_6_209
*1584 FILLER_6_227
*1585 FILLER_6_24
*1586 FILLER_6_259
*1587 FILLER_6_27
*1588 FILLER_6_277
*1589 FILLER_6_309
*1590 FILLER_6_327
*1591 FILLER_6_359
*1592 FILLER_6_367
*1593 FILLER_6_59
*1594 FILLER_6_77
*1595 FILLER_7_0
*1596 FILLER_7_102
*1597 FILLER_7_134
*1598 FILLER_7_152
*1599 FILLER_7_184
*1600 FILLER_7_202
*1601 FILLER_7_234
*1602 FILLER_7_252
*1603 FILLER_7_284
*1604 FILLER_7_302
*1605 FILLER_7_32
*1606 FILLER_7_334
*1607 FILLER_7_352
*1608 FILLER_7_368
*1609 FILLER_7_48
*1610 FILLER_7_52
*1611 FILLER_7_84
*1612 FILLER_8_0
*1613 FILLER_8_115
*1614 FILLER_8_123
*1615 FILLER_8_127
*1616 FILLER_8_159
*1617 FILLER_8_16
*1618 FILLER_8_177
*1619 FILLER_8_209
*1620 FILLER_8_227
*1621 FILLER_8_24
*1622 FILLER_8_259
*1623 FILLER_8_27
*1624 FILLER_8_277
*1625 FILLER_8_309
*1626 FILLER_8_327
*1627 FILLER_8_359
*1628 FILLER_8_367
*1629 FILLER_8_43
*1630 FILLER_8_58
*1631 FILLER_8_74
*1632 FILLER_8_77
*1633 FILLER_8_81
*1634 FILLER_8_83
*1635 FILLER_9_0
*1636 FILLER_9_102
*1637 FILLER_9_134
*1638 FILLER_9_152
*1639 FILLER_9_18
*1640 FILLER_9_184
*1641 FILLER_9_202
*1642 FILLER_9_234
*1643 FILLER_9_252
*1644 FILLER_9_284
*1645 FILLER_9_302
*1646 FILLER_9_334
*1647 FILLER_9_352
*1648 FILLER_9_368
*1649 FILLER_9_4
*1650 FILLER_9_52
*1651 FILLER_9_84
*1652 TAP_TAPCELL_ROW_0_0
*1653 TAP_TAPCELL_ROW_0_1
*1654 TAP_TAPCELL_ROW_0_10
*1655 TAP_TAPCELL_ROW_0_11
*1656 TAP_TAPCELL_ROW_0_12
*1657 TAP_TAPCELL_ROW_0_13
*1658 TAP_TAPCELL_ROW_0_14
*1659 TAP_TAPCELL_ROW_0_2
*1660 TAP_TAPCELL_ROW_0_3
*1661 TAP_TAPCELL_ROW_0_4
*1662 TAP_TAPCELL_ROW_0_5
*1663 TAP_TAPCELL_ROW_0_6
*1664 TAP_TAPCELL_ROW_0_7
*1665 TAP_TAPCELL_ROW_0_8
*1666 TAP_TAPCELL_ROW_0_9
*1667 TAP_TAPCELL_ROW_10_78
*1668 TAP_TAPCELL_ROW_10_79
*1669 TAP_TAPCELL_ROW_10_80
*1670 TAP_TAPCELL_ROW_10_81
*1671 TAP_TAPCELL_ROW_10_82
*1672 TAP_TAPCELL_ROW_10_83
*1673 TAP_TAPCELL_ROW_10_84
*1674 TAP_TAPCELL_ROW_11_85
*1675 TAP_TAPCELL_ROW_11_86
*1676 TAP_TAPCELL_ROW_11_87
*1677 TAP_TAPCELL_ROW_11_88
*1678 TAP_TAPCELL_ROW_11_89
*1679 TAP_TAPCELL_ROW_11_90
*1680 TAP_TAPCELL_ROW_11_91
*1681 TAP_TAPCELL_ROW_12_92
*1682 TAP_TAPCELL_ROW_12_93
*1683 TAP_TAPCELL_ROW_12_94
*1684 TAP_TAPCELL_ROW_12_95
*1685 TAP_TAPCELL_ROW_12_96
*1686 TAP_TAPCELL_ROW_12_97
*1687 TAP_TAPCELL_ROW_12_98
*1688 TAP_TAPCELL_ROW_13_100
*1689 TAP_TAPCELL_ROW_13_101
*1690 TAP_TAPCELL_ROW_13_102
*1691 TAP_TAPCELL_ROW_13_103
*1692 TAP_TAPCELL_ROW_13_104
*1693 TAP_TAPCELL_ROW_13_105
*1694 TAP_TAPCELL_ROW_13_99
*1695 TAP_TAPCELL_ROW_14_106
*1696 TAP_TAPCELL_ROW_14_107
*1697 TAP_TAPCELL_ROW_14_108
*1698 TAP_TAPCELL_ROW_14_109
*1699 TAP_TAPCELL_ROW_14_110
*1700 TAP_TAPCELL_ROW_14_111
*1701 TAP_TAPCELL_ROW_14_112
*1702 TAP_TAPCELL_ROW_15_113
*1703 TAP_TAPCELL_ROW_15_114
*1704 TAP_TAPCELL_ROW_15_115
*1705 TAP_TAPCELL_ROW_15_116
*1706 TAP_TAPCELL_ROW_15_117
*1707 TAP_TAPCELL_ROW_15_118
*1708 TAP_TAPCELL_ROW_15_119
*1709 TAP_TAPCELL_ROW_16_120
*1710 TAP_TAPCELL_ROW_16_121
*1711 TAP_TAPCELL_ROW_16_122
*1712 TAP_TAPCELL_ROW_16_123
*1713 TAP_TAPCELL_ROW_16_124
*1714 TAP_TAPCELL_ROW_16_125
*1715 TAP_TAPCELL_ROW_16_126
*1716 TAP_TAPCELL_ROW_17_127
*1717 TAP_TAPCELL_ROW_17_128
*1718 TAP_TAPCELL_ROW_17_129
*1719 TAP_TAPCELL_ROW_17_130
*1720 TAP_TAPCELL_ROW_17_131
*1721 TAP_TAPCELL_ROW_17_132
*1722 TAP_TAPCELL_ROW_17_133
*1723 TAP_TAPCELL_ROW_18_134
*1724 TAP_TAPCELL_ROW_18_135
*1725 TAP_TAPCELL_ROW_18_136
*1726 TAP_TAPCELL_ROW_18_137
*1727 TAP_TAPCELL_ROW_18_138
*1728 TAP_TAPCELL_ROW_18_139
*1729 TAP_TAPCELL_ROW_18_140
*1730 TAP_TAPCELL_ROW_19_141
*1731 TAP_TAPCELL_ROW_19_142
*1732 TAP_TAPCELL_ROW_19_143
*1733 TAP_TAPCELL_ROW_19_144
*1734 TAP_TAPCELL_ROW_19_145
*1735 TAP_TAPCELL_ROW_19_146
*1736 TAP_TAPCELL_ROW_19_147
*1737 TAP_TAPCELL_ROW_1_15
*1738 TAP_TAPCELL_ROW_1_16
*1739 TAP_TAPCELL_ROW_1_17
*1740 TAP_TAPCELL_ROW_1_18
*1741 TAP_TAPCELL_ROW_1_19
*1742 TAP_TAPCELL_ROW_1_20
*1743 TAP_TAPCELL_ROW_1_21
*1744 TAP_TAPCELL_ROW_20_148
*1745 TAP_TAPCELL_ROW_20_149
*1746 TAP_TAPCELL_ROW_20_150
*1747 TAP_TAPCELL_ROW_20_151
*1748 TAP_TAPCELL_ROW_20_152
*1749 TAP_TAPCELL_ROW_20_153
*1750 TAP_TAPCELL_ROW_20_154
*1751 TAP_TAPCELL_ROW_21_155
*1752 TAP_TAPCELL_ROW_21_156
*1753 TAP_TAPCELL_ROW_21_157
*1754 TAP_TAPCELL_ROW_21_158
*1755 TAP_TAPCELL_ROW_21_159
*1756 TAP_TAPCELL_ROW_21_160
*1757 TAP_TAPCELL_ROW_21_161
*1758 TAP_TAPCELL_ROW_22_162
*1759 TAP_TAPCELL_ROW_22_163
*1760 TAP_TAPCELL_ROW_22_164
*1761 TAP_TAPCELL_ROW_22_165
*1762 TAP_TAPCELL_ROW_22_166
*1763 TAP_TAPCELL_ROW_22_167
*1764 TAP_TAPCELL_ROW_22_168
*1765 TAP_TAPCELL_ROW_23_169
*1766 TAP_TAPCELL_ROW_23_170
*1767 TAP_TAPCELL_ROW_23_171
*1768 TAP_TAPCELL_ROW_23_172
*1769 TAP_TAPCELL_ROW_23_173
*1770 TAP_TAPCELL_ROW_23_174
*1771 TAP_TAPCELL_ROW_23_175
*1772 TAP_TAPCELL_ROW_24_176
*1773 TAP_TAPCELL_ROW_24_177
*1774 TAP_TAPCELL_ROW_24_178
*1775 TAP_TAPCELL_ROW_24_179
*1776 TAP_TAPCELL_ROW_24_180
*1777 TAP_TAPCELL_ROW_24_181
*1778 TAP_TAPCELL_ROW_24_182
*1779 TAP_TAPCELL_ROW_25_183
*1780 TAP_TAPCELL_ROW_25_184
*1781 TAP_TAPCELL_ROW_25_185
*1782 TAP_TAPCELL_ROW_25_186
*1783 TAP_TAPCELL_ROW_25_187
*1784 TAP_TAPCELL_ROW_25_188
*1785 TAP_TAPCELL_ROW_25_189
*1786 TAP_TAPCELL_ROW_26_190
*1787 TAP_TAPCELL_ROW_26_191
*1788 TAP_TAPCELL_ROW_26_192
*1789 TAP_TAPCELL_ROW_26_193
*1790 TAP_TAPCELL_ROW_26_194
*1791 TAP_TAPCELL_ROW_26_195
*1792 TAP_TAPCELL_ROW_26_196
*1793 TAP_TAPCELL_ROW_27_197
*1794 TAP_TAPCELL_ROW_27_198
*1795 TAP_TAPCELL_ROW_27_199
*1796 TAP_TAPCELL_ROW_27_200
*1797 TAP_TAPCELL_ROW_27_201
*1798 TAP_TAPCELL_ROW_27_202
*1799 TAP_TAPCELL_ROW_27_203
*1800 TAP_TAPCELL_ROW_28_204
*1801 TAP_TAPCELL_ROW_28_205
*1802 TAP_TAPCELL_ROW_28_206
*1803 TAP_TAPCELL_ROW_28_207
*1804 TAP_TAPCELL_ROW_28_208
*1805 TAP_TAPCELL_ROW_28_209
*1806 TAP_TAPCELL_ROW_28_210
*1807 TAP_TAPCELL_ROW_29_211
*1808 TAP_TAPCELL_ROW_29_212
*1809 TAP_TAPCELL_ROW_29_213
*1810 TAP_TAPCELL_ROW_29_214
*1811 TAP_TAPCELL_ROW_29_215
*1812 TAP_TAPCELL_ROW_29_216
*1813 TAP_TAPCELL_ROW_29_217
*1814 TAP_TAPCELL_ROW_2_22
*1815 TAP_TAPCELL_ROW_2_23
*1816 TAP_TAPCELL_ROW_2_24
*1817 TAP_TAPCELL_ROW_2_25
*1818 TAP_TAPCELL_ROW_2_26
*1819 TAP_TAPCELL_ROW_2_27
*1820 TAP_TAPCELL_ROW_2_28
*1821 TAP_TAPCELL_ROW_30_218
*1822 TAP_TAPCELL_ROW_30_219
*1823 TAP_TAPCELL_ROW_30_220
*1824 TAP_TAPCELL_ROW_30_221
*1825 TAP_TAPCELL_ROW_30_222
*1826 TAP_TAPCELL_ROW_30_223
*1827 TAP_TAPCELL_ROW_30_224
*1828 TAP_TAPCELL_ROW_31_225
*1829 TAP_TAPCELL_ROW_31_226
*1830 TAP_TAPCELL_ROW_31_227
*1831 TAP_TAPCELL_ROW_31_228
*1832 TAP_TAPCELL_ROW_31_229
*1833 TAP_TAPCELL_ROW_31_230
*1834 TAP_TAPCELL_ROW_31_231
*1835 TAP_TAPCELL_ROW_32_232
*1836 TAP_TAPCELL_ROW_32_233
*1837 TAP_TAPCELL_ROW_32_234
*1838 TAP_TAPCELL_ROW_32_235
*1839 TAP_TAPCELL_ROW_32_236
*1840 TAP_TAPCELL_ROW_32_237
*1841 TAP_TAPCELL_ROW_32_238
*1842 TAP_TAPCELL_ROW_33_239
*1843 TAP_TAPCELL_ROW_33_240
*1844 TAP_TAPCELL_ROW_33_241
*1845 TAP_TAPCELL_ROW_33_242
*1846 TAP_TAPCELL_ROW_33_243
*1847 TAP_TAPCELL_ROW_33_244
*1848 TAP_TAPCELL_ROW_33_245
*1849 TAP_TAPCELL_ROW_34_246
*1850 TAP_TAPCELL_ROW_34_247
*1851 TAP_TAPCELL_ROW_34_248
*1852 TAP_TAPCELL_ROW_34_249
*1853 TAP_TAPCELL_ROW_34_250
*1854 TAP_TAPCELL_ROW_34_251
*1855 TAP_TAPCELL_ROW_34_252
*1856 TAP_TAPCELL_ROW_35_253
*1857 TAP_TAPCELL_ROW_35_254
*1858 TAP_TAPCELL_ROW_35_255
*1859 TAP_TAPCELL_ROW_35_256
*1860 TAP_TAPCELL_ROW_35_257
*1861 TAP_TAPCELL_ROW_35_258
*1862 TAP_TAPCELL_ROW_35_259
*1863 TAP_TAPCELL_ROW_36_260
*1864 TAP_TAPCELL_ROW_36_261
*1865 TAP_TAPCELL_ROW_36_262
*1866 TAP_TAPCELL_ROW_36_263
*1867 TAP_TAPCELL_ROW_36_264
*1868 TAP_TAPCELL_ROW_36_265
*1869 TAP_TAPCELL_ROW_36_266
*1870 TAP_TAPCELL_ROW_37_267
*1871 TAP_TAPCELL_ROW_37_268
*1872 TAP_TAPCELL_ROW_37_269
*1873 TAP_TAPCELL_ROW_37_270
*1874 TAP_TAPCELL_ROW_37_271
*1875 TAP_TAPCELL_ROW_37_272
*1876 TAP_TAPCELL_ROW_37_273
*1877 TAP_TAPCELL_ROW_38_274
*1878 TAP_TAPCELL_ROW_38_275
*1879 TAP_TAPCELL_ROW_38_276
*1880 TAP_TAPCELL_ROW_38_277
*1881 TAP_TAPCELL_ROW_38_278
*1882 TAP_TAPCELL_ROW_38_279
*1883 TAP_TAPCELL_ROW_38_280
*1884 TAP_TAPCELL_ROW_39_281
*1885 TAP_TAPCELL_ROW_39_282
*1886 TAP_TAPCELL_ROW_39_283
*1887 TAP_TAPCELL_ROW_39_284
*1888 TAP_TAPCELL_ROW_39_285
*1889 TAP_TAPCELL_ROW_39_286
*1890 TAP_TAPCELL_ROW_39_287
*1891 TAP_TAPCELL_ROW_3_29
*1892 TAP_TAPCELL_ROW_3_30
*1893 TAP_TAPCELL_ROW_3_31
*1894 TAP_TAPCELL_ROW_3_32
*1895 TAP_TAPCELL_ROW_3_33
*1896 TAP_TAPCELL_ROW_3_34
*1897 TAP_TAPCELL_ROW_3_35
*1898 TAP_TAPCELL_ROW_40_288
*1899 TAP_TAPCELL_ROW_40_289
*1900 TAP_TAPCELL_ROW_40_290
*1901 TAP_TAPCELL_ROW_40_291
*1902 TAP_TAPCELL_ROW_40_292
*1903 TAP_TAPCELL_ROW_40_293
*1904 TAP_TAPCELL_ROW_40_294
*1905 TAP_TAPCELL_ROW_41_295
*1906 TAP_TAPCELL_ROW_41_296
*1907 TAP_TAPCELL_ROW_41_297
*1908 TAP_TAPCELL_ROW_41_298
*1909 TAP_TAPCELL_ROW_41_299
*1910 TAP_TAPCELL_ROW_41_300
*1911 TAP_TAPCELL_ROW_41_301
*1912 TAP_TAPCELL_ROW_42_302
*1913 TAP_TAPCELL_ROW_42_303
*1914 TAP_TAPCELL_ROW_42_304
*1915 TAP_TAPCELL_ROW_42_305
*1916 TAP_TAPCELL_ROW_42_306
*1917 TAP_TAPCELL_ROW_42_307
*1918 TAP_TAPCELL_ROW_42_308
*1919 TAP_TAPCELL_ROW_43_309
*1920 TAP_TAPCELL_ROW_43_310
*1921 TAP_TAPCELL_ROW_43_311
*1922 TAP_TAPCELL_ROW_43_312
*1923 TAP_TAPCELL_ROW_43_313
*1924 TAP_TAPCELL_ROW_43_314
*1925 TAP_TAPCELL_ROW_43_315
*1926 TAP_TAPCELL_ROW_44_316
*1927 TAP_TAPCELL_ROW_44_317
*1928 TAP_TAPCELL_ROW_44_318
*1929 TAP_TAPCELL_ROW_44_319
*1930 TAP_TAPCELL_ROW_44_320
*1931 TAP_TAPCELL_ROW_44_321
*1932 TAP_TAPCELL_ROW_44_322
*1933 TAP_TAPCELL_ROW_45_323
*1934 TAP_TAPCELL_ROW_45_324
*1935 TAP_TAPCELL_ROW_45_325
*1936 TAP_TAPCELL_ROW_45_326
*1937 TAP_TAPCELL_ROW_45_327
*1938 TAP_TAPCELL_ROW_45_328
*1939 TAP_TAPCELL_ROW_45_329
*1940 TAP_TAPCELL_ROW_46_330
*1941 TAP_TAPCELL_ROW_46_331
*1942 TAP_TAPCELL_ROW_46_332
*1943 TAP_TAPCELL_ROW_46_333
*1944 TAP_TAPCELL_ROW_46_334
*1945 TAP_TAPCELL_ROW_46_335
*1946 TAP_TAPCELL_ROW_46_336
*1947 TAP_TAPCELL_ROW_47_337
*1948 TAP_TAPCELL_ROW_47_338
*1949 TAP_TAPCELL_ROW_47_339
*1950 TAP_TAPCELL_ROW_47_340
*1951 TAP_TAPCELL_ROW_47_341
*1952 TAP_TAPCELL_ROW_47_342
*1953 TAP_TAPCELL_ROW_47_343
*1954 TAP_TAPCELL_ROW_48_344
*1955 TAP_TAPCELL_ROW_48_345
*1956 TAP_TAPCELL_ROW_48_346
*1957 TAP_TAPCELL_ROW_48_347
*1958 TAP_TAPCELL_ROW_48_348
*1959 TAP_TAPCELL_ROW_48_349
*1960 TAP_TAPCELL_ROW_48_350
*1961 TAP_TAPCELL_ROW_49_351
*1962 TAP_TAPCELL_ROW_49_352
*1963 TAP_TAPCELL_ROW_49_353
*1964 TAP_TAPCELL_ROW_49_354
*1965 TAP_TAPCELL_ROW_49_355
*1966 TAP_TAPCELL_ROW_49_356
*1967 TAP_TAPCELL_ROW_49_357
*1968 TAP_TAPCELL_ROW_4_36
*1969 TAP_TAPCELL_ROW_4_37
*1970 TAP_TAPCELL_ROW_4_38
*1971 TAP_TAPCELL_ROW_4_39
*1972 TAP_TAPCELL_ROW_4_40
*1973 TAP_TAPCELL_ROW_4_41
*1974 TAP_TAPCELL_ROW_4_42
*1975 TAP_TAPCELL_ROW_50_358
*1976 TAP_TAPCELL_ROW_50_359
*1977 TAP_TAPCELL_ROW_50_360
*1978 TAP_TAPCELL_ROW_50_361
*1979 TAP_TAPCELL_ROW_50_362
*1980 TAP_TAPCELL_ROW_50_363
*1981 TAP_TAPCELL_ROW_50_364
*1982 TAP_TAPCELL_ROW_51_365
*1983 TAP_TAPCELL_ROW_51_366
*1984 TAP_TAPCELL_ROW_51_367
*1985 TAP_TAPCELL_ROW_51_368
*1986 TAP_TAPCELL_ROW_51_369
*1987 TAP_TAPCELL_ROW_51_370
*1988 TAP_TAPCELL_ROW_51_371
*1989 TAP_TAPCELL_ROW_51_372
*1990 TAP_TAPCELL_ROW_51_373
*1991 TAP_TAPCELL_ROW_51_374
*1992 TAP_TAPCELL_ROW_51_375
*1993 TAP_TAPCELL_ROW_51_376
*1994 TAP_TAPCELL_ROW_51_377
*1995 TAP_TAPCELL_ROW_51_378
*1996 TAP_TAPCELL_ROW_51_379
*1997 TAP_TAPCELL_ROW_5_43
*1998 TAP_TAPCELL_ROW_5_44
*1999 TAP_TAPCELL_ROW_5_45
*2000 TAP_TAPCELL_ROW_5_46
*2001 TAP_TAPCELL_ROW_5_47
*2002 TAP_TAPCELL_ROW_5_48
*2003 TAP_TAPCELL_ROW_5_49
*2004 TAP_TAPCELL_ROW_6_50
*2005 TAP_TAPCELL_ROW_6_51
*2006 TAP_TAPCELL_ROW_6_52
*2007 TAP_TAPCELL_ROW_6_53
*2008 TAP_TAPCELL_ROW_6_54
*2009 TAP_TAPCELL_ROW_6_55
*2010 TAP_TAPCELL_ROW_6_56
*2011 TAP_TAPCELL_ROW_7_57
*2012 TAP_TAPCELL_ROW_7_58
*2013 TAP_TAPCELL_ROW_7_59
*2014 TAP_TAPCELL_ROW_7_60
*2015 TAP_TAPCELL_ROW_7_61
*2016 TAP_TAPCELL_ROW_7_62
*2017 TAP_TAPCELL_ROW_7_63
*2018 TAP_TAPCELL_ROW_8_64
*2019 TAP_TAPCELL_ROW_8_65
*2020 TAP_TAPCELL_ROW_8_66
*2021 TAP_TAPCELL_ROW_8_67
*2022 TAP_TAPCELL_ROW_8_68
*2023 TAP_TAPCELL_ROW_8_69
*2024 TAP_TAPCELL_ROW_8_70
*2025 TAP_TAPCELL_ROW_9_71
*2026 TAP_TAPCELL_ROW_9_72
*2027 TAP_TAPCELL_ROW_9_73
*2028 TAP_TAPCELL_ROW_9_74
*2029 TAP_TAPCELL_ROW_9_75
*2030 TAP_TAPCELL_ROW_9_76
*2031 TAP_TAPCELL_ROW_9_77
*2032 _216_
*2033 _217_
*2034 _218_
*2035 _219_
*2036 _220_
*2037 _221_
*2038 _222_
*2039 _223_
*2040 _224_
*2041 _225_
*2042 _226_
*2043 _227_
*2044 _228_
*2045 _229_
*2046 _230_
*2047 _231_
*2048 _232_
*2049 _233_
*2050 _234_
*2051 _235_
*2052 _236_
*2053 _237_
*2054 _238_
*2055 _239_
*2056 _240_
*2057 _241_
*2058 _242_
*2059 _243_
*2060 _244_
*2061 _245_
*2062 _246_
*2063 _247_
*2064 _248_
*2065 _249_
*2066 _250_
*2067 _251_
*2068 _252_
*2069 _253_
*2070 _254_
*2071 _255_
*2072 _256_
*2073 _257_
*2074 _258_
*2075 _259_
*2076 _260_
*2077 _261_
*2078 _262_
*2079 _263_
*2080 _264_
*2081 _265_
*2082 _266_
*2083 _267_
*2084 _268_
*2085 _269_
*2086 _270_
*2087 _271_
*2088 _272_
*2089 _273_
*2090 _274_
*2091 _275_
*2092 _276_
*2093 _277_
*2094 _278_
*2095 _279_
*2096 _280_
*2097 _281_
*2098 _282_
*2099 _283_
*2100 _284_
*2101 _285_
*2102 _286_
*2103 _287_
*2104 _288_
*2105 _289_
*2106 _290_
*2107 _291_
*2108 _292_
*2109 _293_
*2110 _294_
*2111 _295_
*2112 _296_
*2113 _297_
*2114 _298_
*2115 _299_
*2116 _300_
*2117 _301_
*2118 _302_
*2119 _303_
*2120 _304_
*2121 _305_
*2122 _306_
*2123 _307_
*2124 _308_
*2125 _309_
*2126 _310_
*2127 _311_
*2128 _312_
*2129 _313_
*2130 _314_
*2131 _315_
*2132 _316_
*2133 _317_
*2134 _318_
*2135 _319_
*2136 _320_
*2137 _321_
*2138 _322_
*2139 _323_
*2140 _324_
*2141 _325_
*2142 _326_
*2143 _327_
*2144 _328_
*2145 _329_
*2146 _330_
*2147 _331_
*2148 _332_
*2149 _333_
*2150 _334_
*2151 _335_
*2152 _336_
*2153 _337_
*2154 _338_
*2155 _339_
*2156 _340_
*2157 _341_
*2158 _342_
*2159 _343_
*2160 _344_
*2161 _345_
*2162 _346_
*2163 _347_
*2164 _348_
*2165 _349_
*2166 _350_
*2167 _351_
*2168 _352_
*2169 _353_
*2170 _354_
*2171 _355_
*2172 _356_
*2173 _357_
*2174 _358_
*2175 _359_
*2176 _360_
*2177 _361_
*2178 _362_
*2179 _363_
*2180 _364_
*2181 _365_
*2182 _366_
*2183 _367_
*2184 _368_
*2185 _369_
*2186 _370_
*2187 _371_
*2188 _372_
*2189 _373_
*2190 _374_
*2191 _375_
*2192 _376_
*2193 _377_
*2194 _378_
*2195 _379_
*2196 _380_
*2197 _381_
*2198 _382_
*2199 _383_
*2200 _384_
*2201 _385_
*2202 _386_
*2203 _387_
*2204 _388_
*2205 _389_
*2206 _390_
*2207 _391_
*2208 _392_
*2209 _393_
*2210 _394_
*2211 _395_
*2212 _396_
*2213 _397_
*2214 _398_
*2215 _399_
*2216 _400_
*2217 _401_
*2218 _402_
*2219 _403_
*2220 _404_
*2221 _405_
*2222 _406_
*2223 _407_
*2224 _408_
*2225 _409_
*2226 _410_
*2227 _411_
*2228 _412_
*2229 _413_
*2230 _414_
*2231 _415_
*2232 _416_
*2233 _417_
*2234 _418_
*2235 _419_
*2236 _420_
*2237 _421_
*2238 _422_
*2239 _423_
*2240 _424_
*2241 _425_
*2242 _426_
*2243 _427_
*2244 _428_
*2245 _429_
*2246 _430_
*2247 _431_
*2248 _432_
*2249 _433_
*2250 _434_
*2251 _435_
*2252 _436_
*2253 _437_
*2254 _438_
*2255 _439_
*2256 _440_
*2257 _441_
*2258 _442_
*2259 _443_
*2260 _444_
*2261 _445_
*2262 _446_
*2263 _447_
*2264 _448_
*2265 _449_
*2266 _450_
*2267 _451_
*2268 _452_
*2269 _453_
*2270 _454_
*2271 _455_
*2272 _456_
*2273 _457_
*2274 _458_
*2275 _459_
*2276 _460_
*2277 _461_
*2278 _462_
*2279 _463_
*2280 _464_
*2281 _465_
*2282 _466_
*2283 _467_
*2284 _468_
*2285 _469_
*2286 _470_
*2287 _471_
*2288 _472_
*2289 _473_
*2290 _474_
*2291 _475_
*2292 _476_
*2293 _477_
*2294 _478_
*2295 _479_
*2296 _480_
*2297 _481_
*2298 _482_
*2299 _483_
*2300 _484_
*2301 _485_
*2302 _486_
*2303 _487_
*2304 _488_
*2305 _489_
*2306 _490_
*2307 _491_
*2308 _492_
*2309 _493_
*2310 _494_
*2311 _495_
*2312 _496_
*2313 clkbuf_0_clk
*2314 clkbuf_3_0__f_clk
*2315 clkbuf_3_1__f_clk
*2316 clkbuf_3_2__f_clk
*2317 clkbuf_3_3__f_clk
*2318 clkbuf_3_4__f_clk
*2319 clkbuf_3_5__f_clk
*2320 clkbuf_3_6__f_clk
*2321 clkbuf_3_7__f_clk
*2322 clkload0
*2323 clkload1
*2324 clkload2
*2325 clkload3
*2326 clkload4
*2327 clkload5
*2328 clkload6
*2329 input10
*2330 input11
*2331 input12
*2332 input13
*2333 input14
*2334 input15
*2335 input16
*2336 input17
*2337 input18
*2338 input19
*2339 input20
*2340 input21
*2341 input22
*2342 input23
*2343 input24
*2344 input25
*2345 input26
*2346 input27
*2347 input28
*2348 input29
*2349 input30
*2350 input31
*2351 input32
*2352 input33
*2353 input34
*2354 input35
*2355 input36
*2356 input37
*2357 input38
*2358 input39
*2359 input40
*2360 input41
*2361 input8
*2362 input9
*2363 load_slew43
*2364 load_slew44
*2365 load_slew45
*2366 load_slew46
*2367 place6
*2368 place7
*2369 spare_aoi_0
*2370 spare_dff_0
*2371 spare_inverter_0
*2372 spare_mux2_0
*2373 spare_nand2_0
*2374 spare_nor2_0
*2375 spare_tielo_drv
*2376 wire42

*PORTS
clk I
p O
rst I
x[0] I
x[10] I
x[11] I
x[12] I
x[13] I
x[14] I
x[15] I
x[16] I
x[17] I
x[18] I
x[19] I
x[1] I
x[20] I
x[21] I
x[22] I
x[23] I
x[24] I
x[25] I
x[26] I
x[27] I
x[28] I
x[29] I
x[2] I
x[30] I
x[31] I
x[3] I
x[4] I
x[5] I
x[6] I
x[7] I
x[8] I
x[9] I
y I

*D_NET *39 0.00120663
*CONN
*I *2305:D I *D gf180mcu_fd_sc_mcu7t5v0__dffq_1
*I *2069:ZN O *D gf180mcu_fd_sc_mcu7t5v0__nor3_1
*CAP
1 *2305:D 0.000431818
2 *2069:ZN 0.000431818
3 *2305:D *2069:A2 0.000113816
4 *2305:D *2069:A3 0.000178966
5 *2305:D *2180:A2 5.0211e-05
*RES
1 *2069:ZN *2305:D 11.303 
*END

*D_NET *40 0.00244909
*CONN
*I *2304:D I *D gf180mcu_fd_sc_mcu7t5v0__dffq_1
*I *2072:ZN O *D gf180mcu_fd_sc_mcu7t5v0__nor3_1
*CAP
1 *2304:D 0.000192851
2 *2072:ZN 0.000192851
3 *2304:D *2070:B1 4.57943e-05
4 *2304:D *2072:A2 0.00116503
5 *2304:D *2072:A3 0.000313113
6 *2304:D *2184:A1 4.57943e-05
7 *2304:D *2184:A2 0.000402597
8 *2304:D *186:14 9.1053e-05
*RES
1 *2072:ZN *2304:D 11.2263 
*END

*D_NET *41 0.00162601
*CONN
*I *2303:D I *D gf180mcu_fd_sc_mcu7t5v0__dffq_1
*I *2075:ZN O *D gf180mcu_fd_sc_mcu7t5v0__nor3_1
*CAP
1 *2303:D 0.000321543
2 *2075:ZN 0.000321543
3 *2303:D *2073:A1 4.1855e-06
4 *2303:D *2075:A2 0.00056904
5 *2303:D *189:10 0.000409698
*RES
1 *2075:ZN *2303:D 11.303 
*END

*D_NET *42 0.000663879
*CONN
*I *2302:D I *D gf180mcu_fd_sc_mcu7t5v0__dffq_1
*I *2078:ZN O *D gf180mcu_fd_sc_mcu7t5v0__nor3_1
*CAP
1 *2302:D 0.00033194
2 *2078:ZN 0.00033194
3 *2302:D *2076:A1 0
4 *2302:D *2302:CLK 0
*RES
1 *2078:ZN *2302:D 10.3818 
*END

*D_NET *43 0.00263911
*CONN
*I *2301:D I *D gf180mcu_fd_sc_mcu7t5v0__dffq_1
*I *2081:ZN O *D gf180mcu_fd_sc_mcu7t5v0__nor3_1
*CAP
1 *2301:D 0.000448654
2 *2081:ZN 0.000448654
3 *2301:D *2196:A1 0.000536941
4 *2301:D *2196:A2 0.000356086
5 *2301:D *195:10 0.000606233
6 *2301:D *289:71 8.57998e-05
7 *2301:D *305:26 8.37099e-06
8 *2301:D *349:10 0.000148369
*RES
1 *2081:ZN *2301:D 21.2242 
*END

*D_NET *44 0.000909687
*CONN
*I *2300:D I *D gf180mcu_fd_sc_mcu7t5v0__dffq_1
*I *2084:ZN O *D gf180mcu_fd_sc_mcu7t5v0__nor3_1
*CAP
1 *2300:D 0.000365822
2 *2084:ZN 0.000365822
3 *2300:D *2084:A3 8.90215e-05
4 *2300:D *2203:A2 0
5 *2300:D *2267:D 8.90215e-05
6 *2300:D *2300:CLK 0
*RES
1 *2084:ZN *2300:D 19.8424 
*END

*D_NET *45 0.0048673
*CONN
*I *2299:D I *D gf180mcu_fd_sc_mcu7t5v0__dffq_1
*I *2087:ZN O *D gf180mcu_fd_sc_mcu7t5v0__nor3_1
*CAP
1 *2299:D 0.000602367
2 *2087:ZN 0.000602367
3 *2299:D *2085:B1 0.00121248
4 *2299:D *2085:B2 0.00129991
5 *2299:D *2087:A2 0.000478738
6 *2299:D *2087:A3 0
7 *2299:D *2266:D 8.90215e-05
8 *2299:D *264:10 6.94883e-05
9 *2299:D *346:33 0.000512934
*RES
1 *2087:ZN *2299:D 22.9131 
*END

*D_NET *46 0.00163286
*CONN
*I *2298:D I *D gf180mcu_fd_sc_mcu7t5v0__dffq_1
*I *2090:ZN O *D gf180mcu_fd_sc_mcu7t5v0__nor3_1
*CAP
1 *2298:D 0.000456983
2 *2090:ZN 0.000456983
3 *2298:D *2090:A2 0.00015015
4 *2298:D *2090:A3 0.00050046
5 *2298:D *204:10 0
6 *2298:D *288:29 6.82897e-05
*RES
1 *2090:ZN *2298:D 20.303 
*END

*D_NET *47 0.00211579
*CONN
*I *2297:D I *D gf180mcu_fd_sc_mcu7t5v0__dffq_1
*I *2093:ZN O *D gf180mcu_fd_sc_mcu7t5v0__nor3_1
*CAP
1 *2297:D 0.000691298
2 *2093:ZN 0.000691298
3 *2297:D *2093:A2 0.000326412
4 *2297:D *2214:A1 2.85999e-05
5 *2297:D *334:102 3.4984e-05
6 *2297:D *334:125 0.000343199
*RES
1 *2093:ZN *2297:D 21.6848 
*END

*D_NET *48 0.000883016
*CONN
*I *2296:D I *D gf180mcu_fd_sc_mcu7t5v0__dffq_1
*I *2096:ZN O *D gf180mcu_fd_sc_mcu7t5v0__nor3_1
*CAP
1 *2296:D 0.000320206
2 *2096:ZN 0.000320206
3 *2296:D *2096:A1 2.27632e-05
4 *2296:D *2096:A2 7.63238e-05
5 *2296:D *2216:A2 5.83066e-05
6 *2296:D *2296:CLK 5.0226e-05
7 *2296:D *343:8 3.4984e-05
*RES
1 *2096:ZN *2296:D 10.6889 
*END

*D_NET *49 0.00160369
*CONN
*I *2295:D I *D gf180mcu_fd_sc_mcu7t5v0__dffq_1
*I *2099:ZN O *D gf180mcu_fd_sc_mcu7t5v0__nor3_1
*CAP
1 *2295:D 0.000452093
2 *2099:ZN 0.000452093
3 *2295:D *2099:A1 0
4 *2295:D *2099:A2 0
5 *2295:D *2099:A3 4.66453e-05
6 *2295:D *260:18 4.66304e-05
7 *2295:D *290:52 0.00060623
8 *1:14 *2295:D 0
*RES
1 *2099:ZN *2295:D 20.4566 
*END

*D_NET *50 0.000553514
*CONN
*I *2294:D I *D gf180mcu_fd_sc_mcu7t5v0__dffq_1
*I *2102:ZN O *D gf180mcu_fd_sc_mcu7t5v0__nor3_1
*CAP
1 *2294:D 0.00014057
2 *2102:ZN 0.00014057
3 *2294:D *2102:A1 0.000272375
4 *1:14 *2294:D 0
*RES
1 *2102:ZN *2294:D 9.99798 
*END

*D_NET *51 0.000789731
*CONN
*I *2293:D I *D gf180mcu_fd_sc_mcu7t5v0__dffq_1
*I *2105:ZN O *D gf180mcu_fd_sc_mcu7t5v0__nor3_1
*CAP
1 *2293:D 0.000155182
2 *2105:ZN 0.000155182
3 *2293:D *2103:B2 0
4 *2293:D *2104:A1 0.000250396
5 *2293:D *2105:A2 0.000167912
6 *2293:D *2105:A3 6.1059e-05
*RES
1 *2105:ZN *2293:D 10.3818 
*END

*D_NET *52 0.000651762
*CONN
*I *2292:D I *D gf180mcu_fd_sc_mcu7t5v0__dffq_1
*I *2108:ZN O *D gf180mcu_fd_sc_mcu7t5v0__nor3_1
*CAP
1 *2292:D 0.000178312
2 *2108:ZN 0.000178312
3 *2292:D *2108:A1 0
4 *2292:D *2108:A2 0.000250396
5 *2292:D *297:16 4.4742e-05
*RES
1 *2108:ZN *2292:D 9.99798 
*END

*D_NET *53 0.00160494
*CONN
*I *2291:D I *D gf180mcu_fd_sc_mcu7t5v0__dffq_1
*I *2111:ZN O *D gf180mcu_fd_sc_mcu7t5v0__nor3_1
*CAP
1 *2291:D 0.000646146
2 *2111:ZN 0.000646146
3 *2291:D *2111:A2 0
4 *2291:D *2111:A3 1.52683e-05
5 *2291:D *2291:CLK 0.000264358
6 *2291:D *291:25 3.30261e-05
*RES
1 *2111:ZN *2291:D 12.5313 
*END

*D_NET *54 0.00101016
*CONN
*I *2290:D I *D gf180mcu_fd_sc_mcu7t5v0__dffq_1
*I *2114:ZN O *D gf180mcu_fd_sc_mcu7t5v0__nor3_1
*CAP
1 *2290:D 0.000265205
2 *2114:ZN 0.000265205
3 *2290:D *2112:B1 6.80647e-05
4 *2290:D *2113:A1 9.79166e-06
5 *2290:D *2114:A2 0.000113816
6 *2290:D *2114:A3 0.000176571
7 *2290:D *291:69 0
8 *2290:D *313:24 0.000111509
*RES
1 *2114:ZN *2290:D 10.8424 
*END

*D_NET *55 0.00239187
*CONN
*I *2289:D I *D gf180mcu_fd_sc_mcu7t5v0__dffq_1
*I *2117:ZN O *D gf180mcu_fd_sc_mcu7t5v0__nor3_1
*CAP
1 *2289:D 0.000364062
2 *2117:ZN 0.000364062
3 *2289:D *2115:B1 0.00018536
4 *2289:D *2117:A2 0.000191093
5 *2289:D *2117:A3 0.000267065
6 *2289:D *2289:CLK 0
7 *2289:D *285:16 0.00025962
8 *2289:D *320:20 0.000760612
*RES
1 *2117:ZN *2289:D 20.4566 
*END

*D_NET *56 0.00146974
*CONN
*I *2288:D I *D gf180mcu_fd_sc_mcu7t5v0__dffq_1
*I *2120:ZN O *D gf180mcu_fd_sc_mcu7t5v0__nor3_1
*CAP
1 *2288:D 0.000268628
2 *2120:ZN 0.000268628
3 *2288:D *2120:A2 0.000120217
4 *2288:D *300:26 0.000198442
5 *2288:D *301:18 0.000613823
*RES
1 *2120:ZN *2288:D 11.4566 
*END

*D_NET *57 0.00130317
*CONN
*I *2287:D I *D gf180mcu_fd_sc_mcu7t5v0__dffq_1
*I *2123:ZN O *D gf180mcu_fd_sc_mcu7t5v0__nor3_1
*CAP
1 *2287:D 0.000643954
2 *2123:ZN 0.000643954
3 *2287:D *2121:A1 0
4 *2287:D *2123:A2 1.52648e-05
5 *2287:D *2175:A2 0
6 *2287:D *2287:CLK 0
7 *2287:D *330:37 0
*RES
1 *2123:ZN *2287:D 12.2242 
*END

*D_NET *58 0.00193652
*CONN
*I *2286:D I *D gf180mcu_fd_sc_mcu7t5v0__dffq_1
*I *2126:ZN O *D gf180mcu_fd_sc_mcu7t5v0__nor3_1
*CAP
1 *2286:D 0.000328035
2 *2126:ZN 0.000328035
3 *2286:D *2125:A1 9.15886e-05
4 *2286:D *2125:A2 1.90854e-05
5 *2286:D *2126:A2 0.000103709
6 *2286:D *2126:A3 0.000534505
7 *2286:D *2183:A1 0.000381619
8 *2286:D *282:12 0.000137383
9 *2286:D *311:30 1.25565e-05
*RES
1 *2126:ZN *2286:D 11.9172 
*END

*D_NET *59 0.0012594
*CONN
*I *2285:D I *D gf180mcu_fd_sc_mcu7t5v0__dffq_1
*I *2129:ZN O *D gf180mcu_fd_sc_mcu7t5v0__nor3_1
*CAP
1 *2285:D 0.000357579
2 *2129:ZN 0.000357579
3 *2285:D *2127:A2 0
4 *2285:D *2127:B1 1.24058e-05
5 *2285:D *2127:B2 0.000118847
6 *2285:D *2129:A2 0.00017793
7 *2285:D *2175:A2 3.16154e-05
8 *2285:D *243:10 0.000203449
*RES
1 *2129:ZN *2285:D 11.303 
*END

*D_NET *60 0.000607766
*CONN
*I *2284:D I *D gf180mcu_fd_sc_mcu7t5v0__dffq_1
*I *2132:ZN O *D gf180mcu_fd_sc_mcu7t5v0__nor3_1
*CAP
1 *2284:D 0.000155789
2 *2132:ZN 0.000155789
3 *2284:D *2132:A2 0.000167912
4 *2284:D *303:18 0.000128275
*RES
1 *2132:ZN *2284:D 10.3818 
*END

*D_NET *61 0.00603813
*CONN
*I *2279:D I *D gf180mcu_fd_sc_mcu7t5v0__dffq_1
*I *2135:ZN O *D gf180mcu_fd_sc_mcu7t5v0__nor3_1
*CAP
1 *2279:D 0.00099016
2 *2135:ZN 0.00099016
3 *2279:D *2150:A1 0.00125907
4 *2279:D *2156:A1 0.000512934
5 *2279:D *2156:A2 3.47442e-05
6 *2279:D *2160:A2 0
7 *2279:D *2279:CLK 0.000174048
8 *2279:D *159:12 0.000124037
9 *2279:D *311:30 0.000134226
10 *2279:D *369:575 0.00181875
*RES
1 *2135:ZN *2279:D 24.9091 
*END

*D_NET *62 0.00257795
*CONN
*I *2280:D I *D gf180mcu_fd_sc_mcu7t5v0__dffq_2
*I *2136:Z O *D gf180mcu_fd_sc_mcu7t5v0__and2_1
*CAP
1 *2280:D 0.000432658
2 *2136:Z 0.000432658
3 *2280:D *2312:CLK 0.000932651
4 *2280:D *306:20 0.000198415
5 *2280:D *307:30 0.000581565
6 *2280:D *319:14 0
7 *2280:D *321:24 0
*RES
1 *2136:Z *2280:D 20.6869 
*END

*D_NET *63 0.000573247
*CONN
*I *2248:D I *D gf180mcu_fd_sc_mcu7t5v0__dffq_1
*I *2141:ZN O *D gf180mcu_fd_sc_mcu7t5v0__nor2_1
*CAP
1 *2248:D 0.000123471
2 *2141:ZN 0.000123471
3 *2248:D *2141:A2 0.000177206
4 *2248:D *305:26 0.000138687
5 *2248:D *313:24 1.04119e-05
*RES
1 *2141:ZN *2248:D 10.2201 
*END

*D_NET *64 0.00144766
*CONN
*I *2312:D I *D gf180mcu_fd_sc_mcu7t5v0__dffq_1
*I *2142:Z O *D gf180mcu_fd_sc_mcu7t5v0__and2_1
*CAP
1 *2312:D 0.000293555
2 *2142:Z 0.000293555
3 *2312:D *2175:A2 0.000291512
4 *2312:D *323:18 0.00056904
*RES
1 *2142:Z *2312:D 11.2263 
*END

*D_NET *65 0.00264805
*CONN
*I *2283:D I *D gf180mcu_fd_sc_mcu7t5v0__dffq_1
*I *2145:ZN O *D gf180mcu_fd_sc_mcu7t5v0__nor3_1
*CAP
1 *2283:D 0.000397555
2 *2145:ZN 0.000397555
3 *2283:D *2145:A2 0.000204869
4 *2283:D *2145:A3 0.000623989
5 *2283:D *2322:I 4.4742e-05
6 *2283:D *293:16 0.000979335
7 *2283:D *334:87 0
*RES
1 *2145:ZN *2283:D 21.301 
*END

*D_NET *66 0.00135077
*CONN
*I *2282:D I *D gf180mcu_fd_sc_mcu7t5v0__dffq_1
*I *2148:ZN O *D gf180mcu_fd_sc_mcu7t5v0__nor3_1
*CAP
1 *2282:D 0.000665806
2 *2148:ZN 0.000665806
3 *2282:D *2148:A1 0
4 *2282:D *2148:A3 1.91579e-05
5 *2282:D *334:269 0
*RES
1 *2148:ZN *2282:D 12.3778 
*END

*D_NET *67 0.0016598
*CONN
*I *2281:D I *D gf180mcu_fd_sc_mcu7t5v0__dffq_1
*I *2149:ZN O *D gf180mcu_fd_sc_mcu7t5v0__aoi211_1
*CAP
1 *2281:D 0.000225624
2 *2149:ZN 0.000225624
3 *2281:D *2137:A1 4.55265e-05
4 *2281:D *2140:A3 0.000447418
5 *2281:D *2149:A2 0.000227632
6 *2281:D *2281:CLK 0.000419688
7 *2281:D *151:12 0
8 *2336:I *2281:D 6.82897e-05
*RES
1 *2149:ZN *2281:D 19.7657 
*END

*D_NET *68 0.00117723
*CONN
*I *2278:D I *D gf180mcu_fd_sc_mcu7t5v0__dffq_1
*I *2154:ZN O *D gf180mcu_fd_sc_mcu7t5v0__nor2_1
*CAP
1 *2278:D 0.00032256
2 *2154:ZN 0.00032256
3 *2278:D *2060:C 0
4 *2278:D *2154:A1 0.000532108
5 *2278:D *2154:A2 0
*RES
1 *2154:ZN *2278:D 11.1413 
*END

*D_NET *69 0.0012256
*CONN
*I *2277:D I *D gf180mcu_fd_sc_mcu7t5v0__dffq_1
*I *2159:ZN O *D gf180mcu_fd_sc_mcu7t5v0__nor2_1
*CAP
1 *2277:D 0.000494261
2 *2159:ZN 0.000494261
3 *2277:D *2159:A1 8.30924e-05
4 *2277:D *2159:A2 1.52648e-05
5 *2277:D *2160:A2 0.00012975
6 *2277:D *322:16 0
7 *2277:D *332:60 8.96892e-06
*RES
1 *2159:ZN *2277:D 11.6869 
*END

*D_NET *70 0.00127272
*CONN
*I *2276:D I *D gf180mcu_fd_sc_mcu7t5v0__dffq_1
*I *2164:ZN O *D gf180mcu_fd_sc_mcu7t5v0__nor2_1
*CAP
1 *2276:D 0.0004628
2 *2164:ZN 0.0004628
3 *2276:D *2164:A1 0.000113816
4 *2276:D *2164:A2 9.29377e-05
5 *2276:D *2276:CLK 7.20762e-05
6 *2276:D *295:80 6.82897e-05
*RES
1 *2164:ZN *2276:D 11.8404 
*END

*D_NET *71 0.00171122
*CONN
*I *2275:D I *D gf180mcu_fd_sc_mcu7t5v0__dffq_1
*I *2169:ZN O *D gf180mcu_fd_sc_mcu7t5v0__nor2_1
*CAP
1 *2275:D 0.000794088
2 *2169:ZN 0.000794088
3 *2275:D *2169:A1 0.000123041
4 *2275:D *2275:CLK 0
*RES
1 *2169:ZN *2275:D 21.6766 
*END

*D_NET *72 0.000632906
*CONN
*I *2274:D I *D gf180mcu_fd_sc_mcu7t5v0__dffq_1
*I *2174:ZN O *D gf180mcu_fd_sc_mcu7t5v0__nor2_1
*CAP
1 *2274:D 0.000293433
2 *2174:ZN 0.000293433
3 *2274:D *2274:CLK 4.60405e-05
*RES
1 *2174:ZN *2274:D 10.7657 
*END

*D_NET *73 0.00157325
*CONN
*I *2273:D I *D gf180mcu_fd_sc_mcu7t5v0__dffq_1
*I *2179:ZN O *D gf180mcu_fd_sc_mcu7t5v0__nor2_1
*CAP
1 *2273:D 0.000403029
2 *2179:ZN 0.000403029
3 *2273:D *2179:A1 8.46903e-05
4 *2273:D *355:10 0.000682498
*RES
1 *2179:ZN *2273:D 20.0645 
*END

*D_NET *74 0.000501913
*CONN
*I *2272:D I *D gf180mcu_fd_sc_mcu7t5v0__dffq_1
*I *2183:ZN O *D gf180mcu_fd_sc_mcu7t5v0__nor3_1
*CAP
1 *2272:D 0.000171554
2 *2183:ZN 0.000171554
3 *2272:D *2183:A1 3.05295e-05
4 *2272:D *2183:A3 0.000128275
*RES
1 *2183:ZN *2272:D 10.2283 
*END

*D_NET *75 0.00153961
*CONN
*I *2271:D I *D gf180mcu_fd_sc_mcu7t5v0__dffq_1
*I *2187:ZN O *D gf180mcu_fd_sc_mcu7t5v0__nor3_1
*CAP
1 *2271:D 0.000377944
2 *2187:ZN 0.000377944
3 *2271:D *2187:A1 4.55265e-05
4 *2271:D *2187:A2 1.52648e-05
5 *2271:D *2271:CLK 0
6 *2271:D *179:12 0.000409738
7 *2271:D *292:70 0.000313194
*RES
1 *2187:ZN *2271:D 11.303 
*END

*D_NET *76 0.00233902
*CONN
*I *2270:D I *D gf180mcu_fd_sc_mcu7t5v0__dffq_1
*I *2191:ZN O *D gf180mcu_fd_sc_mcu7t5v0__nor3_1
*CAP
1 *2270:D 0.000855685
2 *2191:ZN 0.000855685
3 *2270:D *2191:A1 0.000432502
4 *2270:D *175:16 0.000195153
*RES
1 *2191:ZN *2270:D 13.9899 
*END

*D_NET *77 0.00203251
*CONN
*I *2269:D I *D gf180mcu_fd_sc_mcu7t5v0__dffq_1
*I *2195:ZN O *D gf180mcu_fd_sc_mcu7t5v0__nor3_1
*CAP
1 *2269:D 0.000605969
2 *2195:ZN 0.000605969
3 *2269:D *2081:A2 0
4 *2269:D *2195:A1 4.57943e-05
5 *2269:D *2195:A2 9.1053e-05
6 *2269:D *2195:A3 0.000190629
7 *2269:D *304:20 0
8 *2269:D *307:48 0.0001573
9 *2269:D *328:32 0.000335797
10 *2269:D *334:10 0
*RES
1 *2195:ZN *2269:D 21.7616 
*END

*D_NET *78 0.000495129
*CONN
*I *2268:D I *D gf180mcu_fd_sc_mcu7t5v0__dffq_1
*I *2199:ZN O *D gf180mcu_fd_sc_mcu7t5v0__nor3_1
*CAP
1 *2268:D 0.000111124
2 *2199:ZN 0.000111124
3 *2268:D *2199:A2 4.4742e-05
4 *2268:D *2300:CLK 9.29377e-06
5 *2268:D *289:12 0.000102232
6 *2268:D *328:161 0.000116613
*RES
1 *2199:ZN *2268:D 9.99798 
*END

*D_NET *79 0.00402273
*CONN
*I *2267:D I *D gf180mcu_fd_sc_mcu7t5v0__dffq_1
*I *2203:ZN O *D gf180mcu_fd_sc_mcu7t5v0__nor3_1
*CAP
1 *2267:D 0.00168228
2 *2203:ZN 0.00168228
3 *2267:D *2084:A2 7.43502e-05
4 *2267:D *2084:A3 1.52648e-05
5 *2267:D *2203:A2 0.000135795
6 *2267:D *2203:A3 0.000135011
7 *2267:D *2267:CLK 0
8 *2267:D *328:173 4.55265e-05
9 *2267:D *346:14 0.000163206
10 *2300:D *2267:D 8.90215e-05
*RES
1 *2203:ZN *2267:D 26.8283 
*END

*D_NET *80 0.00357372
*CONN
*I *2266:D I *D gf180mcu_fd_sc_mcu7t5v0__dffq_1
*I *2207:ZN O *D gf180mcu_fd_sc_mcu7t5v0__nor3_1
*CAP
1 *2266:D 0.001279
2 *2207:ZN 0.001279
3 *2266:D *2085:A1 0
4 *2266:D *2085:A2 0.000204869
5 *2266:D *2085:B1 0.000279817
6 *2266:D *2085:B2 4.35216e-05
7 *2266:D *2087:A2 0.000219791
8 *2266:D *2207:A1 2.33227e-05
9 *2266:D *2207:A2 6.82897e-05
10 *2266:D *2207:A3 8.70872e-05
11 *2266:D *2267:CLK 0
12 *2266:D *288:35 0
13 *2266:D *334:63 0
14 *2299:D *2266:D 8.90215e-05
*RES
1 *2207:ZN *2266:D 24.6788 
*END

*D_NET *81 0.0013885
*CONN
*I *2265:D I *D gf180mcu_fd_sc_mcu7t5v0__dffq_1
*I *2211:ZN O *D gf180mcu_fd_sc_mcu7t5v0__nor3_1
*CAP
1 *2265:D 0.000419484
2 *2211:ZN 0.000419484
3 *2265:D *2211:A2 7.63238e-05
4 *2265:D *288:10 0
5 *2265:D *334:95 5.7788e-05
6 *2265:D *334:102 0.00041542
*RES
1 *2211:ZN *2265:D 11.7636 
*END

*D_NET *82 0.00119976
*CONN
*I *2264:D I *D gf180mcu_fd_sc_mcu7t5v0__dffq_1
*I *2215:ZN O *D gf180mcu_fd_sc_mcu7t5v0__nor3_1
*CAP
1 *2264:D 0.000325886
2 *2215:ZN 0.000325886
3 *2264:D *2215:A1 5.83066e-05
4 *2264:D *2215:A3 0.000444942
5 *2264:D *290:112 0
6 *2264:D *344:10 4.4742e-05
*RES
1 *2215:ZN *2264:D 10.6889 
*END

*D_NET *83 0.0076922
*CONN
*I *2263:D I *D gf180mcu_fd_sc_mcu7t5v0__dffq_1
*I *2219:ZN O *D gf180mcu_fd_sc_mcu7t5v0__nor3_1
*CAP
1 *2263:D 0.00113189
2 *2219:ZN 0.00113189
3 *2263:D *2094:A2 3.91695e-05
4 *2263:D *2094:B1 2.85999e-05
5 *2263:D *2096:A3 0.000674585
6 *2263:D *2213:A1 0
7 *2263:D *2215:A2 0
8 *2263:D *2296:CLK 0.000459464
9 *2263:D *329:73 0.001365
10 *2263:D *329:75 0.000890215
11 *2263:D *329:77 0.000898797
12 *2263:D *329:83 0.00107259
*RES
1 *2219:ZN *2263:D 27.7495 
*END

*D_NET *84 0.00265422
*CONN
*I *2262:D I *D gf180mcu_fd_sc_mcu7t5v0__dffq_1
*I *2223:ZN O *D gf180mcu_fd_sc_mcu7t5v0__nor3_1
*CAP
1 *2262:D 0.000406732
2 *2223:ZN 0.000406732
3 *2262:D *2213:B 1.85875e-05
4 *2262:D *2223:A1 4.57943e-05
5 *2262:D *2223:A2 0.00116329
6 *2262:D *2223:A3 0.000526045
7 *2262:D *302:20 8.70433e-05
*RES
1 *2223:ZN *2262:D 21.3778 
*END

*D_NET *85 0.000767432
*CONN
*I *2261:D I *D gf180mcu_fd_sc_mcu7t5v0__dffq_1
*I *2227:ZN O *D gf180mcu_fd_sc_mcu7t5v0__nor3_1
*CAP
1 *2261:D 0.000140417
2 *2227:ZN 0.000140417
3 *2261:D *2227:A1 4.55265e-05
4 *2261:D *2227:A3 0.000167912
5 *2261:D *335:43 0.000273159
*RES
1 *2227:ZN *2261:D 10.2283 
*END

*D_NET *86 0.000642277
*CONN
*I *2260:D I *D gf180mcu_fd_sc_mcu7t5v0__dffq_1
*I *2231:ZN O *D gf180mcu_fd_sc_mcu7t5v0__nor3_1
*CAP
1 *2260:D 0.000262004
2 *2231:ZN 0.000262004
3 *2260:D *2231:A2 6.82897e-05
4 *2260:D *2231:A3 4.57943e-05
5 *2260:D *298:22 4.1855e-06
*RES
1 *2231:ZN *2260:D 10.5354 
*END

*D_NET *87 0.0010742
*CONN
*I *2259:D I *D gf180mcu_fd_sc_mcu7t5v0__dffq_1
*I *2235:ZN O *D gf180mcu_fd_sc_mcu7t5v0__nor3_1
*CAP
1 *2259:D 0.000397308
2 *2235:ZN 0.000397308
3 *2259:D *2235:A1 0.000113816
4 *2259:D *2235:A2 9.32906e-05
5 *2259:D *2235:A3 4.1855e-06
6 *2259:D *2259:CLK 6.82897e-05
7 *2259:D *291:23 0
8 *2259:D *291:25 0
*RES
1 *2235:ZN *2259:D 11.303 
*END

*D_NET *88 0.00129129
*CONN
*I *2258:D I *D gf180mcu_fd_sc_mcu7t5v0__dffq_1
*I *2239:ZN O *D gf180mcu_fd_sc_mcu7t5v0__nor3_1
*CAP
1 *2258:D 0.000212752
2 *2239:ZN 0.000212752
3 *2258:D *2109:A2 0.000112007
4 *2258:D *2237:B 2.27632e-05
5 *2258:D *2239:A2 0.000129081
6 *2258:D *2239:A3 0.000176571
7 *2258:D *225:18 0.00042536
8 *2258:D *291:90 0
*RES
1 *2239:ZN *2258:D 10.6889 
*END

*D_NET *89 0.00102832
*CONN
*I *2257:D I *D gf180mcu_fd_sc_mcu7t5v0__dffq_1
*I *2243:ZN O *D gf180mcu_fd_sc_mcu7t5v0__nor3_1
*CAP
1 *2257:D 0.000461536
2 *2243:ZN 0.000461536
3 *2257:D *2243:A2 5.83066e-05
4 *2257:D *294:12 4.60405e-05
5 *2257:D *294:18 8.96892e-07
6 *2257:D *303:18 0
7 *2257:D *325:14 0
8 *2257:D *325:16 0
*RES
1 *2243:ZN *2257:D 11.4566 
*END

*D_NET *90 0.00128454
*CONN
*I *2256:D I *D gf180mcu_fd_sc_mcu7t5v0__dffq_1
*I *2247:ZN O *D gf180mcu_fd_sc_mcu7t5v0__nor3_1
*CAP
1 *2256:D 0.000140196
2 *2247:ZN 0.000140196
3 *2256:D *2117:A1 2.78813e-05
4 *2256:D *2247:A2 0.000229696
5 *2256:D *2247:A3 0.00063236
6 *2256:D *231:10 4.6612e-05
7 *2256:D *331:27 9.29377e-06
8 *2256:D *331:36 5.83066e-05
*RES
1 *2247:ZN *2256:D 10.8424 
*END

*D_NET *91 0.00134559
*CONN
*I *2255:D I *D gf180mcu_fd_sc_mcu7t5v0__dffq_1
*I *2035:ZN O *D gf180mcu_fd_sc_mcu7t5v0__nor3_1
*CAP
1 *2255:D 0.000190026
2 *2035:ZN 0.000190026
3 *2255:D *2175:A2 0.000396502
4 *2255:D *330:27 0.00056904
*RES
1 *2035:ZN *2255:D 11.0727 
*END

*D_NET *92 0.00100579
*CONN
*I *2254:D I *D gf180mcu_fd_sc_mcu7t5v0__dffq_1
*I *2039:ZN O *D gf180mcu_fd_sc_mcu7t5v0__nor3_1
*CAP
1 *2254:D 0.000423615
2 *2039:ZN 0.000423615
3 *2254:D *2039:A1 0.000113816
4 *2254:D *2254:CLK 4.4742e-05
5 *2254:D *322:16 0
*RES
1 *2039:ZN *2254:D 11.4566 
*END

*D_NET *93 0.00399553
*CONN
*I *2253:D I *D gf180mcu_fd_sc_mcu7t5v0__dffq_1
*I *2043:ZN O *D gf180mcu_fd_sc_mcu7t5v0__nor3_1
*CAP
1 *2253:D 0.000287551
2 *2043:ZN 0.000287551
3 *2253:D *2040:A2 9.32698e-05
4 *2253:D *2043:A1 0.000492081
5 *2253:D *2043:A3 0.000647172
6 *2253:D *2124:A1 5.21162e-05
7 *2253:D *330:54 0.00153892
8 *2253:D *330:67 0.000139891
9 *2253:D *369:200 0.000456977
*RES
1 *2043:ZN *2253:D 21.6848 
*END

*D_NET *94 0.00191588
*CONN
*I *2252:D I *D gf180mcu_fd_sc_mcu7t5v0__dffq_1
*I *2047:ZN O *D gf180mcu_fd_sc_mcu7t5v0__nor3_1
*CAP
1 *2252:D 0.000371838
2 *2047:ZN 0.000371838
3 *2252:D *292:38 0
4 *2252:D *307:30 0.000536902
5 *2252:D *321:41 7.14998e-05
6 *2252:D *331:53 0.000563803
*RES
1 *2047:ZN *2252:D 20.6101 
*END

*D_NET *95 0.00704605
*CONN
*I *2251:D I *D gf180mcu_fd_sc_mcu7t5v0__dffq_1
*I *2051:ZN O *D gf180mcu_fd_sc_mcu7t5v0__nor3_1
*CAP
1 *2251:D 0.00341416
2 *2051:ZN 0.00341416
3 *2251:D *2051:A3 8.90215e-05
4 *2251:D *2143:A2 0
5 *2251:D *2144:A2 0
6 *2251:D *2146:A1 0.0001287
7 *2251:D *288:82 0
8 *2251:D *317:14 0
9 *2251:D *317:16 0
10 *2251:D *334:183 0
*RES
1 *2051:ZN *2251:D 31.8182 
*END

*D_NET *96 0.00116143
*CONN
*I *2250:D I *D gf180mcu_fd_sc_mcu7t5v0__dffq_1
*I *2055:ZN O *D gf180mcu_fd_sc_mcu7t5v0__nor3_1
*CAP
1 *2250:D 0.00020225
2 *2055:ZN 0.00020225
3 *2250:D *2055:A2 0.000444867
4 *2250:D *2282:CLK 0.000198243
5 *2250:D *328:128 0.000113816
*RES
1 *2055:ZN *2250:D 10.996 
*END

*D_NET *97 0.00179363
*CONN
*I *2249:D I *D gf180mcu_fd_sc_mcu7t5v0__dffq_1
*I *2059:ZN O *D gf180mcu_fd_sc_mcu7t5v0__nor3_1
*CAP
1 *2249:D 0.000440046
2 *2059:ZN 0.000440046
3 *2249:D *2057:B 1.2286e-05
4 *2249:D *2059:A1 3.4984e-05
5 *2249:D *2059:A2 0.000118002
6 *2249:D *2059:A3 0.000534505
7 *2249:D *305:26 0
8 *2249:D *313:24 0.000213757
*RES
1 *2059:ZN *2249:D 11.7636 
*END

*D_NET *98 0.00127199
*CONN
*I *2311:D I *D gf180mcu_fd_sc_mcu7t5v0__dffq_1
*I *2060:ZN O *D gf180mcu_fd_sc_mcu7t5v0__aoi211_1
*CAP
1 *2311:D 0.000222453
2 *2060:ZN 0.000222453
3 *2311:D *2060:A2 6.82897e-05
4 *2311:D *2151:A1 1.85875e-05
5 *2311:D *2151:A2 0
6 *2311:D *2153:A3 0.00054806
7 *2311:D *2311:CLK 2.27632e-05
8 *2311:D *159:12 0.000169381
*RES
1 *2060:ZN *2311:D 10.5354 
*END

*D_NET *99 0.00153391
*CONN
*I *2310:D I *D gf180mcu_fd_sc_mcu7t5v0__dffq_1
*I *2061:ZN O *D gf180mcu_fd_sc_mcu7t5v0__aoi211_1
*CAP
1 *2310:D 0.000288219
2 *2061:ZN 0.000288219
3 *2310:D *2061:A2 9.1053e-05
4 *2310:D *2156:A1 0.000153768
5 *2310:D *2156:A2 9.59308e-05
6 *2310:D *2158:A3 0.000616719
*RES
1 *2061:ZN *2310:D 10.996 
*END

*D_NET *100 0.00083898
*CONN
*I *2309:D I *D gf180mcu_fd_sc_mcu7t5v0__dffq_1
*I *2062:ZN O *D gf180mcu_fd_sc_mcu7t5v0__aoi211_1
*CAP
1 *2309:D 0.000133682
2 *2062:ZN 0.000133682
3 *2309:D *2062:C 9.36696e-05
4 *2309:D *2161:A1 0
5 *2309:D *2163:A1 0.000227592
6 *2309:D *2163:A2 0.000159343
7 *2309:D *357:17 9.10123e-05
*RES
1 *2062:ZN *2309:D 10.2283 
*END

*D_NET *101 0.00103425
*CONN
*I *2308:D I *D gf180mcu_fd_sc_mcu7t5v0__dffq_1
*I *2063:ZN O *D gf180mcu_fd_sc_mcu7t5v0__aoi211_1
*CAP
1 *2308:D 0.00031204
2 *2063:ZN 0.00031204
3 *2308:D *2063:B 8.94841e-05
4 *2308:D *2063:C 0.000169381
5 *2308:D *2167:A2 1.25565e-05
6 *2308:D *2169:A2 0.000138752
*RES
1 *2063:ZN *2308:D 10.7657 
*END

*D_NET *102 0.000999406
*CONN
*I *2307:D I *D gf180mcu_fd_sc_mcu7t5v0__dffq_1
*I *2064:ZN O *D gf180mcu_fd_sc_mcu7t5v0__aoi211_1
*CAP
1 *2307:D 0.000181682
2 *2064:ZN 0.000181682
3 *2307:D *2064:A1 0.000311455
4 *2307:D *2064:B 0.000227632
5 *2307:D *2064:C 5.7788e-05
6 *2307:D *2171:A1 3.91666e-05
*RES
1 *2064:ZN *2307:D 10.6889 
*END

*D_NET *103 0.00143503
*CONN
*I *2306:D I *D gf180mcu_fd_sc_mcu7t5v0__dffq_1
*I *2065:ZN O *D gf180mcu_fd_sc_mcu7t5v0__aoi211_1
*CAP
1 *2306:D 0.000339468
2 *2065:ZN 0.000339468
3 *2306:D *2065:A2 0.000716576
4 *2306:D *2065:C 1.85875e-05
5 *2306:D *179:12 2.09275e-05
6 *2306:D *292:70 0
*RES
1 *2065:ZN *2306:D 11.303 
*END

*D_NET *104 0.00397129
*CONN
*I *2142:A1 I *D gf180mcu_fd_sc_mcu7t5v0__and2_1
*I *2136:A1 I *D gf180mcu_fd_sc_mcu7t5v0__and2_1
*I *2066:ZN O *D gf180mcu_fd_sc_mcu7t5v0__clkinv_1
*CAP
1 *2142:A1 8.7704e-05
2 *2136:A1 0.000412119
3 *2066:ZN 2.42427e-05
4 *104:6 0.000524065
5 *2136:A1 *2066:I 0.000386935
6 *2136:A1 *2160:A2 0.00116583
7 *2136:A1 *2175:A2 0.000128275
8 *2136:A1 *2312:CLK 0.000492081
9 *2136:A1 *310:18 6.9968e-05
10 *2136:A1 *321:24 4.55265e-05
11 *2136:A1 *332:26 0.000456977
12 *2136:A1 *332:39 8.70433e-05
13 *2142:A1 *2175:A2 9.05243e-05
14 *2142:A1 *306:20 0
*RES
1 *2066:ZN *104:6 4.65354 
2 *104:6 *2136:A1 17.4919 
3 *104:6 *2142:A1 5.26768 
*END

*D_NET *105 0.00393694
*CONN
*I *2069:A2 I *D gf180mcu_fd_sc_mcu7t5v0__nor3_1
*I *2067:ZN O *D gf180mcu_fd_sc_mcu7t5v0__aoi22_1
*CAP
1 *2069:A2 0.000530407
2 *2067:ZN 0.000530407
3 *2069:A2 *2067:B2 2.08238e-05
4 *2069:A2 *2068:A2 4.64523e-05
5 *2069:A2 *2069:A1 0.00191507
6 *2069:A2 *2069:A3 0.00023597
7 *2069:A2 *271:14 0.000135209
8 *2069:A2 *271:21 0.000364325
9 *2069:A2 *293:53 3.71585e-05
10 *2069:A2 *353:20 7.30225e-06
11 *2305:D *2069:A2 0.000113816
*RES
1 *2067:ZN *2069:A2 21.8219 
*END

*D_NET *106 0.00155963
*CONN
*I *2069:A3 I *D gf180mcu_fd_sc_mcu7t5v0__nor3_1
*I *2068:ZN O *D gf180mcu_fd_sc_mcu7t5v0__nor2_1
*CAP
1 *2069:A3 0.000470242
2 *2068:ZN 0.000470242
3 *2069:A3 *2068:A2 9.62006e-05
4 *2069:A3 *271:14 2.16568e-05
5 *2069:A3 *271:21 8.63562e-05
6 *2069:A3 *293:53 0
7 *2069:A2 *2069:A3 0.00023597
8 *2305:D *2069:A3 0.000178966
*RES
1 *2068:ZN *2069:A3 20.3716 
*END

*D_NET *107 0.00303971
*CONN
*I *2072:A2 I *D gf180mcu_fd_sc_mcu7t5v0__nor3_1
*I *2070:ZN O *D gf180mcu_fd_sc_mcu7t5v0__aoi22_1
*CAP
1 *2072:A2 0.000532329
2 *2070:ZN 0.000532329
3 *2072:A2 *2070:A1 3.05295e-05
4 *2072:A2 *2070:A2 0.000455101
5 *2072:A2 *2070:B1 0.000232502
6 *2072:A2 *2071:A1 0
7 *2072:A2 *2071:A2 2.9291e-05
8 *2072:A2 *2072:A3 6.25989e-05
9 *2072:A2 *331:87 0
10 *2304:D *2072:A2 0.00116503
*RES
1 *2070:ZN *2072:A2 12.8384 
*END

*D_NET *108 0.0015931
*CONN
*I *2072:A3 I *D gf180mcu_fd_sc_mcu7t5v0__nor3_1
*I *2071:ZN O *D gf180mcu_fd_sc_mcu7t5v0__nor2_1
*CAP
1 *2072:A3 0.000597032
2 *2071:ZN 0.000597032
3 *2072:A3 *2071:A2 2.33227e-05
4 *2072:A3 *331:87 0
5 *2072:A3 *331:98 0
6 *2072:A3 *331:111 0
7 *2072:A3 *352:12 0
8 *2072:A2 *2072:A3 6.25989e-05
9 *2304:D *2072:A3 0.000313113
*RES
1 *2071:ZN *2072:A3 20.4374 
*END

*D_NET *109 0.0039048
*CONN
*I *2075:A2 I *D gf180mcu_fd_sc_mcu7t5v0__nor3_1
*I *2073:ZN O *D gf180mcu_fd_sc_mcu7t5v0__aoi22_1
*CAP
1 *2075:A2 0.000454418
2 *2073:ZN 0.000454418
3 *2075:A2 *2073:A2 8.46903e-05
4 *2075:A2 *2073:B1 2.78647e-05
5 *2075:A2 *2074:A2 4.66453e-05
6 *2075:A2 *2075:A3 0.00204384
7 *2075:A2 *189:10 9.32906e-05
8 *2075:A2 *369:291 0.000130597
9 *2303:D *2075:A2 0.00056904
*RES
1 *2073:ZN *2075:A2 13.2825 
*END

*D_NET *110 0.005004
*CONN
*I *2075:A3 I *D gf180mcu_fd_sc_mcu7t5v0__nor3_1
*I *2074:ZN O *D gf180mcu_fd_sc_mcu7t5v0__nor2_1
*CAP
1 *2075:A3 0.000709854
2 *2074:ZN 0.000709854
3 *2075:A3 *2074:A1 0.00133746
4 *2075:A3 *2074:A2 0
5 *2075:A3 *328:79 0.000156349
6 *2075:A3 *351:8 0
7 *2075:A3 *369:291 4.66453e-05
8 *2075:A2 *2075:A3 0.00204384
*RES
1 *2074:ZN *2075:A3 22.9817 
*END

*D_NET *111 0.000468514
*CONN
*I *2078:A2 I *D gf180mcu_fd_sc_mcu7t5v0__nor3_1
*I *2076:ZN O *D gf180mcu_fd_sc_mcu7t5v0__aoi22_1
*CAP
1 *2078:A2 0.000157476
2 *2076:ZN 0.000157476
3 *2078:A2 *2076:A1 4.1855e-06
4 *2078:A2 *2076:A2 0
5 *2078:A2 *2078:A1 0.000149377
*RES
1 *2076:ZN *2078:A2 9.90476 
*END

*D_NET *112 0.00136402
*CONN
*I *2078:A3 I *D gf180mcu_fd_sc_mcu7t5v0__nor3_1
*I *2077:ZN O *D gf180mcu_fd_sc_mcu7t5v0__nor2_1
*CAP
1 *2078:A3 0.000551012
2 *2077:ZN 0.000551012
3 *2078:A3 *2078:A1 0.000151012
4 *2078:A3 *268:10 0
5 *2078:A3 *268:16 0.00011098
*RES
1 *2077:ZN *2078:A3 20.3442 
*END

*D_NET *113 0.00329613
*CONN
*I *2081:A2 I *D gf180mcu_fd_sc_mcu7t5v0__nor3_1
*I *2079:ZN O *D gf180mcu_fd_sc_mcu7t5v0__aoi22_1
*CAP
1 *2081:A2 0.000526435
2 *2079:ZN 0.000526435
3 *2081:A2 *2079:B1 0.000207717
4 *2081:A2 *2079:B2 2.99843e-05
5 *2081:A2 *2080:A1 0.000118002
6 *2081:A2 *2080:A2 1.90809e-05
7 *2081:A2 *2081:A1 0.000183177
8 *2081:A2 *2081:A3 0.000556329
9 *2081:A2 *2196:A1 8.90215e-05
10 *2081:A2 *267:8 0.000148369
11 *2081:A2 *313:24 0.000699463
12 *2081:A2 *328:118 1.73721e-05
13 *2081:A2 *328:120 8.68604e-05
14 *2081:A2 *349:10 0
15 *2081:A2 *369:316 8.78861e-05
16 *2269:D *2081:A2 0
*RES
1 *2079:ZN *2081:A2 21.4518 
*END

*D_NET *114 0.00209149
*CONN
*I *2081:A3 I *D gf180mcu_fd_sc_mcu7t5v0__nor3_1
*I *2080:ZN O *D gf180mcu_fd_sc_mcu7t5v0__nor2_1
*CAP
1 *2081:A3 0.000306234
2 *2080:ZN 0.000306234
3 *2081:A3 *2080:A1 0.00016625
4 *2081:A3 *2080:A2 0.000756447
5 *2081:A2 *2081:A3 0.000556329
*RES
1 *2080:ZN *2081:A3 11.3524 
*END

*D_NET *115 0.00428819
*CONN
*I *2084:A2 I *D gf180mcu_fd_sc_mcu7t5v0__nor3_1
*I *2082:ZN O *D gf180mcu_fd_sc_mcu7t5v0__aoi22_1
*CAP
1 *2084:A2 0.000574642
2 *2082:ZN 0.000574642
3 *2084:A2 *2082:A1 0.000214122
4 *2084:A2 *2082:B1 0.000795608
5 *2084:A2 *2084:A1 0.000409204
6 *2084:A2 *2200:A2 0.000128275
7 *2084:A2 *2201:B 2.49886e-06
8 *2084:A2 *2202:A1 0.000348268
9 *2084:A2 *2203:A2 0.000402676
10 *2084:A2 *2203:A3 0.000606195
11 *2084:A2 *198:6 5.82858e-05
12 *2084:A2 *265:12 4.1855e-06
13 *2084:A2 *328:173 9.1053e-05
14 *2084:A2 *334:43 4.1855e-06
15 *2267:D *2084:A2 7.43502e-05
*RES
1 *2082:ZN *2084:A2 22.3593 
*END

*D_NET *116 0.00118477
*CONN
*I *2084:A3 I *D gf180mcu_fd_sc_mcu7t5v0__nor3_1
*I *2083:ZN O *D gf180mcu_fd_sc_mcu7t5v0__nor2_1
*CAP
1 *2084:A3 0.000490046
2 *2083:ZN 0.000490046
3 *2084:A3 *2084:A1 7.14998e-05
4 *2084:A3 *265:12 2.8894e-05
5 *2267:D *2084:A3 1.52648e-05
6 *2300:D *2084:A3 8.90215e-05
*RES
1 *2083:ZN *2084:A3 20.0371 
*END

*D_NET *117 0.0036755
*CONN
*I *2087:A2 I *D gf180mcu_fd_sc_mcu7t5v0__nor3_1
*I *2085:ZN O *D gf180mcu_fd_sc_mcu7t5v0__aoi22_1
*CAP
1 *2087:A2 0.000289215
2 *2085:ZN 0.000289215
3 *2087:A2 *2085:A2 8.70433e-05
4 *2087:A2 *2085:B1 0.000593477
5 *2087:A2 *2207:A1 0.00163222
6 *2087:A2 *2207:A3 8.57998e-05
7 *2266:D *2087:A2 0.000219791
8 *2299:D *2087:A2 0.000478738
*RES
1 *2085:ZN *2087:A2 21.7452 
*END

*D_NET *118 0.00216784
*CONN
*I *2087:A3 I *D gf180mcu_fd_sc_mcu7t5v0__nor3_1
*I *2086:ZN O *D gf180mcu_fd_sc_mcu7t5v0__nor2_1
*CAP
1 *2087:A3 0.000818258
2 *2086:ZN 0.000818258
3 *2087:A3 *2086:A1 8.85734e-05
4 *2087:A3 *2086:A2 0.000239369
5 *2087:A3 *2267:CLK 0
6 *2087:A3 *201:6 5.20595e-05
7 *2087:A3 *264:10 7.18107e-05
8 *2087:A3 *346:14 0
9 *2087:A3 *346:33 7.95095e-05
10 *2299:D *2087:A3 0
*RES
1 *2086:ZN *2087:A3 21.9069 
*END

*D_NET *119 0.0048187
*CONN
*I *2090:A2 I *D gf180mcu_fd_sc_mcu7t5v0__nor3_1
*I *2088:ZN O *D gf180mcu_fd_sc_mcu7t5v0__aoi22_1
*CAP
1 *2090:A2 0.00153863
2 *2088:ZN 0.00153863
3 *2090:A2 *2088:B1 5.77608e-05
4 *2090:A2 *2090:A1 0.000159302
5 *2090:A2 *2090:A3 0
6 *2090:A2 *2210:A2 0.000208465
7 *2090:A2 *2211:A3 0
8 *2090:A2 *292:12 0.00116576
9 *2298:D *2090:A2 0.00015015
*RES
1 *2088:ZN *2090:A2 24.7391 
*END

*D_NET *120 0.00275228
*CONN
*I *2090:A3 I *D gf180mcu_fd_sc_mcu7t5v0__nor3_1
*I *2089:ZN O *D gf180mcu_fd_sc_mcu7t5v0__nor2_1
*CAP
1 *2090:A3 0.000985641
2 *2089:ZN 0.000985641
3 *2090:A3 *2089:A2 0
4 *2090:A3 *204:10 0
5 *2090:A3 *288:10 0
6 *2090:A3 *288:29 0.000280533
7 *2090:A2 *2090:A3 0
8 *2298:D *2090:A3 0.00050046
*RES
1 *2089:ZN *2090:A3 22.5019 
*END

*D_NET *121 0.00131893
*CONN
*I *2093:A2 I *D gf180mcu_fd_sc_mcu7t5v0__nor3_1
*I *2091:ZN O *D gf180mcu_fd_sc_mcu7t5v0__aoi22_1
*CAP
1 *2093:A2 0.000195968
2 *2091:ZN 0.000195968
3 *2093:A2 *2091:A1 7.98965e-05
4 *2093:A2 *2091:B1 7.98965e-05
5 *2093:A2 *2093:A3 0
6 *2093:A2 *2214:A1 0.000267065
7 *2093:A2 *287:13 0.000173721
8 *2297:D *2093:A2 0.000326412
*RES
1 *2091:ZN *2093:A2 19.7492 
*END

*D_NET *122 0.00143319
*CONN
*I *2093:A3 I *D gf180mcu_fd_sc_mcu7t5v0__nor3_1
*I *2092:ZN O *D gf180mcu_fd_sc_mcu7t5v0__nor2_1
*CAP
1 *2093:A3 0.000280287
2 *2092:ZN 0.000280287
3 *2093:A3 *2092:A1 1.82747e-05
4 *2093:A3 *2092:A2 3.05295e-05
5 *2093:A3 *287:15 0.000265029
6 *2093:A3 *287:75 0.000322134
7 *2093:A3 *329:83 0.000202794
8 *2093:A3 *329:96 3.38559e-05
9 *2093:A2 *2093:A3 0
*RES
1 *2092:ZN *2093:A3 11.3524 
*END

*D_NET *123 0.00269433
*CONN
*I *2096:A2 I *D gf180mcu_fd_sc_mcu7t5v0__nor3_1
*I *2094:ZN O *D gf180mcu_fd_sc_mcu7t5v0__aoi22_1
*CAP
1 *2096:A2 0.000735984
2 *2094:ZN 0.000735984
3 *2096:A2 *2094:A1 7.98965e-05
4 *2096:A2 *2094:B1 6.52824e-05
5 *2096:A2 *2095:A2 4.41256e-05
6 *2096:A2 *2096:A3 0.000481203
7 *2096:A2 *2216:A2 0
8 *2096:A2 *2296:CLK 7.29331e-05
9 *2096:A2 *343:8 0.000402598
10 *2296:D *2096:A2 7.63238e-05
*RES
1 *2094:ZN *2096:A2 21.8219 
*END

*D_NET *124 0.00413003
*CONN
*I *2096:A3 I *D gf180mcu_fd_sc_mcu7t5v0__nor3_1
*I *2095:ZN O *D gf180mcu_fd_sc_mcu7t5v0__nor2_1
*CAP
1 *2096:A3 0.000686285
2 *2095:ZN 0.000686285
3 *2096:A3 *2094:A1 7.31676e-05
4 *2096:A3 *2094:A2 7.98965e-05
5 *2096:A3 *2094:B1 0.000267065
6 *2096:A3 *2094:B2 8.37099e-06
7 *2096:A3 *2095:A1 0.000604408
8 *2096:A3 *2095:A2 0
9 *2096:A3 *2216:A2 1.2549e-05
10 *2096:A3 *2296:CLK 0.000436233
11 *2096:A3 *261:18 0.000119986
12 *2096:A2 *2096:A3 0.000481203
13 *2263:D *2096:A3 0.000674585
*RES
1 *2095:ZN *2096:A3 22.5869 
*END

*D_NET *125 0.00168396
*CONN
*I *2099:A2 I *D gf180mcu_fd_sc_mcu7t5v0__nor3_1
*I *2097:ZN O *D gf180mcu_fd_sc_mcu7t5v0__aoi22_1
*CAP
1 *2099:A2 0.000307857
2 *2097:ZN 0.000307857
3 *2099:A2 *2097:A1 0.000428237
4 *2099:A2 *2097:B1 0.000134226
5 *2099:A2 *2099:A3 9.6043e-05
6 *2099:A2 *260:18 0.000409738
7 *2295:D *2099:A2 0
*RES
1 *2097:ZN *2099:A2 11.8404 
*END

*D_NET *126 0.00134925
*CONN
*I *2099:A3 I *D gf180mcu_fd_sc_mcu7t5v0__nor3_1
*I *2098:ZN O *D gf180mcu_fd_sc_mcu7t5v0__nor2_1
*CAP
1 *2099:A3 0.000341897
2 *2098:ZN 0.000341897
3 *2099:A3 *2098:A1 0.000113032
4 *2099:A3 *260:18 0.000409738
5 *2099:A2 *2099:A3 9.6043e-05
6 *2295:D *2099:A3 4.66453e-05
*RES
1 *2098:ZN *2099:A3 11.303 
*END

*D_NET *127 0.00224943
*CONN
*I *2102:A2 I *D gf180mcu_fd_sc_mcu7t5v0__nor3_1
*I *2100:ZN O *D gf180mcu_fd_sc_mcu7t5v0__aoi22_1
*CAP
1 *2102:A2 0.00046694
2 *2100:ZN 0.00046694
3 *2102:A2 *2100:A1 7.98965e-05
4 *2102:A2 *2101:A1 2.85999e-05
5 *2102:A2 *2101:A2 0.000282891
6 *2102:A2 *2102:A1 1.52648e-05
7 *2102:A2 *2102:A3 0.000290366
8 *2102:A2 *259:27 0.000177187
9 *2102:A2 *333:61 5.5746e-05
10 *2102:A2 *341:16 0.000139894
11 *2102:A2 *341:22 0.000233152
12 *1:14 *2102:A2 1.25565e-05
*RES
1 *2100:ZN *2102:A2 20.9007 
*END

*D_NET *128 0.00143915
*CONN
*I *2102:A3 I *D gf180mcu_fd_sc_mcu7t5v0__nor3_1
*I *2101:ZN O *D gf180mcu_fd_sc_mcu7t5v0__nor2_1
*CAP
1 *2102:A3 0.000439918
2 *2101:ZN 0.000439918
3 *2102:A3 *2100:B2 8.29801e-06
4 *2102:A3 *2102:A1 0.000149494
5 *2102:A3 *2224:A1 4.1855e-06
6 *2102:A3 *259:27 4.1855e-06
7 *2102:A3 *341:22 8.36274e-05
8 *2102:A2 *2102:A3 0.000290366
9 *1:14 *2102:A3 1.91579e-05
*RES
1 *2101:ZN *2102:A3 20.0371 
*END

*D_NET *129 0.00268176
*CONN
*I *2105:A2 I *D gf180mcu_fd_sc_mcu7t5v0__nor3_1
*I *2103:ZN O *D gf180mcu_fd_sc_mcu7t5v0__aoi22_1
*CAP
1 *2105:A2 0.000390388
2 *2103:ZN 0.000390388
3 *2105:A2 *2103:B1 0.000536902
4 *2105:A2 *2104:A1 5.57626e-05
5 *2105:A2 *2229:B 0
6 *2105:A2 *219:10 0.000130296
7 *2105:A2 *258:23 0.000536902
8 *2105:A2 *335:35 0.000473208
9 *2293:D *2105:A2 0.000167912
*RES
1 *2103:ZN *2105:A2 12.4545 
*END

*D_NET *130 0.000241975
*CONN
*I *2105:A3 I *D gf180mcu_fd_sc_mcu7t5v0__nor3_1
*I *2104:ZN O *D gf180mcu_fd_sc_mcu7t5v0__nor2_1
*CAP
1 *2105:A3 9.04579e-05
2 *2104:ZN 9.04579e-05
3 *2293:D *2105:A3 6.1059e-05
*RES
1 *2104:ZN *2105:A3 9.69091 
*END

*D_NET *131 0.00142154
*CONN
*I *2108:A2 I *D gf180mcu_fd_sc_mcu7t5v0__nor3_1
*I *2106:ZN O *D gf180mcu_fd_sc_mcu7t5v0__aoi22_1
*CAP
1 *2108:A2 0.000289544
2 *2106:ZN 0.000289544
3 *2108:A2 *2108:A3 0.000396884
4 *2108:A2 *297:16 0.000195171
5 *2292:D *2108:A2 0.000250396
*RES
1 *2106:ZN *2108:A2 11.2866 
*END

*D_NET *132 0.00137685
*CONN
*I *2108:A3 I *D gf180mcu_fd_sc_mcu7t5v0__nor3_1
*I *2107:ZN O *D gf180mcu_fd_sc_mcu7t5v0__nor2_1
*CAP
1 *2108:A3 0.000446894
2 *2107:ZN 0.000446894
3 *2108:A3 *2106:B2 4.55265e-05
4 *2108:A3 *2292:CLK 4.06487e-05
5 *2108:A2 *2108:A3 0.000396884
*RES
1 *2107:ZN *2108:A3 11.6101 
*END

*D_NET *133 0.00200846
*CONN
*I *2111:A2 I *D gf180mcu_fd_sc_mcu7t5v0__nor3_1
*I *2109:ZN O *D gf180mcu_fd_sc_mcu7t5v0__aoi22_1
*CAP
1 *2111:A2 0.000471429
2 *2109:ZN 0.000471429
3 *2111:A2 *2109:A1 8.78861e-05
4 *2111:A2 *2110:A2 0.000169028
5 *2111:A2 *2111:A3 3.73968e-05
6 *2111:A2 *2236:A2 3.26412e-05
7 *2111:A2 *291:47 0.000699502
8 *2111:A2 *338:6 3.91468e-05
9 *2291:D *2111:A2 0
*RES
1 *2109:ZN *2111:A2 20.7609 
*END

*D_NET *134 0.0015916
*CONN
*I *2111:A3 I *D gf180mcu_fd_sc_mcu7t5v0__nor3_1
*I *2110:ZN O *D gf180mcu_fd_sc_mcu7t5v0__nor2_1
*CAP
1 *2111:A3 0.000304892
2 *2110:ZN 0.000304892
3 *2111:A3 *256:8 4.30876e-05
4 *2111:A3 *291:47 0
5 *2111:A3 *294:12 0.000886065
6 *2111:A2 *2111:A3 3.73968e-05
7 *2291:D *2111:A3 1.52683e-05
*RES
1 *2110:ZN *2111:A3 19.73 
*END

*D_NET *135 0.000841554
*CONN
*I *2114:A2 I *D gf180mcu_fd_sc_mcu7t5v0__nor3_1
*I *2112:ZN O *D gf180mcu_fd_sc_mcu7t5v0__aoi22_1
*CAP
1 *2114:A2 0.0001655
2 *2112:ZN 0.0001655
3 *2114:A2 *2112:A1 1.16613e-05
4 *2114:A2 *2112:A2 0.000186882
5 *2114:A2 *2112:B1 0.000137135
6 *2114:A2 *313:24 6.1059e-05
7 *2290:D *2114:A2 0.000113816
*RES
1 *2112:ZN *2114:A2 10.3818 
*END

*D_NET *136 0.00121236
*CONN
*I *2114:A3 I *D gf180mcu_fd_sc_mcu7t5v0__nor3_1
*I *2113:ZN O *D gf180mcu_fd_sc_mcu7t5v0__nor2_1
*CAP
1 *2114:A3 0.00025139
2 *2113:ZN 0.00025139
3 *2114:A3 *2113:A1 0.000430626
4 *2114:A3 *2113:A2 1.30565e-05
5 *2114:A3 *291:69 8.93232e-05
6 *2290:D *2114:A3 0.000176571
*RES
1 *2113:ZN *2114:A3 19.2927 
*END

*D_NET *137 0.00241228
*CONN
*I *2117:A2 I *D gf180mcu_fd_sc_mcu7t5v0__nor3_1
*I *2115:ZN O *D gf180mcu_fd_sc_mcu7t5v0__aoi22_1
*CAP
1 *2117:A2 0.000453469
2 *2115:ZN 0.000453469
3 *2117:A2 *2115:A1 0.000100068
4 *2117:A2 *2115:A2 8.46903e-05
5 *2117:A2 *2115:B1 4.66453e-05
6 *2117:A2 *2117:A1 3.4984e-05
7 *2117:A2 *2117:A3 8.70872e-05
8 *2117:A2 *2244:A1 0.000204869
9 *2117:A2 *2289:CLK 0
10 *2117:A2 *301:18 0.000251615
11 *2117:A2 *320:20 0.000313194
12 *2117:A2 *366:21 0.000191093
13 *2289:D *2117:A2 0.000191093
*RES
1 *2115:ZN *2117:A2 21.2078 
*END

*D_NET *138 0.00140324
*CONN
*I *2117:A3 I *D gf180mcu_fd_sc_mcu7t5v0__nor3_1
*I *2116:ZN O *D gf180mcu_fd_sc_mcu7t5v0__nor2_1
*CAP
1 *2117:A3 0.00015909
2 *2116:ZN 0.00015909
3 *2117:A3 *2289:CLK 1.75918e-05
4 *2117:A3 *285:16 0.000597627
5 *2117:A3 *301:18 0.000115687
6 *2117:A2 *2117:A3 8.70872e-05
7 *2289:D *2117:A3 0.000267065
*RES
1 *2116:ZN *2117:A3 19.2927 
*END

*D_NET *139 0.00226703
*CONN
*I *2120:A2 I *D gf180mcu_fd_sc_mcu7t5v0__nor3_1
*I *2118:ZN O *D gf180mcu_fd_sc_mcu7t5v0__aoi22_1
*CAP
1 *2120:A2 0.00055331
2 *2118:ZN 0.00055331
3 *2120:A2 *2118:A1 0.000258863
4 *2120:A2 *2118:B1 2.33227e-05
5 *2120:A2 *2119:A2 0.000194506
6 *2120:A2 *2120:A3 3.73968e-05
7 *2120:A2 *300:26 0.000411048
8 *2120:A2 *301:18 3.00102e-05
9 *2120:A2 *365:26 8.50465e-05
10 *2288:D *2120:A2 0.000120217
*RES
1 *2118:ZN *2120:A2 12.6684 
*END

*D_NET *140 0.00228444
*CONN
*I *2120:A3 I *D gf180mcu_fd_sc_mcu7t5v0__nor3_1
*I *2119:ZN O *D gf180mcu_fd_sc_mcu7t5v0__nor2_1
*CAP
1 *2120:A3 0.000337929
2 *2119:ZN 0.000337929
3 *2120:A3 *2119:A2 0.000466312
4 *2120:A3 *2120:A1 0.000792766
5 *2120:A3 *2165:A2 0.0001144
6 *2120:A3 *300:26 5.22259e-05
7 *2120:A3 *301:18 7.35048e-05
8 *2120:A3 *326:14 2.8894e-05
9 *2120:A3 *331:23 4.30876e-05
10 *2120:A2 *2120:A3 3.73968e-05
*RES
1 *2119:ZN *2120:A3 20.1906 
*END

*D_NET *141 0.000530003
*CONN
*I *2123:A2 I *D gf180mcu_fd_sc_mcu7t5v0__nor3_1
*I *2121:ZN O *D gf180mcu_fd_sc_mcu7t5v0__aoi22_1
*CAP
1 *2123:A2 0.000145992
2 *2121:ZN 0.000145992
3 *2123:A2 *2121:A1 0
4 *2123:A2 *330:31 0.000199991
5 *2123:A2 *330:37 2.27632e-05
6 *2287:D *2123:A2 1.52648e-05
*RES
1 *2121:ZN *2123:A2 9.90476 
*END

*D_NET *142 0.00115564
*CONN
*I *2123:A3 I *D gf180mcu_fd_sc_mcu7t5v0__nor3_1
*I *2122:ZN O *D gf180mcu_fd_sc_mcu7t5v0__nor2_1
*CAP
1 *2123:A3 0.000469467
2 *2122:ZN 0.000469467
3 *2123:A3 *2121:B1 0
4 *2123:A3 *2121:B2 8.48671e-05
5 *2123:A3 *2165:A2 8.46903e-05
6 *2123:A3 *295:31 0
7 *2123:A3 *330:37 2.50778e-05
8 *2123:A3 *369:174 2.20732e-05
*RES
1 *2122:ZN *2123:A3 19.73 
*END

*D_NET *143 0.00262179
*CONN
*I *2126:A2 I *D gf180mcu_fd_sc_mcu7t5v0__nor3_1
*I *2124:ZN O *D gf180mcu_fd_sc_mcu7t5v0__aoi22_1
*CAP
1 *2126:A2 0.000593397
2 *2124:ZN 0.000593397
3 *2126:A2 *2040:A2 2.49886e-06
4 *2126:A2 *2124:A2 0.000140002
5 *2126:A2 *171:10 0.00116588
6 *2126:A2 *311:30 0
7 *2126:A2 *363:12 2.29062e-05
8 *2286:D *2126:A2 0.000103709
*RES
1 *2124:ZN *2126:A2 21.7589 
*END

*D_NET *144 0.00102255
*CONN
*I *2126:A3 I *D gf180mcu_fd_sc_mcu7t5v0__nor3_1
*I *2125:ZN O *D gf180mcu_fd_sc_mcu7t5v0__nor2_1
*CAP
1 *2126:A3 0.000162706
2 *2125:ZN 0.000162706
3 *2126:A3 *2125:A2 0.000139311
4 *2126:A3 *282:16 2.33227e-05
5 *2286:D *2126:A3 0.000534505
*RES
1 *2125:ZN *2126:A3 10.3777 
*END

*D_NET *145 0.000835385
*CONN
*I *2129:A2 I *D gf180mcu_fd_sc_mcu7t5v0__nor3_1
*I *2127:ZN O *D gf180mcu_fd_sc_mcu7t5v0__aoi22_1
*CAP
1 *2129:A2 0.000251812
2 *2127:ZN 0.000251812
3 *2129:A2 *2127:A1 5.41653e-05
4 *2129:A2 *2127:B1 4.55265e-05
5 *2129:A2 *2129:A1 1.6742e-05
6 *2129:A2 *2129:A3 3.73968e-05
7 *2129:A2 *2175:A2 0
8 *2129:A2 *330:54 0
9 *2285:D *2129:A2 0.00017793
*RES
1 *2127:ZN *2129:A2 10.9192 
*END

*D_NET *146 0.0023211
*CONN
*I *2129:A3 I *D gf180mcu_fd_sc_mcu7t5v0__nor3_1
*I *2128:ZN O *D gf180mcu_fd_sc_mcu7t5v0__nor2_1
*CAP
1 *2129:A3 0.000702873
2 *2128:ZN 0.000702873
3 *2129:A3 *2044:A1 0
4 *2129:A3 *2127:A1 0.000121605
5 *2129:A3 *2128:A2 3.05295e-05
6 *2129:A3 *2175:A2 6.87617e-06
7 *2129:A3 *281:19 0
8 *2129:A3 *330:54 0.000581565
9 *2129:A3 *369:174 0.000137383
10 *2129:A2 *2129:A3 3.73968e-05
*RES
1 *2128:ZN *2129:A3 21.1968 
*END

*D_NET *147 0.00219174
*CONN
*I *2132:A2 I *D gf180mcu_fd_sc_mcu7t5v0__nor3_1
*I *2130:ZN O *D gf180mcu_fd_sc_mcu7t5v0__aoi22_1
*CAP
1 *2132:A2 0.00067379
2 *2130:ZN 0.00067379
3 *2132:A2 *2130:A1 2.33227e-05
4 *2132:A2 *2130:B1 0.000189004
5 *2132:A2 *2130:B2 6.10318e-05
6 *2132:A2 *2131:A2 9.62589e-05
7 *2132:A2 *2132:A1 4.4742e-05
8 *2132:A2 *2132:A3 3.73968e-05
9 *2132:A2 *246:12 0.000178968
10 *2132:A2 *280:16 4.55265e-05
11 *2132:A2 *303:18 0
12 *2284:D *2132:A2 0.000167912
*RES
1 *2130:ZN *2132:A2 12.6848 
*END

*D_NET *148 0.00165804
*CONN
*I *2132:A3 I *D gf180mcu_fd_sc_mcu7t5v0__nor3_1
*I *2131:ZN O *D gf180mcu_fd_sc_mcu7t5v0__nor2_1
*CAP
1 *2132:A3 0.000243061
2 *2131:ZN 0.000243061
3 *2132:A3 *2132:A1 0.000215639
4 *2132:A3 *293:16 0.000886024
5 *2132:A3 *303:18 1.52683e-05
6 *2132:A3 *309:18 1.75918e-05
7 *2132:A2 *2132:A3 3.73968e-05
*RES
1 *2131:ZN *2132:A3 19.73 
*END

*D_NET *149 0.00459608
*CONN
*I *2135:A2 I *D gf180mcu_fd_sc_mcu7t5v0__nor3_1
*I *2142:A2 I *D gf180mcu_fd_sc_mcu7t5v0__and2_1
*I *2133:Z O *D gf180mcu_fd_sc_mcu7t5v0__and3_1
*CAP
1 *2135:A2 0.000169699
2 *2142:A2 0.000667909
3 *2133:Z 0.000411419
4 *149:8 0.00124903
5 *2142:A2 *2134:B 0.000107538
6 *2142:A2 *2135:A3 0.000155663
7 *2142:A2 *2136:A2 0.00017609
8 *2142:A2 *2150:A2 0.0001144
9 *2142:A2 *2155:A2 0
10 *2142:A2 *2175:A2 1.85875e-05
11 *2142:A2 *319:14 0.000699494
12 *2142:A2 *369:560 0.000124639
13 *149:8 *2133:A3 0.000386975
14 *149:8 *2134:B 9.10123e-05
15 *149:8 *369:560 0.00022363
*RES
1 *2133:Z *149:8 6.72626 
2 *149:8 *2142:A2 17.0313 
3 *149:8 *2135:A2 5.57475 
*END

*D_NET *150 0.00109271
*CONN
*I *2135:A3 I *D gf180mcu_fd_sc_mcu7t5v0__nor3_1
*I *2134:ZN O *D gf180mcu_fd_sc_mcu7t5v0__aoi21_1
*CAP
1 *2135:A3 0.000221249
2 *2134:ZN 0.000221249
3 *2135:A3 *2134:B 0.00026041
4 *2135:A3 *2136:A2 5.60951e-05
5 *2135:A3 *369:575 0.000178043
6 *2142:A2 *2135:A3 0.000155663
*RES
1 *2134:ZN *2135:A3 19.3407 
*END

*D_NET *151 0.00525747
*CONN
*I *2149:A1 I *D gf180mcu_fd_sc_mcu7t5v0__aoi211_1
*I *2140:A3 I *D gf180mcu_fd_sc_mcu7t5v0__xor3_1
*I *2137:ZN O *D gf180mcu_fd_sc_mcu7t5v0__nand2_1
*CAP
1 *2149:A1 0
2 *2140:A3 0.000222094
3 *2137:ZN 0.000209436
4 *151:12 0.00043153
5 *2140:A3 *2140:A1 0.000581644
6 *2140:A3 *2141:A2 0.000606233
7 *2140:A3 *2149:A2 9.15886e-05
8 *2140:A3 *2149:B 0.00133267
9 *2140:A3 *309:18 0.00060623
10 *151:12 *2149:B 9.90717e-05
11 *151:12 *2281:CLK 0
12 *151:12 *321:24 0.00060623
13 *2281:D *2140:A3 0.000447418
14 *2281:D *151:12 0
15 *2336:I *2140:A3 9.16247e-06
16 *2336:I *151:12 1.41602e-05
*RES
1 *2137:ZN *151:12 14.668 
2 *151:12 *2140:A3 16.7846 
3 *151:12 *2149:A1 4.5 
*END

*D_NET *152 0.0043248
*CONN
*I *2149:A2 I *D gf180mcu_fd_sc_mcu7t5v0__aoi211_1
*I *2138:ZN O *D gf180mcu_fd_sc_mcu7t5v0__nand2_1
*CAP
1 *2149:A2 0.00054344
2 *2138:ZN 0.00054344
3 *2149:A2 *2138:A1 7.9726e-05
4 *2149:A2 *2140:A1 0.000172123
5 *2149:A2 *2140:A2 0.000274738
6 *2149:A2 *303:18 0.000381482
7 *2149:A2 *369:67 0.000281729
8 *2140:A3 *2149:A2 9.15886e-05
9 *2281:D *2149:A2 0.000227632
10 *2336:I *2149:A2 0.0017289
*RES
1 *2138:ZN *2149:A2 14.1434 
*END

*D_NET *153 0.00356908
*CONN
*I *2149:B I *D gf180mcu_fd_sc_mcu7t5v0__aoi211_1
*I *2139:ZN O *D gf180mcu_fd_sc_mcu7t5v0__nor2_1
*CAP
1 *2149:B 0.000438666
2 *2139:ZN 0.000438666
3 *2149:B *2140:A1 2.27632e-05
4 *2149:B *2140:A2 0.000137356
5 *2149:B *255:23 0.00102898
6 *2149:B *332:8 2.69068e-05
7 *2149:B *332:16 2.72585e-05
8 *2140:A3 *2149:B 0.00133267
9 *2347:I *2149:B 1.6742e-05
10 *151:12 *2149:B 9.90717e-05
*RES
1 *2139:ZN *2149:B 12.6081 
*END

*D_NET *154 0.00770453
*CONN
*I *2141:A2 I *D gf180mcu_fd_sc_mcu7t5v0__nor2_1
*I *2140:Z O *D gf180mcu_fd_sc_mcu7t5v0__xor3_1
*CAP
1 *2141:A2 0.00099143
2 *2140:Z 0.00099143
3 *2141:A2 *296:12 0.00270032
4 *2141:A2 *297:16 0
5 *2141:A2 *305:26 0
6 *2141:A2 *309:18 0.00130565
7 *2141:A2 *313:24 0.000671128
8 *2141:A2 *325:14 0.00026113
9 *2140:A3 *2141:A2 0.000606233
10 *2248:D *2141:A2 0.000177206
11 *2358:I *2141:A2 0
*RES
1 *2140:Z *2141:A2 26.4444 
*END

*D_NET *155 0.0021095
*CONN
*I *2145:A2 I *D gf180mcu_fd_sc_mcu7t5v0__nor3_1
*I *2143:ZN O *D gf180mcu_fd_sc_mcu7t5v0__aoi22_1
*CAP
1 *2145:A2 0.00036323
2 *2143:ZN 0.00036323
3 *2145:A2 *2052:A1 0
4 *2145:A2 *2052:A2 2.72585e-05
5 *2145:A2 *2145:A1 0.000328899
6 *2145:A2 *2145:A3 0
7 *2145:A2 *249:12 2.08238e-05
8 *2145:A2 *293:16 0.000801194
9 *2145:A2 *334:173 0
10 *2283:D *2145:A2 0.000204869
*RES
1 *2143:ZN *2145:A2 21.0543 
*END

*D_NET *156 0.00187667
*CONN
*I *2145:A3 I *D gf180mcu_fd_sc_mcu7t5v0__nor3_1
*I *2144:ZN O *D gf180mcu_fd_sc_mcu7t5v0__nor2_1
*CAP
1 *2145:A3 0.000583663
2 *2144:ZN 0.000583663
3 *2145:A3 *2144:A1 5.4824e-05
4 *2145:A3 *2144:A2 3.05295e-05
5 *2145:A2 *2145:A3 0
6 *2283:D *2145:A3 0.000623989
*RES
1 *2144:ZN *2145:A3 11.8363 
*END

*D_NET *157 0.00198778
*CONN
*I *2148:A2 I *D gf180mcu_fd_sc_mcu7t5v0__nor3_1
*I *2146:ZN O *D gf180mcu_fd_sc_mcu7t5v0__aoi22_1
*CAP
1 *2148:A2 0.000284486
2 *2146:ZN 0.000284486
3 *2148:A2 *2056:A2 0.000437831
4 *2148:A2 *2146:A1 5.87542e-05
5 *2148:A2 *2146:A2 0.000222755
6 *2148:A2 *2148:A3 0.00069947
*RES
1 *2146:ZN *2148:A2 20.0563 
*END

*D_NET *158 0.00269192
*CONN
*I *2148:A3 I *D gf180mcu_fd_sc_mcu7t5v0__nor3_1
*I *2147:ZN O *D gf180mcu_fd_sc_mcu7t5v0__nor2_1
*CAP
1 *2148:A3 0.000779266
2 *2147:ZN 0.000779266
3 *2148:A3 *2056:A1 1.04119e-05
4 *2148:A3 *2147:A2 0.000250396
5 *2148:A3 *301:18 0
6 *2148:A3 *305:26 0.000138687
7 *2148:A3 *334:269 1.52683e-05
8 *2148:A2 *2148:A3 0.00069947
9 *2282:D *2148:A3 1.91579e-05
*RES
1 *2147:ZN *2148:A3 21.5724 
*END

*D_NET *159 0.0055164
*CONN
*I *2060:A1 I *D gf180mcu_fd_sc_mcu7t5v0__aoi211_1
*I *2153:A3 I *D gf180mcu_fd_sc_mcu7t5v0__xor3_1
*I *2150:ZN O *D gf180mcu_fd_sc_mcu7t5v0__nand2_1
*CAP
1 *2060:A1 0
2 *2153:A3 0.000256157
3 *2150:ZN 0.00155901
4 *159:12 0.00181517
5 *2153:A3 *2060:B 8.29232e-05
6 *2153:A3 *2060:C 0.000511006
7 *2153:A3 *2311:CLK 0.000280925
8 *2153:A3 *295:80 0
9 *159:12 *2151:A1 5.87542e-05
10 *159:12 *311:12 0.00011098
11 *2279:D *159:12 0.000124037
12 *2311:D *2153:A3 0.00054806
13 *2311:D *159:12 0.000169381
*RES
1 *2150:ZN *159:12 21.2371 
2 *159:12 *2153:A3 7.20332 
3 *159:12 *2060:A1 4.5 
*END

*D_NET *160 0.000317481
*CONN
*I *2060:A2 I *D gf180mcu_fd_sc_mcu7t5v0__aoi211_1
*I *2151:ZN O *D gf180mcu_fd_sc_mcu7t5v0__nand2_1
*CAP
1 *2060:A2 0.000108842
2 *2151:ZN 0.000108842
3 *2060:A2 *2151:A1 9.26789e-06
4 *2060:A2 *2151:A2 2.22387e-05
5 *2311:D *2060:A2 6.82897e-05
*RES
1 *2151:ZN *2060:A2 9.92121 
*END

*D_NET *161 0.00246319
*CONN
*I *2060:B I *D gf180mcu_fd_sc_mcu7t5v0__aoi211_1
*I *2152:ZN O *D gf180mcu_fd_sc_mcu7t5v0__nor2_1
*CAP
1 *2060:B 0.000551007
2 *2152:ZN 0.000551007
3 *2060:B *2060:C 0.000162988
4 *2060:B *2151:A1 0.00026284
5 *2060:B *2153:A2 8.46903e-05
6 *2060:B *278:10 0.00054402
7 *2060:B *360:6 0.000223709
8 *2153:A3 *2060:B 8.29232e-05
*RES
1 *2152:ZN *2060:B 20.9583 
*END

*D_NET *162 0.000376675
*CONN
*I *2154:A2 I *D gf180mcu_fd_sc_mcu7t5v0__nor2_1
*I *2153:Z O *D gf180mcu_fd_sc_mcu7t5v0__xor3_1
*CAP
1 *2154:A2 0.000188337
2 *2153:Z 0.000188337
3 *2154:A2 *2060:C 0
4 *2278:D *2154:A2 0
*RES
1 *2153:Z *2154:A2 10.2283 
*END

*D_NET *163 0.00373006
*CONN
*I *2061:A1 I *D gf180mcu_fd_sc_mcu7t5v0__aoi211_1
*I *2158:A3 I *D gf180mcu_fd_sc_mcu7t5v0__xor3_1
*I *2155:ZN O *D gf180mcu_fd_sc_mcu7t5v0__nand2_1
*CAP
1 *2061:A1 0
2 *2158:A3 0.000282903
3 *2155:ZN 5.64645e-05
4 *163:10 0.000339367
5 *2158:A3 *2061:B 9.1053e-05
6 *2158:A3 *2156:A1 8.37099e-06
7 *2158:A3 *2156:A2 0.00106414
8 *2158:A3 *2157:A2 8.37099e-06
9 *2158:A3 *2158:A1 5.0226e-05
10 *163:10 *2150:A1 0.000373063
11 *163:10 *2279:CLK 0.000606221
12 *163:10 *369:575 0.000233158
13 *2310:D *2158:A3 0.000616719
*RES
1 *2155:ZN *163:10 14.498 
2 *163:10 *2158:A3 6.86335 
3 *163:10 *2061:A1 4.5 
*END

*D_NET *164 0.0011441
*CONN
*I *2061:A2 I *D gf180mcu_fd_sc_mcu7t5v0__aoi211_1
*I *2156:ZN O *D gf180mcu_fd_sc_mcu7t5v0__nand2_1
*CAP
1 *2061:A2 0.00023678
2 *2156:ZN 0.00023678
3 *2061:A2 *2150:A2 0
4 *2061:A2 *2155:A1 0.000402597
5 *2061:A2 *2156:A1 0.000131359
6 *2061:A2 *2156:A2 4.55265e-05
7 *2310:D *2061:A2 9.1053e-05
*RES
1 *2156:ZN *2061:A2 10.8424 
*END

*D_NET *165 0.00323477
*CONN
*I *2061:B I *D gf180mcu_fd_sc_mcu7t5v0__aoi211_1
*I *2157:ZN O *D gf180mcu_fd_sc_mcu7t5v0__nor2_1
*CAP
1 *2061:B 0.000230772
2 *2157:ZN 0.000230772
3 *2061:B *2061:C 1.46335e-05
4 *2061:B *2156:A2 0.000878778
5 *2061:B *2157:A1 0.00115849
6 *2061:B *2157:A2 0.000402676
7 *2061:B *332:60 0.000227592
8 *2158:A3 *2061:B 9.1053e-05
*RES
1 *2157:ZN *2061:B 11.8048 
*END

*D_NET *166 0.000680084
*CONN
*I *2159:A2 I *D gf180mcu_fd_sc_mcu7t5v0__nor2_1
*I *2158:Z O *D gf180mcu_fd_sc_mcu7t5v0__xor3_1
*CAP
1 *2159:A2 0.000217924
2 *2158:Z 0.000217924
3 *2159:A2 *2160:A2 0
4 *2159:A2 *332:60 0.000228971
5 *2277:D *2159:A2 1.52648e-05
*RES
1 *2158:Z *2159:A2 10.305 
*END

*D_NET *167 0.00473755
*CONN
*I *2062:A1 I *D gf180mcu_fd_sc_mcu7t5v0__aoi211_1
*I *2163:A3 I *D gf180mcu_fd_sc_mcu7t5v0__xor3_1
*I *2160:ZN O *D gf180mcu_fd_sc_mcu7t5v0__nand2_1
*CAP
1 *2062:A1 0
2 *2163:A3 0.000890732
3 *2160:ZN 0.00056751
4 *167:12 0.00145824
5 *2163:A3 *2062:A2 4.06487e-05
6 *2163:A3 *2062:C 0.000618188
7 *2163:A3 *2162:A2 0.000134145
8 *2163:A3 *2163:A1 0.000282978
9 *2163:A3 *2163:A2 0.000315988
10 *2163:A3 *2164:A1 0.000186521
11 *2163:A3 *2276:CLK 0.000139407
12 *167:12 *2062:A2 2.76411e-05
13 *167:12 *2062:C 1.52648e-05
14 *167:12 *2160:A1 4.66304e-05
15 *167:12 *2161:A1 1.16613e-05
16 *167:12 *357:17 1.99152e-06
*RES
1 *2160:ZN *167:12 15.7427 
2 *167:12 *2163:A3 18.3967 
3 *167:12 *2062:A1 4.5 
*END

*D_NET *168 0.00133176
*CONN
*I *2062:A2 I *D gf180mcu_fd_sc_mcu7t5v0__aoi211_1
*I *2161:ZN O *D gf180mcu_fd_sc_mcu7t5v0__nand2_1
*CAP
1 *2062:A2 0.000428134
2 *2161:ZN 0.000428134
3 *2062:A2 *2062:B 1.85875e-05
4 *2062:A2 *2062:C 3.4984e-05
5 *2062:A2 *2161:A1 0.000335043
6 *2062:A2 *2161:A2 1.85875e-05
7 *2062:A2 *311:30 0
8 *2163:A3 *2062:A2 4.06487e-05
9 *167:12 *2062:A2 2.76411e-05
*RES
1 *2161:ZN *2062:A2 11.2263 
*END

*D_NET *169 0.0013292
*CONN
*I *2062:B I *D gf180mcu_fd_sc_mcu7t5v0__aoi211_1
*I *2162:ZN O *D gf180mcu_fd_sc_mcu7t5v0__nor2_1
*CAP
1 *2062:B 0.000329051
2 *2162:ZN 0.000329051
3 *2062:B *2161:A1 8.94841e-05
4 *2062:B *2163:A1 8.90215e-05
5 *2062:B *275:12 0.000445108
6 *2062:B *332:77 2.8894e-05
7 *2062:A2 *2062:B 1.85875e-05
*RES
1 *2162:ZN *2062:B 19.6039 
*END

*D_NET *170 0.000827
*CONN
*I *2164:A2 I *D gf180mcu_fd_sc_mcu7t5v0__nor2_1
*I *2163:Z O *D gf180mcu_fd_sc_mcu7t5v0__xor3_1
*CAP
1 *2164:A2 0.000113319
2 *2163:Z 0.000113319
3 *2164:A2 *2164:A1 1.52648e-05
4 *2164:A2 *2276:CLK 0.00049216
5 *2276:D *2164:A2 9.29377e-05
*RES
1 *2163:Z *2164:A2 10.1515 
*END

*D_NET *171 0.0102391
*CONN
*I *2168:A3 I *D gf180mcu_fd_sc_mcu7t5v0__xor3_1
*I *2063:A1 I *D gf180mcu_fd_sc_mcu7t5v0__aoi211_1
*I *2165:ZN O *D gf180mcu_fd_sc_mcu7t5v0__nand2_1
*CAP
1 *2168:A3 7.45331e-05
2 *2063:A1 0.000188641
3 *2165:ZN 0.00176164
4 *171:10 0.00202481
5 *2063:A1 *2168:A1 2.27632e-05
6 *2063:A1 *2169:A1 7.98965e-05
7 *2063:A1 *2169:A2 0.000527315
8 *2168:A3 *2063:C 1.43e-05
9 *2168:A3 *2168:A2 0.000792787
10 *2168:A3 *2169:A2 0.000792787
11 *171:10 *2063:C 2.73564e-05
12 *171:10 *2124:A1 0.00077152
13 *171:10 *2124:A2 0.000300299
14 *171:10 *2124:B1 0.00051295
15 *171:10 *322:22 0.0001001
16 *171:10 *330:67 0
17 *171:10 *330:97 0.000319884
18 *171:10 *369:189 2.17608e-05
19 *171:10 *369:200 0.000739868
20 *2126:A2 *171:10 0.00116588
*RES
1 *2165:ZN *171:10 20.2081 
2 *171:10 *2063:A1 10.0583 
3 *171:10 *2168:A3 10.4586 
*END

*D_NET *172 0.0034982
*CONN
*I *2063:A2 I *D gf180mcu_fd_sc_mcu7t5v0__aoi211_1
*I *2166:ZN O *D gf180mcu_fd_sc_mcu7t5v0__nand2_1
*CAP
1 *2063:A2 0.000401674
2 *2166:ZN 0.000401674
3 *2063:A2 *2063:B 0.000792775
4 *2063:A2 *2063:C 0.000182282
5 *2063:A2 *2168:A1 0.000979311
6 *2063:A2 *2169:A1 0.000134226
7 *2063:A2 *274:12 0.000466362
8 *2063:A2 *330:97 0.000139891
*RES
1 *2166:ZN *2063:A2 21.3778 
*END

*D_NET *173 0.00142183
*CONN
*I *2063:B I *D gf180mcu_fd_sc_mcu7t5v0__aoi211_1
*I *2167:ZN O *D gf180mcu_fd_sc_mcu7t5v0__nor2_1
*CAP
1 *2063:B 0.000250772
2 *2167:ZN 0.000250772
3 *2063:B *2169:A2 3.8028e-05
4 *2063:A2 *2063:B 0.000792775
5 *2308:D *2063:B 8.94841e-05
*RES
1 *2167:ZN *2063:B 19.6039 
*END

*D_NET *174 0.00664988
*CONN
*I *2169:A2 I *D gf180mcu_fd_sc_mcu7t5v0__nor2_1
*I *2168:Z O *D gf180mcu_fd_sc_mcu7t5v0__xor3_1
*CAP
1 *2169:A2 0.000994373
2 *2168:Z 0.000994373
3 *2169:A2 *2063:C 0.000104746
4 *2169:A2 *2168:A1 0.00074956
5 *2169:A2 *2168:A2 5.93477e-05
6 *2169:A2 *2169:A1 0.00185376
7 *2169:A2 *274:12 0.0001001
8 *2169:A2 *356:19 0.000296738
9 *2063:A1 *2169:A2 0.000527315
10 *2063:B *2169:A2 3.8028e-05
11 *2168:A3 *2169:A2 0.000792787
12 *2308:D *2169:A2 0.000138752
*RES
1 *2168:Z *2169:A2 26.7515 
*END

*D_NET *175 0.00877357
*CONN
*I *2173:A3 I *D gf180mcu_fd_sc_mcu7t5v0__xor3_1
*I *2064:A1 I *D gf180mcu_fd_sc_mcu7t5v0__aoi211_1
*I *2170:ZN O *D gf180mcu_fd_sc_mcu7t5v0__nand2_1
*CAP
1 *2173:A3 0.000509879
2 *2064:A1 0.000766186
3 *2170:ZN 0.00152076
4 *175:16 0.00279683
5 *2064:A1 *2064:A2 0.00014352
6 *2064:A1 *2064:B 9.29377e-05
7 *2064:A1 *2172:A2 0
8 *2064:A1 *2173:A2 0
9 *2064:A1 *2307:CLK 1.6596e-05
10 *2064:A1 *273:23 0
11 *2173:A3 *2192:A2 0
12 *2173:A3 *328:79 0
13 *2173:A3 *355:10 0.0001573
14 *2173:A3 *355:14 0.0001001
15 *175:16 *2170:A1 0.000116649
16 *175:16 *2170:A2 3.05295e-05
17 *175:16 *2190:A1 9.1053e-05
18 *175:16 *2190:A3 1.6742e-05
19 *175:16 *2191:A1 0
20 *175:16 *2191:A3 8.91259e-05
21 *175:16 *328:64 0.000699505
22 *175:16 *328:79 0.00111926
23 *2270:D *175:16 0.000195153
24 *2307:D *2064:A1 0.000311455
*RES
1 *2170:ZN *175:16 22.2515 
2 *175:16 *2064:A1 8.41515 
3 *175:16 *2173:A3 15.8798 
*END

*D_NET *176 0.00151158
*CONN
*I *2064:A2 I *D gf180mcu_fd_sc_mcu7t5v0__aoi211_1
*I *2171:ZN O *D gf180mcu_fd_sc_mcu7t5v0__nand2_1
*CAP
1 *2064:A2 0.000633982
2 *2171:ZN 0.000633982
3 *2064:A2 *273:10 0.0001001
4 *2064:A2 *292:78 0
5 *2064:A1 *2064:A2 0.00014352
*RES
1 *2171:ZN *2064:A2 20.1495 
*END

*D_NET *177 0.00164319
*CONN
*I *2064:B I *D gf180mcu_fd_sc_mcu7t5v0__aoi211_1
*I *2172:ZN O *D gf180mcu_fd_sc_mcu7t5v0__nor2_1
*CAP
1 *2064:B 0.000241798
2 *2172:ZN 0.000241798
3 *2064:B *2064:C 0.000626386
4 *2064:B *2172:A2 4.57943e-05
5 *2064:B *273:23 0.000166848
6 *2064:A1 *2064:B 9.29377e-05
7 *2307:D *2064:B 0.000227632
*RES
1 *2172:ZN *2064:B 11.0727 
*END

*D_NET *178 0.00146656
*CONN
*I *2174:A2 I *D gf180mcu_fd_sc_mcu7t5v0__nor2_1
*I *2173:Z O *D gf180mcu_fd_sc_mcu7t5v0__xor3_1
*CAP
1 *2174:A2 0.000706634
2 *2173:Z 0.000706634
3 *2174:A2 *2174:A1 3.05295e-05
4 *2174:A2 *2274:CLK 2.27632e-05
5 *2174:A2 *328:83 0
*RES
1 *2173:Z *2174:A2 12.301 
*END

*D_NET *179 0.00862204
*CONN
*I *2178:A3 I *D gf180mcu_fd_sc_mcu7t5v0__xor3_1
*I *2065:A1 I *D gf180mcu_fd_sc_mcu7t5v0__aoi211_1
*I *2175:ZN O *D gf180mcu_fd_sc_mcu7t5v0__nand2_1
*CAP
1 *2178:A3 0.000800117
2 *2065:A1 2.42131e-05
3 *2175:ZN 0.00127833
4 *179:12 0.00210266
5 *2065:A1 *2065:A2 2.72585e-05
6 *2065:A1 *2065:C 2.08238e-05
7 *2178:A3 *2065:B 0.00038576
8 *2178:A3 *2177:A1 0.000211499
9 *2178:A3 *2177:A2 0
10 *2178:A3 *2179:A1 0
11 *2178:A3 *2179:A2 9.29377e-05
12 *2178:A3 *272:16 0.000198442
13 *2178:A3 *355:10 0.0001859
14 *179:12 *2185:A1 4.66453e-05
15 *179:12 *2185:A2 0.000222714
16 *179:12 *2187:A1 4.1855e-06
17 *179:12 *2187:A2 5.1204e-05
18 *179:12 *2187:A3 4.6033e-05
19 *179:12 *292:70 0.00219235
20 *179:12 *310:18 0
21 *179:12 *355:10 0.000300299
22 *2271:D *179:12 0.000409738
23 *2306:D *179:12 2.09275e-05
*RES
1 *2175:ZN *179:12 17.2141 
2 *179:12 *2065:A1 9.13708 
3 *179:12 *2178:A3 13.299 
*END

*D_NET *180 0.00194055
*CONN
*I *2065:A2 I *D gf180mcu_fd_sc_mcu7t5v0__aoi211_1
*I *2176:ZN O *D gf180mcu_fd_sc_mcu7t5v0__nand2_1
*CAP
1 *2065:A2 0.000472378
2 *2176:ZN 0.000472378
3 *2065:A2 *2065:B 8.37099e-06
4 *2065:A2 *2176:A1 0.000116649
5 *2065:A2 *2176:A2 0.000122759
6 *2065:A2 *2177:A2 0
7 *2065:A2 *292:70 0
8 *2065:A2 *292:76 0
9 *2065:A2 *354:21 4.1855e-06
10 *2065:A1 *2065:A2 2.72585e-05
11 *2306:D *2065:A2 0.000716576
*RES
1 *2176:ZN *2065:A2 11.7636 
*END

*D_NET *181 0.00113117
*CONN
*I *2065:B I *D gf180mcu_fd_sc_mcu7t5v0__aoi211_1
*I *2177:ZN O *D gf180mcu_fd_sc_mcu7t5v0__nor2_1
*CAP
1 *2065:B 0.000156137
2 *2177:ZN 0.000156137
3 *2065:B *2177:A1 8.46903e-05
4 *2065:B *2177:A2 5.71878e-05
5 *2065:B *355:10 0.000282891
6 *2065:A2 *2065:B 8.37099e-06
7 *2178:A3 *2065:B 0.00038576
*RES
1 *2177:ZN *2065:B 19.2968 
*END

*D_NET *182 0.000449002
*CONN
*I *2179:A2 I *D gf180mcu_fd_sc_mcu7t5v0__nor2_1
*I *2178:Z O *D gf180mcu_fd_sc_mcu7t5v0__xor3_1
*CAP
1 *2179:A2 0.000178032
2 *2178:Z 0.000178032
3 *2178:A3 *2179:A2 9.29377e-05
*RES
1 *2178:Z *2179:A2 10.0747 
*END

*D_NET *183 0.00244633
*CONN
*I *2181:B I *D gf180mcu_fd_sc_mcu7t5v0__aoi21_1
*I *2182:A3 I *D gf180mcu_fd_sc_mcu7t5v0__and3_1
*I *2180:Z O *D gf180mcu_fd_sc_mcu7t5v0__xor2_1
*CAP
1 *2181:B 0.000276199
2 *2182:A3 7.95093e-05
3 *2180:Z 0.000262577
4 *183:12 0.000618286
5 *2181:B *2067:A2 1.85875e-05
6 *2181:B *2183:A2 0.000136168
7 *2181:B *2183:A3 0.000585362
8 *2181:B *2272:CLK 0.000130384
9 *2181:B *311:32 0.000110586
10 *2182:A3 *2067:A2 4.57943e-05
11 *2182:A3 *2180:A1 4.1855e-06
12 *2182:A3 *353:20 1.25565e-05
13 *183:12 *2067:A2 3.3484e-05
14 *183:12 *2180:A1 2.33227e-05
15 *183:12 *2183:A3 0.000109328
*RES
1 *2180:Z *183:12 5.9531 
2 *183:12 *2182:A3 5.11414 
3 *183:12 *2181:B 7.3404 
*END

*D_NET *184 0.000900896
*CONN
*I *2183:A2 I *D gf180mcu_fd_sc_mcu7t5v0__nor3_1
*I *2181:ZN O *D gf180mcu_fd_sc_mcu7t5v0__aoi21_1
*CAP
1 *2183:A2 0.000262432
2 *2181:ZN 0.000262432
3 *2183:A2 *2181:A1 7.98965e-05
4 *2183:A2 *2183:A3 1.16613e-05
5 *2183:A2 *2272:CLK 0.000148307
6 *2181:B *2183:A2 0.000136168
*RES
1 *2181:ZN *2183:A2 11.0316 
*END

*D_NET *185 0.00157412
*CONN
*I *2183:A3 I *D gf180mcu_fd_sc_mcu7t5v0__nor3_1
*I *2182:Z O *D gf180mcu_fd_sc_mcu7t5v0__and3_1
*CAP
1 *2183:A3 0.000369749
2 *2182:Z 0.000369749
3 *2181:B *2183:A3 0.000585362
4 *2183:A2 *2183:A3 1.16613e-05
5 *2272:D *2183:A3 0.000128275
6 *183:12 *2183:A3 0.000109328
*RES
1 *2182:Z *2183:A3 11.7636 
*END

*D_NET *186 0.00277331
*CONN
*I *2186:A3 I *D gf180mcu_fd_sc_mcu7t5v0__and3_1
*I *2185:B I *D gf180mcu_fd_sc_mcu7t5v0__aoi21_1
*I *2184:Z O *D gf180mcu_fd_sc_mcu7t5v0__xor2_1
*CAP
1 *2186:A3 0.000314331
2 *2185:B 0
3 *2184:Z 0.000456783
4 *186:14 0.000771113
5 *2186:A3 *2185:A1 0.000134494
6 *2186:A3 *2186:A2 0.000135715
7 *186:14 *2070:A2 8.57998e-05
8 *186:14 *2070:B2 7.14998e-05
9 *186:14 *2185:A1 1.30076e-05
10 *186:14 *331:87 0.000699514
11 *186:14 *331:98 0
12 *2304:D *186:14 9.1053e-05
*RES
1 *2184:Z *186:14 16.1704 
2 *186:14 *2185:B 4.5 
3 *186:14 *2186:A3 5.89827 
*END

*D_NET *187 0.00158528
*CONN
*I *2187:A2 I *D gf180mcu_fd_sc_mcu7t5v0__nor3_1
*I *2185:ZN O *D gf180mcu_fd_sc_mcu7t5v0__aoi21_1
*CAP
1 *2187:A2 0.000456332
2 *2185:ZN 0.000456332
3 *2187:A2 *2175:A2 0
4 *2187:A2 *2187:A3 4.23451e-05
5 *2187:A2 *292:70 0
6 *2187:A2 *331:72 0.000267065
7 *2187:A2 *331:87 0.000296738
8 *2271:D *2187:A2 1.52648e-05
9 *179:12 *2187:A2 5.1204e-05
*RES
1 *2185:ZN *2187:A2 20.2263 
*END

*D_NET *188 0.00334228
*CONN
*I *2187:A3 I *D gf180mcu_fd_sc_mcu7t5v0__nor3_1
*I *2186:Z O *D gf180mcu_fd_sc_mcu7t5v0__and3_1
*CAP
1 *2187:A3 0.000651609
2 *2186:Z 0.000651609
3 *2187:A3 *2070:A2 0.000419673
4 *2187:A3 *292:42 0
5 *2187:A3 *310:18 0.000838483
6 *2187:A3 *310:29 0.000419673
7 *2187:A3 *331:72 3.3484e-05
8 *2187:A3 *369:234 0
9 *2187:A3 *369:251 0.000239369
10 *2187:A2 *2187:A3 4.23451e-05
11 *179:12 *2187:A3 4.6033e-05
*RES
1 *2186:Z *2187:A3 21.7575 
*END

*D_NET *189 0.00537201
*CONN
*I *2189:B I *D gf180mcu_fd_sc_mcu7t5v0__aoi21_1
*I *2190:A3 I *D gf180mcu_fd_sc_mcu7t5v0__and3_1
*I *2188:Z O *D gf180mcu_fd_sc_mcu7t5v0__xor2_1
*CAP
1 *2189:B 0.000152632
2 *2190:A3 0.000449954
3 *2188:Z 0.000476387
4 *189:10 0.00107897
5 *2189:B *2189:A1 8.61751e-05
6 *2189:B *2191:A2 5.39446e-05
7 *2189:B *351:14 3.25796e-05
8 *2190:A3 *2190:A1 3.4984e-05
9 *2190:A3 *2191:A3 0.00022363
10 *2190:A3 *309:22 4.1855e-06
11 *2190:A3 *369:295 0.000118695
12 *2190:A3 *369:297 0.000563803
13 *189:10 *2073:B1 0.000492162
14 *189:10 *2188:A1 0.000536823
15 *189:10 *2303:CLK 0
16 *189:10 *269:12 4.28999e-05
17 *189:10 *369:295 0.000504455
18 *2075:A2 *189:10 9.32906e-05
19 *2303:D *189:10 0.000409698
20 *175:16 *2190:A3 1.6742e-05
*RES
1 *2188:Z *189:10 12.301 
2 *189:10 *2190:A3 11.303 
3 *189:10 *2189:B 9.59769 
*END

*D_NET *190 0.00146888
*CONN
*I *2191:A2 I *D gf180mcu_fd_sc_mcu7t5v0__nor3_1
*I *2189:ZN O *D gf180mcu_fd_sc_mcu7t5v0__aoi21_1
*CAP
1 *2191:A2 0.000555773
2 *2189:ZN 0.000555773
3 *2191:A2 *2191:A1 4.55265e-05
4 *2191:A2 *2191:A3 0.000225279
5 *2191:A2 *2303:CLK 3.25871e-05
6 *2191:A2 *351:14 0
7 *2189:B *2191:A2 5.39446e-05
*RES
1 *2189:ZN *2191:A2 12.1886 
*END

*D_NET *191 0.00167607
*CONN
*I *2191:A3 I *D gf180mcu_fd_sc_mcu7t5v0__nor3_1
*I *2190:Z O *D gf180mcu_fd_sc_mcu7t5v0__and3_1
*CAP
1 *2191:A3 0.000556479
2 *2190:Z 0.000556479
3 *2191:A3 *2191:A1 2.50778e-05
4 *2190:A3 *2191:A3 0.00022363
5 *2191:A2 *2191:A3 0.000225279
6 *175:16 *2191:A3 8.91259e-05
*RES
1 *2190:Z *2191:A3 12.0433 
*END

*D_NET *192 0.00252635
*CONN
*I *2193:B I *D gf180mcu_fd_sc_mcu7t5v0__aoi21_1
*I *2194:A3 I *D gf180mcu_fd_sc_mcu7t5v0__and3_1
*I *2192:Z O *D gf180mcu_fd_sc_mcu7t5v0__xor2_1
*CAP
1 *2193:B 1.20037e-05
2 *2194:A3 0.000361688
3 *2192:Z 0.000148375
4 *192:8 0.000522066
5 *2193:B *2078:A1 4.06487e-05
6 *2193:B *308:26 3.51545e-05
7 *2194:A3 *2076:A1 1.73721e-05
8 *2194:A3 *2192:A2 5.87542e-05
9 *2194:A3 *2195:A3 0.000373052
10 *2194:A3 *334:25 0.000413455
11 *192:8 *2076:A2 4.5592e-05
12 *192:8 *2078:A1 0.000386975
13 *192:8 *308:26 0.000111218
*RES
1 *2192:Z *192:8 5.80505 
2 *192:8 *2194:A3 15.2657 
3 *192:8 *2193:B 4.63708 
*END

*D_NET *193 0.00168528
*CONN
*I *2195:A2 I *D gf180mcu_fd_sc_mcu7t5v0__nor3_1
*I *2193:ZN O *D gf180mcu_fd_sc_mcu7t5v0__aoi21_1
*CAP
1 *2195:A2 0.000306232
2 *2193:ZN 0.000306232
3 *2195:A2 *2193:A1 6.8631e-05
4 *2195:A2 *2193:A2 4.55265e-05
5 *2195:A2 *2194:A2 0.000581642
6 *2195:A2 *2195:A1 8.37099e-06
7 *2195:A2 *2195:A3 9.15613e-05
8 *2195:A2 *308:26 2.59026e-05
9 *2195:A2 *308:28 2.59026e-05
10 *2195:A2 *334:10 0.000134226
11 *2269:D *2195:A2 9.1053e-05
*RES
1 *2193:ZN *2195:A2 11.4977 
*END

*D_NET *194 0.00213764
*CONN
*I *2195:A3 I *D gf180mcu_fd_sc_mcu7t5v0__nor3_1
*I *2194:Z O *D gf180mcu_fd_sc_mcu7t5v0__and3_1
*CAP
1 *2195:A3 0.000325094
2 *2194:Z 0.000325094
3 *2195:A3 *2076:A1 0.000300263
4 *2195:A3 *2194:A1 0.000134226
5 *2195:A3 *2194:A2 6.82897e-05
6 *2195:A3 *334:25 0.000261142
7 *2195:A3 *334:29 6.82897e-05
8 *2194:A3 *2195:A3 0.000373052
9 *2195:A2 *2195:A3 9.15613e-05
10 *2269:D *2195:A3 0.000190629
*RES
1 *2194:Z *2195:A3 20.7636 
*END

*D_NET *195 0.00428923
*CONN
*I *2197:B I *D gf180mcu_fd_sc_mcu7t5v0__aoi21_1
*I *2198:A3 I *D gf180mcu_fd_sc_mcu7t5v0__and3_1
*I *2196:Z O *D gf180mcu_fd_sc_mcu7t5v0__xor2_1
*CAP
1 *2197:B 0.000320221
2 *2198:A3 9.32853e-05
3 *2196:Z 0.000363087
4 *195:10 0.000776593
5 *2197:B *2197:A2 8.36352e-06
6 *2197:B *2198:A2 2.092e-05
7 *2197:B *328:152 0
8 *2197:B *334:51 0.000132237
9 *2198:A3 *2199:A3 0.000148369
10 *2198:A3 *289:56 7.18107e-05
11 *2198:A3 *307:48 0.000130565
12 *195:10 *2196:A1 5.26089e-05
13 *195:10 *2196:A2 0.000139906
14 *195:10 *289:56 0.000163206
15 *195:10 *289:71 8.48671e-05
16 *195:10 *305:26 0.0001542
17 *195:10 *307:48 0.00102276
18 *2301:D *195:10 0.000606233
*RES
1 *2196:Z *195:10 13.1797 
2 *195:10 *2198:A3 9.84444 
3 *195:10 *2197:B 10.5189 
*END

*D_NET *196 0.00102388
*CONN
*I *2199:A2 I *D gf180mcu_fd_sc_mcu7t5v0__nor3_1
*I *2197:ZN O *D gf180mcu_fd_sc_mcu7t5v0__aoi21_1
*CAP
1 *2199:A2 0.0003004
2 *2197:ZN 0.0003004
3 *2199:A2 *2199:A3 3.73968e-05
4 *2199:A2 *289:12 9.86581e-06
5 *2199:A2 *304:20 0
6 *2199:A2 *328:161 9.96465e-05
7 *2199:A2 *334:43 4.55265e-05
8 *2199:A2 *334:51 0.000143
9 *2199:A2 *334:57 4.28999e-05
10 *2268:D *2199:A2 4.4742e-05
*RES
1 *2197:ZN *2199:A2 19.9192 
*END

*D_NET *197 0.00221584
*CONN
*I *2199:A3 I *D gf180mcu_fd_sc_mcu7t5v0__nor3_1
*I *2198:Z O *D gf180mcu_fd_sc_mcu7t5v0__and3_1
*CAP
1 *2199:A3 0.000494823
2 *2198:Z 0.000494823
3 *2199:A3 *2198:A1 5.82858e-05
4 *2199:A3 *289:12 0.00013575
5 *2199:A3 *289:34 1.16613e-05
6 *2199:A3 *289:38 0
7 *2199:A3 *307:48 0.000326413
8 *2199:A3 *328:152 2.78813e-05
9 *2199:A3 *328:161 1.85875e-05
10 *2199:A3 *334:43 8.37099e-06
11 *2199:A3 *334:51 0.000186414
12 *2199:A3 *334:57 0.000267065
13 *2198:A3 *2199:A3 0.000148369
14 *2199:A2 *2199:A3 3.73968e-05
*RES
1 *2198:Z *2199:A3 20.813 
*END

*D_NET *198 0.00220859
*CONN
*I *2201:B I *D gf180mcu_fd_sc_mcu7t5v0__aoi21_1
*I *2202:A3 I *D gf180mcu_fd_sc_mcu7t5v0__and3_1
*I *2200:Z O *D gf180mcu_fd_sc_mcu7t5v0__xor2_1
*CAP
1 *2201:B 0.000231176
2 *2202:A3 0
3 *2200:Z 0.000192013
4 *198:6 0.000423189
5 *2201:B *2200:A2 4.06487e-05
6 *2201:B *2201:A1 4.06487e-05
7 *2201:B *2201:A2 0.000504455
8 *2201:B *2202:A1 1.19937e-05
9 *2201:B *2202:A2 4.4742e-05
10 *2201:B *2203:A3 0.000563803
11 *2201:B *334:33 4.35216e-05
12 *198:6 *2082:B1 5.16136e-05
13 *2084:A2 *2201:B 2.49886e-06
14 *2084:A2 *198:6 5.82858e-05
*RES
1 *2200:Z *198:6 5.31017 
2 *198:6 *2202:A3 4.5 
3 *198:6 *2201:B 15.326 
*END

*D_NET *199 0.00168063
*CONN
*I *2203:A2 I *D gf180mcu_fd_sc_mcu7t5v0__nor3_1
*I *2201:ZN O *D gf180mcu_fd_sc_mcu7t5v0__aoi21_1
*CAP
1 *2203:A2 0.000192825
2 *2201:ZN 0.000192825
3 *2203:A2 *2084:A1 2.96738e-05
4 *2203:A2 *2200:A2 4.97881e-06
5 *2203:A2 *2203:A3 7.14998e-05
6 *2203:A2 *328:173 0.000650355
7 *2084:A2 *2203:A2 0.000402676
8 *2267:D *2203:A2 0.000135795
9 *2300:D *2203:A2 0
*RES
1 *2201:ZN *2203:A2 19.6532 
*END

*D_NET *200 0.00308919
*CONN
*I *2203:A3 I *D gf180mcu_fd_sc_mcu7t5v0__nor3_1
*I *2202:Z O *D gf180mcu_fd_sc_mcu7t5v0__and3_1
*CAP
1 *2203:A3 0.000651334
2 *2202:Z 0.000651334
3 *2203:A3 *2201:A2 0.000173721
4 *2203:A3 *2300:CLK 0
5 *2203:A3 *328:173 0.00017909
6 *2203:A3 *334:33 5.71999e-05
7 *2084:A2 *2203:A3 0.000606195
8 *2201:B *2203:A3 0.000563803
9 *2203:A2 *2203:A3 7.14998e-05
10 *2267:D *2203:A3 0.000135011
*RES
1 *2202:Z *2203:A3 22.2222 
*END

*D_NET *201 0.0023615
*CONN
*I *2205:B I *D gf180mcu_fd_sc_mcu7t5v0__aoi21_1
*I *2206:A3 I *D gf180mcu_fd_sc_mcu7t5v0__and3_1
*I *2204:Z O *D gf180mcu_fd_sc_mcu7t5v0__xor2_1
*CAP
1 *2205:B 0.000380976
2 *2206:A3 0.00026878
3 *2204:Z 0.000234652
4 *201:6 0.000884408
5 *2205:B *2205:A2 1.86852e-05
6 *2205:B *2207:A2 0.000111199
7 *2206:A3 *2085:A1 3.05295e-05
8 *2206:A3 *2205:A2 4.4742e-05
9 *2206:A3 *2207:A3 6.1059e-05
10 *2206:A3 *304:35 0.00022363
11 *201:6 *2204:A1 1.85875e-05
12 *201:6 *264:19 3.21963e-05
13 *2087:A3 *201:6 5.20595e-05
*RES
1 *2204:Z *201:6 5.38009 
2 *201:6 *2206:A3 5.72828 
3 *201:6 *2205:B 6.49596 
*END

*D_NET *202 0.00225432
*CONN
*I *2207:A2 I *D gf180mcu_fd_sc_mcu7t5v0__nor3_1
*I *2205:ZN O *D gf180mcu_fd_sc_mcu7t5v0__aoi21_1
*CAP
1 *2207:A2 0.000432963
2 *2205:ZN 0.000432963
3 *2207:A2 *2085:A1 9.26788e-06
4 *2207:A2 *2205:A2 0.000217064
5 *2207:A2 *2207:A3 0.000979288
6 *2207:A2 *334:63 3.2886e-06
7 *2205:B *2207:A2 0.000111199
8 *2266:D *2207:A2 6.82897e-05
*RES
1 *2205:ZN *2207:A2 20.728 
*END

*D_NET *203 0.00270647
*CONN
*I *2207:A3 I *D gf180mcu_fd_sc_mcu7t5v0__nor3_1
*I *2206:Z O *D gf180mcu_fd_sc_mcu7t5v0__and3_1
*CAP
1 *2207:A3 0.000390534
2 *2206:Z 0.000390534
3 *2207:A3 *2085:A2 0.000504455
4 *2207:A3 *304:20 0.000207717
5 *2207:A3 *334:59 0
6 *2087:A2 *2207:A3 8.57998e-05
7 *2206:A3 *2207:A3 6.1059e-05
8 *2207:A2 *2207:A3 0.000979288
9 *2266:D *2207:A3 8.70872e-05
*RES
1 *2206:Z *2207:A3 20.6828 
*END

*D_NET *204 0.00494514
*CONN
*I *2210:A3 I *D gf180mcu_fd_sc_mcu7t5v0__and3_1
*I *2209:B I *D gf180mcu_fd_sc_mcu7t5v0__aoi21_1
*I *2208:Z O *D gf180mcu_fd_sc_mcu7t5v0__xor2_1
*CAP
1 *2210:A3 0
2 *2209:B 0.000256354
3 *2208:Z 0.00117669
4 *204:10 0.00143305
5 *2209:B *2209:A1 4.06487e-05
6 *2209:B *2211:A2 0.000792763
7 *2209:B *2211:A3 0.000233167
8 *2209:B *293:16 8.48671e-05
9 *2209:B *334:89 0.000148369
10 *2209:B *334:95 5.93477e-05
11 *204:10 *2088:B2 0
12 *204:10 *2208:A1 8.94841e-05
13 *204:10 *2208:A2 0.000134226
14 *204:10 *2209:A2 0.000101429
15 *204:10 *2210:A2 0.000359759
16 *204:10 *2211:A3 3.4984e-05
17 *2090:A3 *204:10 0
18 *2298:D *204:10 0
*RES
1 *2208:Z *204:10 9.7202 
2 *204:10 *2209:B 15.4027 
3 *204:10 *2210:A3 4.5 
*END

*D_NET *205 0.00335443
*CONN
*I *2211:A2 I *D gf180mcu_fd_sc_mcu7t5v0__nor3_1
*I *2209:ZN O *D gf180mcu_fd_sc_mcu7t5v0__aoi21_1
*CAP
1 *2211:A2 0.000359596
2 *2209:ZN 0.000359596
3 *2211:A2 *2209:A1 8.94841e-05
4 *2211:A2 *2209:A2 4.55265e-05
5 *2211:A2 *2211:A1 1.52648e-05
6 *2211:A2 *2211:A3 0.000512178
7 *2211:A2 *288:10 3.12005e-05
8 *2211:A2 *334:95 0.0010725
9 *2209:B *2211:A2 0.000792763
10 *2265:D *2211:A2 7.63238e-05
*RES
1 *2209:ZN *2211:A2 21.4545 
*END

*D_NET *206 0.00206563
*CONN
*I *2211:A3 I *D gf180mcu_fd_sc_mcu7t5v0__nor3_1
*I *2210:Z O *D gf180mcu_fd_sc_mcu7t5v0__and3_1
*CAP
1 *2211:A3 0.000466857
2 *2210:Z 0.000466857
3 *2211:A3 *2211:A1 0.000326511
4 *2211:A3 *288:10 2.50778e-05
5 *2090:A2 *2211:A3 0
6 *2209:B *2211:A3 0.000233167
7 *2211:A2 *2211:A3 0.000512178
8 *204:10 *2211:A3 3.4984e-05
*RES
1 *2210:Z *2211:A3 20.5059 
*END

*D_NET *207 0.0081955
*CONN
*I *2213:B I *D gf180mcu_fd_sc_mcu7t5v0__aoi21_1
*I *2214:A3 I *D gf180mcu_fd_sc_mcu7t5v0__and3_1
*I *2212:Z O *D gf180mcu_fd_sc_mcu7t5v0__xor2_1
*CAP
1 *2213:B 0.000754673
2 *2214:A3 0.000176623
3 *2212:Z 6.38144e-05
4 *207:6 0.00099511
5 *2213:B *2212:A1 4.4742e-05
6 *2213:B *2213:A1 0.00221978
7 *2213:B *2213:A2 7.30225e-06
8 *2213:B *2223:A1 0
9 *2213:B *2223:A3 2.72585e-05
10 *2213:B *2264:CLK 0
11 *2213:B *290:112 0
12 *2214:A3 *2092:A1 0.000139891
13 *2214:A3 *262:10 0.000139891
14 *2214:A3 *262:12 0.00163214
15 *2214:A3 *344:12 0.00181869
16 *207:6 *2212:A1 0.000134226
17 *207:6 *2213:A1 2.27632e-05
18 *2262:D *2213:B 1.85875e-05
*RES
1 *2212:Z *207:6 4.80707 
2 *207:6 *2214:A3 16.4939 
3 *207:6 *2213:B 9.24314 
*END

*D_NET *208 0.00485364
*CONN
*I *2215:A2 I *D gf180mcu_fd_sc_mcu7t5v0__nor3_1
*I *2213:ZN O *D gf180mcu_fd_sc_mcu7t5v0__aoi21_1
*CAP
1 *2215:A2 0.000777231
2 *2213:ZN 0.000777231
3 *2215:A2 *2213:A1 0.00150045
4 *2215:A2 *2215:A3 0.000538535
5 *2215:A2 *2296:CLK 0.000839402
6 *2215:A2 *290:37 0.000394674
7 *2215:A2 *344:10 2.6113e-05
8 *2263:D *2215:A2 0
*RES
1 *2213:ZN *2215:A2 23.8755 
*END

*D_NET *209 0.00447959
*CONN
*I *2215:A3 I *D gf180mcu_fd_sc_mcu7t5v0__nor3_1
*I *2214:Z O *D gf180mcu_fd_sc_mcu7t5v0__and3_1
*CAP
1 *2215:A3 0.000814171
2 *2214:Z 0.000814171
3 *2215:A3 *2264:CLK 4.16233e-05
4 *2215:A3 *2297:CLK 4.5767e-05
5 *2215:A3 *329:83 0
6 *2215:A3 *344:10 0.000801194
7 *2215:A3 *344:12 0.000979184
8 *2215:A2 *2215:A3 0.000538535
9 *2264:D *2215:A3 0.000444942
*RES
1 *2214:Z *2215:A3 23.6767 
*END

*D_NET *210 0.00158544
*CONN
*I *2218:A3 I *D gf180mcu_fd_sc_mcu7t5v0__and3_1
*I *2217:B I *D gf180mcu_fd_sc_mcu7t5v0__aoi21_1
*I *2216:Z O *D gf180mcu_fd_sc_mcu7t5v0__xor2_1
*CAP
1 *2218:A3 0
2 *2217:B 0.000238388
3 *2216:Z 0.000127618
4 *210:6 0.000366007
5 *2217:B *2217:A1 4.79916e-05
6 *2217:B *2217:A2 2.98728e-05
7 *2217:B *2219:A2 0.000270166
8 *2217:B *301:27 0.000196518
9 *210:6 *2095:A1 1.12853e-05
10 *210:6 *2218:A1 1.19937e-05
11 *210:6 *2219:A2 3.71751e-05
12 *210:6 *2219:A3 9.95378e-05
13 *210:6 *261:18 0.000148883
*RES
1 *2216:Z *210:6 5.46234 
2 *210:6 *2217:B 6.17244 
3 *210:6 *2218:A3 4.5 
*END

*D_NET *211 0.00221078
*CONN
*I *2219:A2 I *D gf180mcu_fd_sc_mcu7t5v0__nor3_1
*I *2217:ZN O *D gf180mcu_fd_sc_mcu7t5v0__aoi21_1
*CAP
1 *2219:A2 0.000565841
2 *2217:ZN 0.000565841
3 *2219:A2 *2217:A1 0.000112938
4 *2219:A2 *2219:A3 0.000536902
5 *2219:A2 *329:73 1.16613e-05
6 *2219:A2 *334:183 0.000110257
7 *2217:B *2219:A2 0.000270166
8 *210:6 *2219:A2 3.71751e-05
*RES
1 *2217:ZN *2219:A2 12.7205 
*END

*D_NET *212 0.000953123
*CONN
*I *2219:A3 I *D gf180mcu_fd_sc_mcu7t5v0__nor3_1
*I *2218:Z O *D gf180mcu_fd_sc_mcu7t5v0__and3_1
*CAP
1 *2219:A3 0.000158342
2 *2218:Z 0.000158342
3 *2219:A2 *2219:A3 0.000536902
4 *210:6 *2219:A3 9.95378e-05
*RES
1 *2218:Z *2219:A3 10.0747 
*END

*D_NET *213 0.00329965
*CONN
*I *2222:A3 I *D gf180mcu_fd_sc_mcu7t5v0__and3_1
*I *2221:B I *D gf180mcu_fd_sc_mcu7t5v0__aoi21_1
*I *2220:Z O *D gf180mcu_fd_sc_mcu7t5v0__xor2_1
*CAP
1 *2222:A3 0.000136979
2 *2221:B 0.000220042
3 *2220:Z 8.30694e-06
4 *213:6 0.000365327
5 *2221:B *2097:A2 2.98728e-05
6 *2221:B *2221:A1 1.30076e-05
7 *2221:B *2222:A2 0.000267065
8 *2221:B *300:28 0.000296738
9 *2221:B *300:45 3.98305e-06
10 *2221:B *342:12 0.000885977
11 *2222:A3 *2220:A2 6.82897e-05
12 *2222:A3 *2221:A1 8.37099e-06
13 *2222:A3 *2222:A2 0.000581644
14 *2222:A3 *2223:A3 0.000341449
15 *213:6 *2220:A2 6.55151e-05
16 *213:6 *2223:A3 7.08721e-06
*RES
1 *2220:Z *213:6 4.61241 
2 *213:6 *2221:B 15.2492 
3 *213:6 *2222:A3 6.03535 
*END

*D_NET *214 0.00300029
*CONN
*I *2223:A2 I *D gf180mcu_fd_sc_mcu7t5v0__nor3_1
*I *2221:ZN O *D gf180mcu_fd_sc_mcu7t5v0__aoi21_1
*CAP
1 *2223:A2 0.000712336
2 *2221:ZN 0.000712336
3 *2223:A2 *2097:A2 0.00012593
4 *2223:A2 *2223:A3 0.0002864
5 *2262:D *2223:A2 0.00116329
*RES
1 *2221:ZN *2223:A2 13.5704 
*END

*D_NET *215 0.00437439
*CONN
*I *2223:A3 I *D gf180mcu_fd_sc_mcu7t5v0__nor3_1
*I *2222:Z O *D gf180mcu_fd_sc_mcu7t5v0__and3_1
*CAP
1 *2223:A3 0.000808067
2 *2222:Z 0.000808067
3 *2223:A3 *2097:A2 0.000437672
4 *2223:A3 *2220:A2 1.78876e-05
5 *2223:A3 *2221:A1 0.000116613
6 *2223:A3 *2223:A1 9.29377e-06
7 *2223:A3 *290:37 0.000223051
8 *2223:A3 *300:45 5.43296e-05
9 *2223:A3 *302:20 0.0004197
10 *2223:A3 *342:18 0.000291471
11 *2213:B *2223:A3 2.72585e-05
12 *2222:A3 *2223:A3 0.000341449
13 *2223:A2 *2223:A3 0.0002864
14 *2262:D *2223:A3 0.000526045
15 *213:6 *2223:A3 7.08721e-06
*RES
1 *2222:Z *2223:A3 24.5252 
*END

*D_NET *216 0.00462723
*CONN
*I *2226:A3 I *D gf180mcu_fd_sc_mcu7t5v0__and3_1
*I *2225:B I *D gf180mcu_fd_sc_mcu7t5v0__aoi21_1
*I *2224:Z O *D gf180mcu_fd_sc_mcu7t5v0__xor2_1
*CAP
1 *2226:A3 0.00022413
2 *2225:B 0.000325353
3 *2224:Z 0.000347497
4 *216:12 0.000896979
5 *2225:B *2225:A2 0.000159411
6 *2225:B *2227:A2 0.000456105
7 *2225:B *2227:A3 0.000341449
8 *2225:B *2261:CLK 6.82897e-05
9 *2225:B *333:49 8.61751e-05
10 *2225:B *333:57 2.27632e-05
11 *2226:A3 *2225:A2 0.000122811
12 *2226:A3 *2227:A3 0.000295922
13 *2226:A3 *2261:CLK 1.78854e-05
14 *2226:A3 *299:25 9.29377e-06
15 *216:12 *2102:A1 0
16 *216:12 *2261:CLK 0.000233344
17 *216:12 *259:18 0.000979422
18 *216:12 *333:61 4.03982e-05
19 *216:12 *335:54 0
*RES
1 *2224:Z *216:12 15.3781 
2 *216:12 *2225:B 6.94011 
3 *216:12 *2226:A3 6.03535 
*END

*D_NET *217 0.00129828
*CONN
*I *2227:A2 I *D gf180mcu_fd_sc_mcu7t5v0__nor3_1
*I *2225:ZN O *D gf180mcu_fd_sc_mcu7t5v0__aoi21_1
*CAP
1 *2227:A2 0.000318885
2 *2225:ZN 0.000318885
3 *2227:A2 *2221:A1 0
4 *2227:A2 *2222:A1 4.64689e-05
5 *2227:A2 *2227:A3 4.55265e-05
6 *2227:A2 *333:57 9.53346e-05
7 *2227:A2 *333:81 1.70755e-05
8 *2225:B *2227:A2 0.000456105
*RES
1 *2225:ZN *2227:A2 11.1851 
*END

*D_NET *218 0.00164334
*CONN
*I *2227:A3 I *D gf180mcu_fd_sc_mcu7t5v0__nor3_1
*I *2226:Z O *D gf180mcu_fd_sc_mcu7t5v0__and3_1
*CAP
1 *2227:A3 0.000377678
2 *2226:Z 0.000377678
3 *2227:A3 *335:43 3.71751e-05
4 *2225:B *2227:A3 0.000341449
5 *2226:A3 *2227:A3 0.000295922
6 *2227:A2 *2227:A3 4.55265e-05
7 *2261:D *2227:A3 0.000167912
*RES
1 *2226:Z *2227:A3 11.3798 
*END

*D_NET *219 0.00236179
*CONN
*I *2230:A3 I *D gf180mcu_fd_sc_mcu7t5v0__and3_1
*I *2229:B I *D gf180mcu_fd_sc_mcu7t5v0__aoi21_1
*I *2228:Z O *D gf180mcu_fd_sc_mcu7t5v0__xor2_1
*CAP
1 *2230:A3 2.17996e-05
2 *2229:B 0.00021511
3 *2228:Z 0.000321661
4 *219:10 0.00055857
5 *2229:B *2103:A1 1.52648e-05
6 *2229:B *2103:B1 8.37099e-06
7 *2229:B *2103:B2 0
8 *2229:B *2230:A1 3.38005e-05
9 *2229:B *2230:A2 4.55265e-05
10 *2229:B *298:22 3.05295e-05
11 *2229:B *333:32 3.38005e-05
12 *2229:B *333:39 5.7788e-05
13 *2230:A3 *2230:A1 3.27102e-06
14 *2230:A3 *298:22 0.000134226
15 *219:10 *2103:A1 2.33227e-05
16 *219:10 *2103:B1 3.78735e-05
17 *219:10 *2231:A1 0
18 *219:10 *298:12 4.4742e-05
19 *219:10 *298:22 0.000645835
20 *2105:A2 *2229:B 0
21 *2105:A2 *219:10 0.000130296
*RES
1 *2228:Z *219:10 6.69062 
2 *219:10 *2229:B 6.03535 
3 *219:10 *2230:A3 4.7303 
*END

*D_NET *220 0.00378949
*CONN
*I *2231:A2 I *D gf180mcu_fd_sc_mcu7t5v0__nor3_1
*I *2229:ZN O *D gf180mcu_fd_sc_mcu7t5v0__aoi21_1
*CAP
1 *2231:A2 0.000660661
2 *2229:ZN 0.000660661
3 *2231:A2 *2103:A1 0
4 *2231:A2 *2229:A2 0.000886
5 *2231:A2 *290:74 0.000268452
6 *2231:A2 *298:12 0
7 *2231:A2 *333:26 0.000881823
8 *2231:A2 *333:32 0.000188556
9 *2231:A2 *333:39 3.51545e-05
10 *2231:A2 *333:43 0.000139891
11 *2260:D *2231:A2 6.82897e-05
*RES
1 *2229:ZN *2231:A2 21.7616 
*END

*D_NET *221 0.000441017
*CONN
*I *2231:A3 I *D gf180mcu_fd_sc_mcu7t5v0__nor3_1
*I *2230:Z O *D gf180mcu_fd_sc_mcu7t5v0__and3_1
*CAP
1 *2231:A3 0.000191781
2 *2230:Z 0.000191781
3 *2231:A3 *2231:A1 1.16613e-05
4 *2231:A3 *298:22 0
5 *2260:D *2231:A3 4.57943e-05
*RES
1 *2230:Z *2231:A3 10.0706 
*END

*D_NET *222 0.00596973
*CONN
*I *2233:B I *D gf180mcu_fd_sc_mcu7t5v0__aoi21_1
*I *2234:A3 I *D gf180mcu_fd_sc_mcu7t5v0__and3_1
*I *2232:Z O *D gf180mcu_fd_sc_mcu7t5v0__xor2_1
*CAP
1 *2233:B 2.26536e-05
2 *2234:A3 0.000460628
3 *2232:Z 0.000807165
4 *222:10 0.00129045
5 *2233:B *2233:A1 4.06487e-05
6 *2234:A3 *2234:A1 0.000228971
7 *2234:A3 *2234:A2 0.000581644
8 *2234:A3 *297:33 8.37099e-06
9 *2234:A3 *300:26 0.000886024
10 *222:10 *2106:A1 0.000894839
11 *222:10 *2106:B2 1.16613e-05
12 *222:10 *2232:A1 0.00022371
13 *222:10 *2233:A1 0
14 *222:10 *297:33 0
15 *222:10 *300:26 0.000512969
*RES
1 *2232:Z *222:10 13.3758 
2 *222:10 *2234:A3 11.6101 
3 *222:10 *2233:B 9.13708 
*END

*D_NET *223 0.00115534
*CONN
*I *2235:A2 I *D gf180mcu_fd_sc_mcu7t5v0__nor3_1
*I *2233:ZN O *D gf180mcu_fd_sc_mcu7t5v0__aoi21_1
*CAP
1 *2235:A2 0.000343963
2 *2233:ZN 0.000343963
3 *2235:A2 *2234:A2 6.0313e-05
4 *2235:A2 *2235:A3 0.000204869
5 *2235:A2 *2259:CLK 8.61751e-05
6 *2235:A2 *297:33 2.27632e-05
7 *2259:D *2235:A2 9.32906e-05
*RES
1 *2233:ZN *2235:A2 11.1139 
*END

*D_NET *224 0.000667992
*CONN
*I *2235:A3 I *D gf180mcu_fd_sc_mcu7t5v0__nor3_1
*I *2234:Z O *D gf180mcu_fd_sc_mcu7t5v0__and3_1
*CAP
1 *2235:A3 0.000212289
2 *2234:Z 0.000212289
3 *2235:A3 *2234:A2 1.16613e-05
4 *2235:A3 *2235:A1 2.26979e-05
5 *2235:A2 *2235:A3 0.000204869
6 *2259:D *2235:A3 4.1855e-06
*RES
1 *2234:Z *2235:A3 10.2242 
*END

*D_NET *225 0.00578225
*CONN
*I *2237:B I *D gf180mcu_fd_sc_mcu7t5v0__aoi21_1
*I *2238:A3 I *D gf180mcu_fd_sc_mcu7t5v0__and3_1
*I *2236:Z O *D gf180mcu_fd_sc_mcu7t5v0__xor2_1
*CAP
1 *2237:B 0.00027307
2 *2238:A3 0
3 *2236:Z 0.000963729
4 *225:18 0.0012368
5 *2237:B *2109:A2 7.62965e-05
6 *2237:B *2237:A1 0.000304757
7 *2237:B *2238:A1 1.19937e-05
8 *2237:B *2238:A2 0.000134226
9 *2237:B *2239:A1 2.00306e-05
10 *2237:B *2239:A2 0.000104844
11 *2237:B *296:12 0.000178043
12 *2237:B *296:16 0.000148369
13 *2237:B *298:12 0.000512958
14 *225:18 *2109:A2 0.000441727
15 *225:18 *2113:A2 0
16 *225:18 *2237:A1 0.00022363
17 *225:18 *2238:A1 7.63238e-05
18 *225:18 *291:69 0
19 *225:18 *291:90 0
20 *225:18 *298:12 0.000369934
21 *225:18 *333:12 0.000214499
22 *225:18 *333:14 4.28999e-05
23 *2258:D *2237:B 2.27632e-05
24 *2258:D *225:18 0.00042536
*RES
1 *2236:Z *225:18 19.1753 
2 *225:18 *2238:A3 4.5 
3 *225:18 *2237:B 15.633 
*END

*D_NET *226 0.00178857
*CONN
*I *2239:A2 I *D gf180mcu_fd_sc_mcu7t5v0__nor3_1
*I *2237:ZN O *D gf180mcu_fd_sc_mcu7t5v0__aoi21_1
*CAP
1 *2239:A2 0.00037818
2 *2237:ZN 0.00037818
3 *2239:A2 *2237:A1 3.49578e-05
4 *2239:A2 *2239:A1 0.000250396
5 *2239:A2 *2292:CLK 0
6 *2239:A2 *296:12 0.000512934
7 *2237:B *2239:A2 0.000104844
8 *2258:D *2239:A2 0.000129081
*RES
1 *2237:ZN *2239:A2 20.1906 
*END

*D_NET *227 0.000418736
*CONN
*I *2239:A3 I *D gf180mcu_fd_sc_mcu7t5v0__nor3_1
*I *2238:Z O *D gf180mcu_fd_sc_mcu7t5v0__and3_1
*CAP
1 *2239:A3 9.8072e-05
2 *2238:Z 9.8072e-05
3 *2239:A3 *2109:A2 4.60206e-05
4 *2258:D *2239:A3 0.000176571
*RES
1 *2238:Z *2239:A3 9.76356 
*END

*D_NET *228 0.00352403
*CONN
*I *2241:B I *D gf180mcu_fd_sc_mcu7t5v0__aoi21_1
*I *2242:A3 I *D gf180mcu_fd_sc_mcu7t5v0__and3_1
*I *2240:Z O *D gf180mcu_fd_sc_mcu7t5v0__xor2_1
*CAP
1 *2241:B 0.000426757
2 *2242:A3 0
3 *2240:Z 0.00023401
4 *228:10 0.000660767
5 *2241:B *2241:A1 4.06487e-05
6 *2241:B *2243:A1 0
7 *2241:B *325:14 1.6596e-05
8 *2241:B *326:14 0.000466553
9 *2241:B *326:16 0.000606252
10 *228:10 *2112:A2 0.000606519
11 *228:10 *2243:A1 0
12 *228:10 *286:10 0.000139966
13 *228:10 *304:18 0.0001542
14 *228:10 *326:16 9.33106e-05
15 *228:10 *337:14 7.84519e-05
*RES
1 *2240:Z *228:10 10.4161 
2 *228:10 *2242:A3 9 
3 *228:10 *2241:B 10.9027 
*END

*D_NET *229 0.00116297
*CONN
*I *2243:A2 I *D gf180mcu_fd_sc_mcu7t5v0__nor3_1
*I *2241:ZN O *D gf180mcu_fd_sc_mcu7t5v0__aoi21_1
*CAP
1 *2243:A2 0.000305317
2 *2241:ZN 0.000305317
3 *2243:A2 *2241:A1 0.000214123
4 *2243:A2 *2241:A2 8.61751e-05
5 *2243:A2 *2243:A1 4.55265e-05
6 *2243:A2 *2243:A3 0.000105057
7 *2243:A2 *303:18 4.31461e-05
8 *2243:A2 *325:14 0
9 *2257:D *2243:A2 5.83066e-05
*RES
1 *2241:ZN *2243:A2 11.1495 
*END

*D_NET *230 0.00101374
*CONN
*I *2243:A3 I *D gf180mcu_fd_sc_mcu7t5v0__nor3_1
*I *2242:Z O *D gf180mcu_fd_sc_mcu7t5v0__and3_1
*CAP
1 *2243:A3 0.000148393
2 *2242:Z 0.000148393
3 *2243:A3 *303:18 0.000611895
4 *2243:A2 *2243:A3 0.000105057
*RES
1 *2242:Z *2243:A3 10.2009 
*END

*D_NET *231 0.00468002
*CONN
*I *2246:A3 I *D gf180mcu_fd_sc_mcu7t5v0__and3_1
*I *2245:B I *D gf180mcu_fd_sc_mcu7t5v0__aoi21_1
*I *2244:Z O *D gf180mcu_fd_sc_mcu7t5v0__xor2_1
*CAP
1 *2246:A3 0.000181066
2 *2245:B 0.000136668
3 *2244:Z 0.000273761
4 *231:10 0.000591495
5 *2245:B *2115:A1 2.27632e-05
6 *2245:B *2245:A1 4.06487e-05
7 *2245:B *2247:A2 0.000237391
8 *2245:B *295:16 0.00125909
9 *2245:B *320:20 4.06487e-05
10 *2245:B *369:107 0.000886003
11 *2246:A3 *2247:A3 0.000295922
12 *2246:A3 *2256:CLK 0.000131661
13 *2246:A3 *294:37 0.000122118
14 *2246:A3 *331:27 0
15 *231:10 *2117:A1 4.64689e-05
16 *231:10 *2244:A1 5.02333e-05
17 *231:10 *2244:A2 0
18 *231:10 *2247:A3 0.000317466
19 *231:10 *301:18 0
20 *231:10 *331:36 0
21 *231:10 *366:6 0
22 *2256:D *231:10 4.6612e-05
*RES
1 *2244:Z *231:10 6.3013 
2 *231:10 *2245:B 15.7098 
3 *231:10 *2246:A3 5.65151 
*END

*D_NET *232 0.00483222
*CONN
*I *2247:A2 I *D gf180mcu_fd_sc_mcu7t5v0__nor3_1
*I *2245:ZN O *D gf180mcu_fd_sc_mcu7t5v0__aoi21_1
*CAP
1 *2247:A2 0.000542517
2 *2245:ZN 0.000542517
3 *2247:A2 *2117:A1 0
4 *2247:A2 *2247:A3 4.66453e-05
5 *2247:A2 *294:31 0.00125906
6 *2247:A2 *295:16 0.00026113
7 *2247:A2 *302:20 0.000277953
8 *2247:A2 *320:20 2.87368e-05
9 *2247:A2 *325:16 3.76167e-05
10 *2247:A2 *331:27 0.000296458
11 *2247:A2 *369:107 0.00107251
12 *2245:B *2247:A2 0.000237391
13 *2256:D *2247:A2 0.000229696
*RES
1 *2245:ZN *2247:A2 23.1023 
*END

*D_NET *233 0.001907
*CONN
*I *2247:A3 I *D gf180mcu_fd_sc_mcu7t5v0__nor3_1
*I *2246:Z O *D gf180mcu_fd_sc_mcu7t5v0__and3_1
*CAP
1 *2247:A3 0.000290561
2 *2246:Z 0.000290561
3 *2247:A3 *331:27 3.3484e-05
4 *2246:A3 *2247:A3 0.000295922
5 *2247:A2 *2247:A3 4.66453e-05
6 *2256:D *2247:A3 0.00063236
7 *231:10 *2247:A3 0.000317466
*RES
1 *2246:Z *2247:A3 11.2989 
*END

*D_NET *234 0.00300223
*CONN
*I *2034:A3 I *D gf180mcu_fd_sc_mcu7t5v0__and3_1
*I *2033:B I *D gf180mcu_fd_sc_mcu7t5v0__aoi21_1
*I *2032:Z O *D gf180mcu_fd_sc_mcu7t5v0__xor2_1
*CAP
1 *2034:A3 0
2 *2033:B 0.000159755
3 *2032:Z 0.000280251
4 *234:14 0.000440005
5 *2033:B *2033:A1 6.26274e-05
6 *2033:B *2034:A2 6.82897e-05
7 *2033:B *2035:A2 0.000247598
8 *2033:B *306:20 4.57943e-05
9 *2033:B *310:18 0.000468662
10 *2033:B *365:20 5.60951e-05
11 *234:14 *2032:A1 0.000134226
12 *234:14 *2175:A2 0
13 *234:14 *306:20 1.52648e-05
14 *234:14 *310:18 0.000849937
15 *234:14 *324:12 8.68604e-05
16 *234:14 *330:12 8.68604e-05
*RES
1 *2032:Z *234:14 15.3424 
2 *234:14 *2033:B 6.0189 
3 *234:14 *2034:A3 4.5 
*END

*D_NET *235 0.00244448
*CONN
*I *2035:A2 I *D gf180mcu_fd_sc_mcu7t5v0__nor3_1
*I *2033:ZN O *D gf180mcu_fd_sc_mcu7t5v0__aoi21_1
*CAP
1 *2035:A2 0.000398289
2 *2033:ZN 0.000398289
3 *2035:A2 *2033:A1 1.73721e-05
4 *2035:A2 *2035:A3 8.70872e-05
5 *2035:A2 *2175:A2 0.000252771
6 *2035:A2 *306:20 4.54858e-05
7 *2035:A2 *310:18 4.66765e-05
8 *2035:A2 *324:12 0.000792716
9 *2035:A2 *365:20 0.000158194
10 *2033:B *2035:A2 0.000247598
*RES
1 *2033:ZN *2035:A2 20.5745 
*END

*D_NET *236 0.000326207
*CONN
*I *2035:A3 I *D gf180mcu_fd_sc_mcu7t5v0__nor3_1
*I *2034:Z O *D gf180mcu_fd_sc_mcu7t5v0__and3_1
*CAP
1 *2035:A3 8.81153e-05
2 *2034:Z 8.81153e-05
3 *2035:A3 *2175:A2 2.62122e-05
4 *2035:A3 *310:18 3.66772e-05
5 *2035:A2 *2035:A3 8.70872e-05
*RES
1 *2034:Z *2035:A3 9.76356 
*END

*D_NET *237 0.00343506
*CONN
*I *2038:A3 I *D gf180mcu_fd_sc_mcu7t5v0__and3_1
*I *2037:B I *D gf180mcu_fd_sc_mcu7t5v0__aoi21_1
*I *2036:Z O *D gf180mcu_fd_sc_mcu7t5v0__xor2_1
*CAP
1 *2038:A3 0.00018105
2 *2037:B 0.000310587
3 *2036:Z 0.000198473
4 *237:6 0.00069011
5 *2037:B *2037:A1 1.30076e-05
6 *2037:B *2039:A3 1.41602e-05
7 *2037:B *2160:A1 0.000233167
8 *2037:B *369:518 0.000699479
9 *2038:A3 *2038:A2 0.000448907
10 *2038:A3 *2039:A3 0.000109313
11 *237:6 *2037:A2 6.74483e-05
12 *237:6 *2038:A2 0.000313114
13 *237:6 *2039:A3 2.98728e-05
14 *237:6 *295:106 0.000126377
*RES
1 *2036:Z *237:6 5.46371 
2 *237:6 *2037:B 15.0957 
3 *237:6 *2038:A3 5.80505 
*END

*D_NET *238 0.000992082
*CONN
*I *2039:A2 I *D gf180mcu_fd_sc_mcu7t5v0__nor3_1
*I *2037:ZN O *D gf180mcu_fd_sc_mcu7t5v0__aoi21_1
*CAP
1 *2039:A2 0.000216218
2 *2037:ZN 0.000216218
3 *2039:A2 *2039:A1 0.000106826
4 *2039:A2 *2039:A3 0.00045282
5 *2039:A2 *295:106 0
*RES
1 *2037:ZN *2039:A2 10.4997 
*END

*D_NET *239 0.00191512
*CONN
*I *2039:A3 I *D gf180mcu_fd_sc_mcu7t5v0__nor3_1
*I *2038:Z O *D gf180mcu_fd_sc_mcu7t5v0__and3_1
*CAP
1 *2039:A3 0.000504759
2 *2038:Z 0.000504759
3 *2039:A3 *2037:A1 4.06487e-05
4 *2039:A3 *2037:A2 0.000258785
5 *2039:A3 *295:106 0
6 *2037:B *2039:A3 1.41602e-05
7 *2038:A3 *2039:A3 0.000109313
8 *2039:A2 *2039:A3 0.00045282
9 *237:6 *2039:A3 2.98728e-05
*RES
1 *2038:Z *2039:A3 11.6101 
*END

*D_NET *240 0.00446074
*CONN
*I *2041:B I *D gf180mcu_fd_sc_mcu7t5v0__aoi21_1
*I *2042:A3 I *D gf180mcu_fd_sc_mcu7t5v0__and3_1
*I *2040:Z O *D gf180mcu_fd_sc_mcu7t5v0__xor2_1
*CAP
1 *2041:B 0.000128925
2 *2042:A3 0.000115896
3 *2040:Z 0.000489098
4 *240:10 0.000733918
5 *2041:B *2043:A2 0.000107086
6 *2041:B *2043:A3 4.4742e-05
7 *2041:B *311:30 0.000299614
8 *2041:B *369:222 6.59146e-05
9 *2041:B *369:226 2.27632e-05
10 *2042:A3 *2043:A2 4.57943e-05
11 *2042:A3 *362:12 8.68604e-05
12 *240:10 *2124:B1 0.00022371
13 *240:10 *2125:A2 4.55265e-05
14 *240:10 *282:16 0.000536823
15 *240:10 *293:96 0
16 *240:10 *293:107 0
17 *240:10 *311:30 0.00141905
18 *240:10 *330:67 4.28999e-05
19 *240:10 *362:12 5.21162e-05
*RES
1 *2040:Z *240:10 11.9939 
2 *240:10 *2042:A3 9.61414 
3 *240:10 *2041:B 10.3654 
*END

*D_NET *241 0.00309244
*CONN
*I *2043:A2 I *D gf180mcu_fd_sc_mcu7t5v0__nor3_1
*I *2041:ZN O *D gf180mcu_fd_sc_mcu7t5v0__aoi21_1
*CAP
1 *2043:A2 0.000481288
2 *2041:ZN 0.000481288
3 *2043:A2 *2042:A2 2.33227e-05
4 *2043:A2 *2043:A1 0.000259474
5 *2043:A2 *2043:A3 0.000605142
6 *2043:A2 *322:22 0.000364212
7 *2043:A2 *369:212 8.94841e-05
8 *2043:A2 *369:222 0.000635348
9 *2041:B *2043:A2 0.000107086
10 *2042:A3 *2043:A2 4.57943e-05
*RES
1 *2041:ZN *2043:A2 12.8027 
*END

*D_NET *242 0.00336333
*CONN
*I *2043:A3 I *D gf180mcu_fd_sc_mcu7t5v0__nor3_1
*I *2042:Z O *D gf180mcu_fd_sc_mcu7t5v0__and3_1
*CAP
1 *2043:A3 0.000498535
2 *2042:Z 0.000498535
3 *2043:A3 *2040:A2 7.63238e-05
4 *2043:A3 *2043:A1 4.55265e-05
5 *2043:A3 *2124:A1 0.000282891
6 *2043:A3 *282:16 0
7 *2043:A3 *311:30 6.82897e-05
8 *2043:A3 *322:22 0.000536823
9 *2043:A3 *330:67 5.93477e-05
10 *2041:B *2043:A3 4.4742e-05
11 *2043:A2 *2043:A3 0.000605142
12 *2253:D *2043:A3 0.000647172
*RES
1 *2042:Z *2043:A3 21.5313 
*END

*D_NET *243 0.00537567
*CONN
*I *2045:B I *D gf180mcu_fd_sc_mcu7t5v0__aoi21_1
*I *2046:A3 I *D gf180mcu_fd_sc_mcu7t5v0__and3_1
*I *2044:Z O *D gf180mcu_fd_sc_mcu7t5v0__xor2_1
*CAP
1 *2045:B 0
2 *2046:A3 0.000491127
3 *2044:Z 0.000356189
4 *243:10 0.000847316
5 *2046:A3 *2046:A2 0.000184882
6 *2046:A3 *2047:A3 3.05295e-05
7 *2046:A3 *2127:A2 0.000466324
8 *2046:A3 *2175:A2 9.90717e-05
9 *2046:A3 *292:38 0.000631972
10 *2046:A3 *321:41 0.000886003
11 *2046:A3 *361:10 0.000296738
12 *2046:A3 *369:273 0
13 *2046:A3 *369:277 0
14 *243:10 *2044:A2 0.000313194
15 *243:10 *2175:A2 0.000568871
16 *2285:D *243:10 0.000203449
*RES
1 *2044:Z *243:10 7.28145 
2 *243:10 *2046:A3 16.8942 
3 *243:10 *2045:B 4.5 
*END

*D_NET *244 0.00221895
*CONN
*I *2047:A2 I *D gf180mcu_fd_sc_mcu7t5v0__nor3_1
*I *2045:ZN O *D gf180mcu_fd_sc_mcu7t5v0__aoi21_1
*CAP
1 *2047:A2 0.000477478
2 *2045:ZN 0.000477478
3 *2047:A2 *2047:A3 0.000173801
4 *2047:A2 *2127:A2 0.000148369
5 *2047:A2 *2175:A2 3.49172e-05
6 *2047:A2 *310:18 1.78876e-05
7 *2047:A2 *321:24 0.000167912
8 *2047:A2 *321:41 0.000563803
9 *2047:A2 *331:53 4.28999e-05
10 *2047:A2 *331:72 0.0001144
*RES
1 *2045:ZN *2047:A2 21.1118 
*END

*D_NET *245 0.00220804
*CONN
*I *2047:A3 I *D gf180mcu_fd_sc_mcu7t5v0__nor3_1
*I *2046:Z O *D gf180mcu_fd_sc_mcu7t5v0__and3_1
*CAP
1 *2047:A3 0.000500831
2 *2046:Z 0.000500831
3 *2047:A3 *2047:A1 4.55265e-05
4 *2047:A3 *292:38 0.000204829
5 *2047:A3 *310:18 4.66453e-05
6 *2047:A3 *321:24 9.05241e-05
7 *2047:A3 *331:72 0.000614526
8 *2046:A3 *2047:A3 3.05295e-05
9 *2047:A2 *2047:A3 0.000173801
*RES
1 *2046:Z *2047:A3 12.6848 
*END

*D_NET *246 0.00364756
*CONN
*I *2049:B I *D gf180mcu_fd_sc_mcu7t5v0__aoi21_1
*I *2050:A3 I *D gf180mcu_fd_sc_mcu7t5v0__and3_1
*I *2048:Z O *D gf180mcu_fd_sc_mcu7t5v0__xor2_1
*CAP
1 *2049:B 0.000165827
2 *2050:A3 0
3 *2048:Z 0.000553494
4 *246:12 0.000719321
5 *2049:B *2049:A2 6.1059e-05
6 *2049:B *304:18 0.000527315
7 *2049:B *308:26 0.000184082
8 *2049:B *320:28 1.52648e-05
9 *246:12 *2051:A3 0.000233158
10 *246:12 *2130:B1 0.000178968
11 *246:12 *280:16 0.000139891
12 *246:12 *292:23 0.000474781
13 *246:12 *320:28 0.000215432
14 *2132:A2 *246:12 0.000178968
*RES
1 *2048:Z *246:12 16.3404 
2 *246:12 *2050:A3 4.5 
3 *246:12 *2049:B 5.94213 
*END

*D_NET *247 0.00207602
*CONN
*I *2051:A2 I *D gf180mcu_fd_sc_mcu7t5v0__nor3_1
*I *2049:ZN O *D gf180mcu_fd_sc_mcu7t5v0__aoi21_1
*CAP
1 *2051:A2 0.000473991
2 *2049:ZN 0.000473991
3 *2051:A2 *2051:A3 0
4 *2051:A2 *293:16 0.000225775
5 *2051:A2 *304:18 0
6 *2051:A2 *313:24 0.000198243
7 *2051:A2 *328:18 0.000621087
8 *2051:A2 *369:329 6.8631e-05
9 *2051:A2 *369:350 1.43e-05
*RES
1 *2049:ZN *2051:A2 20.8048 
*END

*D_NET *248 0.00223785
*CONN
*I *2051:A3 I *D gf180mcu_fd_sc_mcu7t5v0__nor3_1
*I *2050:Z O *D gf180mcu_fd_sc_mcu7t5v0__and3_1
*CAP
1 *2051:A3 0.000646693
2 *2050:Z 0.000646693
3 *2051:A3 *304:18 0.000326566
4 *2051:A3 *313:24 3.73968e-05
5 *2051:A3 *320:28 0
6 *2051:A3 *328:8 9.81306e-06
7 *2051:A3 *328:18 1.52648e-05
8 *2051:A3 *369:350 0.000233248
9 *2051:A2 *2051:A3 0
10 *2251:D *2051:A3 8.90215e-05
11 *246:12 *2051:A3 0.000233158
*RES
1 *2050:Z *2051:A3 20.5059 
*END

*D_NET *249 0.00597797
*CONN
*I *2053:B I *D gf180mcu_fd_sc_mcu7t5v0__aoi21_1
*I *2054:A3 I *D gf180mcu_fd_sc_mcu7t5v0__and3_1
*I *2052:Z O *D gf180mcu_fd_sc_mcu7t5v0__xor2_1
*CAP
1 *2053:B 8.36697e-05
2 *2054:A3 0
3 *2052:Z 0.000328176
4 *249:12 0.000411846
5 *2053:B *2053:A1 4.06487e-05
6 *2053:B *2282:CLK 4.06487e-05
7 *2053:B *317:14 0.000466324
8 *2053:B *317:16 0.000606271
9 *2053:B *334:233 0.000839402
10 *2053:B *334:248 0.000233167
11 *249:12 *2052:A2 0
12 *249:12 *2054:A1 8.94841e-05
13 *249:12 *2143:A2 0.00104609
14 *249:12 *317:16 9.32725e-05
15 *249:12 *334:173 0.00111855
16 *249:12 *334:177 0.000139891
17 *249:12 *334:233 0.000419711
18 *2145:A2 *249:12 2.08238e-05
*RES
1 *2052:Z *249:12 12.2242 
2 *249:12 *2054:A3 9 
3 *249:12 *2053:B 10.9027 
*END

*D_NET *250 0.00141999
*CONN
*I *2055:A2 I *D gf180mcu_fd_sc_mcu7t5v0__nor3_1
*I *2053:ZN O *D gf180mcu_fd_sc_mcu7t5v0__aoi21_1
*CAP
1 *2055:A2 0.0002704
2 *2053:ZN 0.0002704
3 *2055:A2 *2055:A1 4.55265e-05
4 *2055:A2 *2055:A3 0.000263617
5 *2055:A2 *2250:CLK 2.72585e-05
6 *2055:A2 *2282:CLK 9.79165e-05
7 *2250:D *2055:A2 0.000444867
*RES
1 *2053:ZN *2055:A2 11.2674 
*END

*D_NET *251 0.00131626
*CONN
*I *2055:A3 I *D gf180mcu_fd_sc_mcu7t5v0__nor3_1
*I *2054:Z O *D gf180mcu_fd_sc_mcu7t5v0__and3_1
*CAP
1 *2055:A3 0.000356526
2 *2054:Z 0.000356526
3 *2055:A3 *2053:A1 9.29377e-06
4 *2055:A3 *2250:CLK 0.000330292
5 *2055:A3 *334:173 0
6 *2055:A2 *2055:A3 0.000263617
*RES
1 *2054:Z *2055:A3 11.0727 
*END

*D_NET *252 0.00291507
*CONN
*I *2058:A3 I *D gf180mcu_fd_sc_mcu7t5v0__and3_1
*I *2057:B I *D gf180mcu_fd_sc_mcu7t5v0__aoi21_1
*I *2056:Z O *D gf180mcu_fd_sc_mcu7t5v0__xor2_1
*CAP
1 *2058:A3 0.000238396
2 *2057:B 0.00022919
3 *2056:Z 9.52158e-05
4 *252:6 0.000562803
5 *2057:B *2057:A1 2.27632e-05
6 *2057:B *2059:A2 0.00023315
7 *2057:B *2059:A3 1.1176e-05
8 *2057:B *305:26 1.19937e-05
9 *2057:B *306:20 0.000466308
10 *2057:B *306:22 0.000233155
11 *2058:A3 *2057:A2 7.98965e-05
12 *2058:A3 *2058:A2 0.000265888
13 *2058:A3 *2146:A2 4.1855e-06
14 *2058:A3 *305:26 0.000239178
15 *252:6 *2146:A2 9.80825e-05
16 *252:6 *305:26 0.000111407
17 *2249:D *2057:B 1.2286e-05
*RES
1 *2056:Z *252:6 5.31017 
2 *252:6 *2057:B 14.7886 
3 *252:6 *2058:A3 6.18889 
*END

*D_NET *253 0.00187808
*CONN
*I *2059:A2 I *D gf180mcu_fd_sc_mcu7t5v0__nor3_1
*I *2057:ZN O *D gf180mcu_fd_sc_mcu7t5v0__aoi21_1
*CAP
1 *2059:A2 0.000462458
2 *2057:ZN 0.000462458
3 *2059:A2 *305:26 0.000110257
4 *2059:A2 *306:20 0.000415434
5 *2059:A2 *313:24 7.63238e-05
6 *2057:B *2059:A2 0.00023315
7 *2249:D *2059:A2 0.000118002
*RES
1 *2057:ZN *2059:A2 20.4154 
*END

*D_NET *254 0.00141152
*CONN
*I *2059:A3 I *D gf180mcu_fd_sc_mcu7t5v0__nor3_1
*I *2058:Z O *D gf180mcu_fd_sc_mcu7t5v0__and3_1
*CAP
1 *2059:A3 0.000259176
2 *2058:Z 0.000259176
3 *2059:A3 *2057:A1 4.84438e-05
4 *2059:A3 *301:18 0.000121605
5 *2059:A3 *305:26 0.000177439
6 *2057:B *2059:A3 1.1176e-05
7 *2249:D *2059:A3 0.000534505
*RES
1 *2058:Z *2059:A3 19.7615 
*END

*D_NET *255 0.0071612
*CONN
*I *2139:A1 I *D gf180mcu_fd_sc_mcu7t5v0__nor2_1
*I *2138:A1 I *D gf180mcu_fd_sc_mcu7t5v0__nand2_1
*I *2140:A1 I *D gf180mcu_fd_sc_mcu7t5v0__xor3_1
*I *2281:Q O *D gf180mcu_fd_sc_mcu7t5v0__dffq_1
*CAP
1 *2139:A1 0
2 *2138:A1 0.000486256
3 *2140:A1 0.000185804
4 *2281:Q 0.000141972
5 *255:23 0.000797807
6 *255:8 0.000639327
7 *2138:A1 *2140:A2 4.66453e-05
8 *2138:A1 *296:12 0
9 *2138:A1 *303:18 0.00022371
10 *2138:A1 *325:14 0.000130113
11 *2138:A1 *337:31 0.000454687
12 *2138:A1 *369:67 5.604e-05
13 *2140:A1 *2140:A2 0.000178968
14 *2140:A1 *2281:CLK 0.000326413
15 *2140:A1 *325:14 0.000121605
16 *255:8 *2281:CLK 0.000886036
17 *255:8 *294:65 9.32637e-05
18 *255:8 *309:18 0.000143
19 *255:8 *325:14 0.000173721
20 *255:23 *2140:A2 2.33227e-05
21 *255:23 *325:14 0.000167271
22 *2140:A3 *2140:A1 0.000581644
23 *2149:A2 *2138:A1 7.9726e-05
24 *2149:A2 *2140:A1 0.000172123
25 *2149:B *2140:A1 2.27632e-05
26 *2149:B *255:23 0.00102898
27 *2347:I *255:23 0
*RES
1 *2281:Q *255:8 10.6121 
2 *255:8 *2140:A1 10.6121 
3 *255:8 *255:23 6.49596 
4 *255:23 *2138:A1 16.5405 
5 *255:23 *2139:A1 4.5 
*END

*D_NET *256 0.00358252
*CONN
*I *2236:A1 I *D gf180mcu_fd_sc_mcu7t5v0__xor2_1
*I *2109:B1 I *D gf180mcu_fd_sc_mcu7t5v0__aoi22_1
*I *2110:A1 I *D gf180mcu_fd_sc_mcu7t5v0__nor2_1
*I *2291:Q O *D gf180mcu_fd_sc_mcu7t5v0__dffq_1
*CAP
1 *2236:A1 0.00032295
2 *2109:B1 0.000190572
3 *2110:A1 0
4 *2291:Q 0.000685802
5 *256:15 0.00059302
6 *256:8 0.000765299
7 *2109:B1 *2109:A1 6.82897e-05
8 *2109:B1 *2110:A2 0.00012311
9 *2236:A1 *2109:A1 7.31676e-05
10 *2236:A1 *2109:A2 0.000661458
11 *256:15 *2110:A2 5.57626e-05
12 *2111:A3 *256:8 4.30876e-05
*RES
1 *2291:Q *256:8 7.3404 
2 *256:8 *2110:A1 4.5 
3 *256:8 *256:15 0.614141 
4 *256:15 *2109:B1 5.57475 
5 *256:15 *2236:A1 6.41919 
*END

*D_NET *257 0.00416711
*CONN
*I *2232:A1 I *D gf180mcu_fd_sc_mcu7t5v0__xor2_1
*I *2106:B1 I *D gf180mcu_fd_sc_mcu7t5v0__aoi22_1
*I *2107:A1 I *D gf180mcu_fd_sc_mcu7t5v0__nor2_1
*I *2292:Q O *D gf180mcu_fd_sc_mcu7t5v0__dffq_1
*CAP
1 *2232:A1 9.46691e-05
2 *2106:B1 2.42427e-05
3 *2107:A1 0.000161524
4 *2292:Q 0.000759607
5 *257:25 0.000158868
6 *257:10 0.000961087
7 *2107:A1 *2106:B2 2.27632e-05
8 *2107:A1 *297:33 0.000558472
9 *2107:A1 *298:12 7.18107e-05
10 *2232:A1 *2106:A1 0.000159343
11 *2232:A1 *2106:B2 0.000183177
12 *257:10 *2237:A2 4.06487e-05
13 *257:10 *2292:CLK 0
14 *257:10 *297:33 0.000419711
15 *257:10 *298:12 0.000274186
16 *257:25 *2106:A1 2.27632e-05
17 *257:25 *2106:B2 3.05295e-05
18 *222:10 *2232:A1 0.00022371
*RES
1 *2292:Q *257:10 13.299 
2 *257:10 *2107:A1 9.99798 
3 *257:10 *257:25 4.7303 
4 *257:25 *2106:B1 4.65354 
5 *257:25 *2232:A1 5.42121 
*END

*D_NET *258 0.0047111
*CONN
*I *2228:A1 I *D gf180mcu_fd_sc_mcu7t5v0__xor2_1
*I *2103:B1 I *D gf180mcu_fd_sc_mcu7t5v0__aoi22_1
*I *2104:A1 I *D gf180mcu_fd_sc_mcu7t5v0__nor2_1
*I *2293:Q O *D gf180mcu_fd_sc_mcu7t5v0__dffq_1
*CAP
1 *2228:A1 0
2 *2103:B1 0.000148391
3 *2104:A1 0.000314801
4 *2293:Q 0.000299405
5 *258:23 0.000270013
6 *258:8 0.000735829
7 *2103:B1 *2103:A1 0
8 *2103:B1 *2103:B2 0.000273159
9 *2104:A1 *2104:A2 0
10 *2104:A1 *2293:CLK 3.51836e-05
11 *2104:A1 *299:10 0.000195847
12 *2104:A1 *335:43 3.91695e-05
13 *2104:A1 *340:12 4.28999e-05
14 *258:8 *2231:A1 0.000137093
15 *258:8 *299:10 0.000718107
16 *258:8 *335:43 5.22259e-05
17 *258:23 *2103:B2 2.27632e-05
18 *258:23 *2293:CLK 0
19 *2105:A2 *2103:B1 0.000536902
20 *2105:A2 *2104:A1 5.57626e-05
21 *2105:A2 *258:23 0.000536902
22 *2229:B *2103:B1 8.37099e-06
23 *2293:D *2104:A1 0.000250396
24 *219:10 *2103:B1 3.78735e-05
*RES
1 *2293:Q *258:8 11.5333 
2 *258:8 *2104:A1 11.0727 
3 *258:8 *258:23 5.42121 
4 *258:23 *2103:B1 5.88182 
5 *258:23 *2228:A1 4.5 
*END

*D_NET *259 0.00582171
*CONN
*I *2100:B1 I *D gf180mcu_fd_sc_mcu7t5v0__aoi22_1
*I *2101:A1 I *D gf180mcu_fd_sc_mcu7t5v0__nor2_1
*I *2224:A1 I *D gf180mcu_fd_sc_mcu7t5v0__xor2_1
*I *2294:Q O *D gf180mcu_fd_sc_mcu7t5v0__dffq_1
*CAP
1 *2100:B1 2.42427e-05
2 *2101:A1 0.000178227
3 *2224:A1 3.76416e-05
4 *2294:Q 0.000726803
5 *259:27 0.000339593
6 *259:18 0.000901568
7 *2101:A1 *2100:B2 1.19937e-05
8 *2101:A1 *2101:A2 0.000207717
9 *2224:A1 *2224:A2 4.4742e-05
10 *259:18 *2102:A1 0
11 *259:18 *2261:CLK 5.20852e-05
12 *259:18 *335:54 8.90215e-05
13 *259:18 *341:16 0.00111934
14 *259:18 *341:22 0.000139891
15 *259:27 *2100:A1 4.90653e-05
16 *259:27 *2100:B2 0.000169381
17 *259:27 *2224:A2 0.000134226
18 *259:27 *341:22 0.000402597
19 *2102:A2 *2101:A1 2.85999e-05
20 *2102:A2 *259:27 0.000177187
21 *2102:A3 *2224:A1 4.1855e-06
22 *2102:A3 *259:27 4.1855e-06
23 *216:12 *259:18 0.000979422
*RES
1 *2294:Q *259:18 25.801 
2 *259:18 *2224:A1 4.65354 
3 *259:18 *259:27 1.15151 
4 *259:27 *2101:A1 14.3444 
5 *259:27 *2100:B1 4.65354 
*END

*D_NET *260 0.00477802
*CONN
*I *2220:A1 I *D gf180mcu_fd_sc_mcu7t5v0__xor2_1
*I *2097:B1 I *D gf180mcu_fd_sc_mcu7t5v0__aoi22_1
*I *2098:A1 I *D gf180mcu_fd_sc_mcu7t5v0__nor2_1
*I *2295:Q O *D gf180mcu_fd_sc_mcu7t5v0__dffq_1
*CAP
1 *2220:A1 0
2 *2097:B1 0.000117608
3 *2098:A1 0.000130847
4 *2295:Q 0.00015312
5 *260:18 0.00084202
6 *260:6 0.000746685
7 *2097:B1 *2097:A1 2.33227e-05
8 *2097:B1 *2097:B2 7.98965e-05
9 *2098:A1 *2097:B2 7.98965e-05
10 *260:6 *2097:A1 0
11 *260:6 *290:70 0.000183123
12 *260:18 *2097:A2 0.000445108
13 *260:18 *290:44 7.62965e-05
14 *260:18 *290:52 0.000771467
15 *260:18 *290:70 1.52648e-05
16 *2099:A2 *2097:B1 0.000134226
17 *2099:A2 *260:18 0.000409738
18 *2099:A3 *2098:A1 0.000113032
19 *2099:A3 *260:18 0.000409738
20 *2295:D *260:18 4.66304e-05
*RES
1 *2295:Q *260:6 5.42121 
2 *260:6 *260:18 13.2222 
3 *260:18 *2098:A1 5.65151 
4 *260:18 *2097:B1 5.42121 
5 *260:6 *2220:A1 4.5 
*END

*D_NET *261 0.00448016
*CONN
*I *2216:A1 I *D gf180mcu_fd_sc_mcu7t5v0__xor2_1
*I *2094:B1 I *D gf180mcu_fd_sc_mcu7t5v0__aoi22_1
*I *2095:A1 I *D gf180mcu_fd_sc_mcu7t5v0__nor2_1
*I *2296:Q O *D gf180mcu_fd_sc_mcu7t5v0__dffq_1
*CAP
1 *2216:A1 0
2 *2094:B1 0.000140421
3 *2095:A1 0.000156662
4 *2296:Q 0.000298669
5 *261:18 0.000592476
6 *261:12 0.000594062
7 *2094:B1 *2094:A1 5.93477e-05
8 *2094:B1 *2094:A2 0.000233152
9 *2094:B1 *2095:A2 8.37099e-06
10 *2094:B1 *2216:A2 0
11 *2095:A1 *2218:A1 6.34119e-05
12 *2095:A1 *334:187 0.000295922
13 *261:12 *295:16 0.000606256
14 *261:12 *329:73 0.0001859
15 *261:18 *2216:A2 0
16 *261:18 *334:187 0
17 *2096:A2 *2094:B1 6.52824e-05
18 *2096:A3 *2094:B1 0.000267065
19 *2096:A3 *2095:A1 0.000604408
20 *2096:A3 *261:18 0.000119986
21 *2263:D *2094:B1 2.85999e-05
22 *210:6 *2095:A1 1.12853e-05
23 *210:6 *261:18 0.000148883
*RES
1 *2296:Q *261:12 15.4192 
2 *261:12 *261:18 1.53535 
3 *261:18 *2095:A1 6.18889 
4 *261:18 *2094:B1 14.498 
5 *261:12 *2216:A1 4.5 
*END

*D_NET *262 0.00930759
*CONN
*I *2212:A1 I *D gf180mcu_fd_sc_mcu7t5v0__xor2_1
*I *2091:B1 I *D gf180mcu_fd_sc_mcu7t5v0__aoi22_1
*I *2092:A1 I *D gf180mcu_fd_sc_mcu7t5v0__nor2_1
*I *2297:Q O *D gf180mcu_fd_sc_mcu7t5v0__dffq_1
*CAP
1 *2212:A1 2.77428e-05
2 *2091:B1 0.000401995
3 *2092:A1 0.000257071
4 *2297:Q 0.000558244
5 *262:12 0.00099622
6 *262:10 0.000923141
7 *2091:B1 *2091:A1 0.000186158
8 *2091:B1 *2091:A2 0.000182106
9 *2091:B1 *2091:B2 9.32906e-05
10 *2091:B1 *2214:A1 9.68732e-05
11 *2091:B1 *2214:A2 0.000250396
12 *2091:B1 *2297:CLK 4.1855e-05
13 *2092:A1 *2092:A2 0.000148369
14 *2092:A1 *2214:A2 7.14998e-05
15 *2092:A1 *287:13 0
16 *2092:A1 *287:75 1.25565e-05
17 *2092:A1 *329:83 0.000178968
18 *2092:A1 *344:12 0.000207717
19 *2212:A1 *2213:A1 0.000178968
20 *262:10 *344:10 0.00185993
21 *262:10 *344:12 5.93477e-05
22 *262:12 *2214:A2 5.71999e-05
23 *262:12 *302:34 0.000328874
24 *262:12 *334:125 0
25 *2093:A2 *2091:B1 7.98965e-05
26 *2093:A3 *2092:A1 1.82747e-05
27 *2213:B *2212:A1 4.4742e-05
28 *2214:A3 *2092:A1 0.000139891
29 *2214:A3 *262:10 0.000139891
30 *2214:A3 *262:12 0.00163214
31 *207:6 *2212:A1 0.000134226
*RES
1 *2297:Q *262:10 13.299 
2 *262:10 *262:12 2.68687 
3 *262:12 *2092:A1 10.4586 
4 *262:12 *2091:B1 11.5333 
5 *262:10 *2212:A1 9.30707 
*END

*D_NET *263 0.00499278
*CONN
*I *2088:B1 I *D gf180mcu_fd_sc_mcu7t5v0__aoi22_1
*I *2208:A1 I *D gf180mcu_fd_sc_mcu7t5v0__xor2_1
*I *2089:A1 I *D gf180mcu_fd_sc_mcu7t5v0__nor2_1
*I *2298:Q O *D gf180mcu_fd_sc_mcu7t5v0__dffq_1
*CAP
1 *2088:B1 0.000231731
2 *2208:A1 1.89894e-05
3 *2089:A1 0.000180761
4 *2298:Q 0
5 *263:10 0.000828873
6 *263:4 0.000860854
7 *2088:B1 *2088:A2 2.20732e-05
8 *2088:B1 *2088:B2 0.00018315
9 *2089:A1 *2089:A2 0.000699514
10 *2089:A1 *288:29 1.85875e-05
11 *263:10 *2088:B2 0.000660134
12 *263:10 *2089:A2 0.000233152
13 *263:10 *345:12 0.00025482
14 *263:10 *345:14 0.000652899
15 *2090:A2 *2088:B1 5.77608e-05
16 *204:10 *2208:A1 8.94841e-05
*RES
1 *2298:Q *263:4 4.5 
2 *263:4 *263:10 8.64545 
3 *263:10 *2089:A1 10.305 
4 *263:10 *2208:A1 9.15353 
5 *263:4 *2088:B1 5.88182 
*END

*D_NET *264 0.00441707
*CONN
*I *2204:A1 I *D gf180mcu_fd_sc_mcu7t5v0__xor2_1
*I *2085:B1 I *D gf180mcu_fd_sc_mcu7t5v0__aoi22_1
*I *2086:A1 I *D gf180mcu_fd_sc_mcu7t5v0__nor2_1
*I *2299:Q O *D gf180mcu_fd_sc_mcu7t5v0__dffq_1
*CAP
1 *2204:A1 2.08119e-05
2 *2085:B1 9.91787e-05
3 *2086:A1 0.000239516
4 *2299:Q 0.000134416
5 *264:19 0.000316173
6 *264:10 0.000570115
7 *2086:A1 *346:33 0.000274738
8 *2204:A1 *2204:A2 2.27632e-05
9 *264:10 *346:33 0.000152326
10 *264:19 *2204:A2 0.000113776
11 *264:19 *346:33 0.000106826
12 *2087:A2 *2085:B1 0.000593477
13 *2087:A3 *2086:A1 8.85734e-05
14 *2087:A3 *264:10 7.18107e-05
15 *2266:D *2085:B1 0.000279817
16 *2299:D *2085:B1 0.00121248
17 *2299:D *264:10 6.94883e-05
18 *201:6 *2204:A1 1.85875e-05
19 *201:6 *264:19 3.21963e-05
*RES
1 *2299:Q *264:10 14.3444 
2 *264:10 *2086:A1 5.88182 
3 *264:10 *264:19 0.844444 
4 *264:19 *2085:B1 15.496 
5 *264:19 *2204:A1 4.65354 
*END

*D_NET *265 0.00369476
*CONN
*I *2083:A1 I *D gf180mcu_fd_sc_mcu7t5v0__nor2_1
*I *2082:B1 I *D gf180mcu_fd_sc_mcu7t5v0__aoi22_1
*I *2200:A1 I *D gf180mcu_fd_sc_mcu7t5v0__xor2_1
*I *2300:Q O *D gf180mcu_fd_sc_mcu7t5v0__dffq_1
*CAP
1 *2083:A1 0
2 *2082:B1 0.000281192
3 *2200:A1 0
4 *2300:Q 0.000245799
5 *265:12 0.000578392
6 *265:8 0.000542999
7 *2082:B1 *2082:A1 7.31676e-05
8 *2082:B1 *2200:A2 0.000642167
9 *2082:B1 *347:8 4.06487e-05
10 *265:12 *2083:A2 0.000280925
11 *265:12 *2084:A1 8.3644e-05
12 *265:12 *2200:A2 4.55265e-05
13 *2084:A2 *2082:B1 0.000795608
14 *2084:A2 *265:12 4.1855e-06
15 *2084:A3 *265:12 2.8894e-05
16 *198:6 *2082:B1 5.16136e-05
*RES
1 *2300:Q *265:8 5.80505 
2 *265:8 *265:12 1.99596 
3 *265:12 *2200:A1 4.5 
4 *265:12 *2082:B1 6.95656 
5 *265:8 *2083:A1 4.5 
*END

*D_NET *266 0.00244675
*CONN
*I *2147:A1 I *D gf180mcu_fd_sc_mcu7t5v0__nor2_1
*I *2056:A1 I *D gf180mcu_fd_sc_mcu7t5v0__xor2_1
*I *2146:B1 I *D gf180mcu_fd_sc_mcu7t5v0__aoi22_1
*I *2282:Q O *D gf180mcu_fd_sc_mcu7t5v0__dffq_1
*CAP
1 *2147:A1 0.00012409
2 *2056:A1 0.000189253
3 *2146:B1 0.000180884
4 *2282:Q 0
5 *266:6 0.000454987
6 *266:4 0.000208939
7 *2056:A1 *2056:A2 1.79378e-06
8 *2056:A1 *2146:A2 0.000661541
9 *2056:A1 *2147:A2 0.000250396
10 *2056:A1 *305:26 0
11 *2056:A1 *348:6 1.34534e-05
12 *2146:B1 *2056:A2 3.05295e-05
13 *2146:B1 *2146:A1 1.85875e-05
14 *2146:B1 *348:6 0.000196929
15 *2147:A1 *305:26 0.000104952
16 *266:6 *2147:A2 0
17 *2148:A3 *2056:A1 1.04119e-05
*RES
1 *2282:Q *266:4 4.5 
2 *266:4 *266:6 0.537373 
3 *266:6 *2146:B1 6.03535 
4 *266:6 *2056:A1 6.49596 
5 *266:4 *2147:A1 5.57475 
*END

*D_NET *267 0.0048483
*CONN
*I *2079:B1 I *D gf180mcu_fd_sc_mcu7t5v0__aoi22_1
*I *2080:A1 I *D gf180mcu_fd_sc_mcu7t5v0__nor2_1
*I *2196:A1 I *D gf180mcu_fd_sc_mcu7t5v0__xor2_1
*I *2301:Q O *D gf180mcu_fd_sc_mcu7t5v0__dffq_1
*CAP
1 *2079:B1 0.000125559
2 *2080:A1 0.000193789
3 *2196:A1 0.000527554
4 *2301:Q 0
5 *267:8 0.000785596
6 *267:6 0.000189811
7 *2079:B1 *2079:B2 6.82897e-05
8 *2079:B1 *307:48 1.02166e-05
9 *2079:B1 *328:32 9.45019e-05
10 *2079:B1 *349:10 3.91695e-05
11 *2079:B1 *369:316 1.31061e-05
12 *2080:A1 *2081:A1 0.000581565
13 *2080:A1 *305:26 0
14 *2080:A1 *313:24 0.000106318
15 *2196:A1 *289:71 0.000512946
16 *2196:A1 *305:26 0.000117763
17 *2196:A1 *328:120 9.79236e-05
18 *2196:A1 *349:10 3.91695e-05
19 *267:8 *349:10 2.6113e-05
20 *2081:A2 *2079:B1 0.000207717
21 *2081:A2 *2080:A1 0.000118002
22 *2081:A2 *2196:A1 8.90215e-05
23 *2081:A2 *267:8 0.000148369
24 *2081:A3 *2080:A1 0.00016625
25 *2301:D *2196:A1 0.000536941
26 *195:10 *2196:A1 5.26089e-05
*RES
1 *2301:Q *267:6 9 
2 *267:6 *267:8 0.383838 
3 *267:8 *2196:A1 12.1475 
4 *267:8 *2080:A1 10.6889 
5 *267:6 *2079:B1 9.99798 
*END

*D_NET *268 0.00436712
*CONN
*I *2077:A1 I *D gf180mcu_fd_sc_mcu7t5v0__nor2_1
*I *2192:A1 I *D gf180mcu_fd_sc_mcu7t5v0__xor2_1
*I *2076:B1 I *D gf180mcu_fd_sc_mcu7t5v0__aoi22_1
*I *2302:Q O *D gf180mcu_fd_sc_mcu7t5v0__dffq_1
*CAP
1 *2077:A1 3.36961e-05
2 *2192:A1 8.52717e-05
3 *2076:B1 3.37368e-05
4 *2302:Q 0.00071534
5 *268:16 0.000483621
6 *268:10 0.00111365
7 *2077:A1 *2078:A1 1.85875e-05
8 *2192:A1 *2076:A1 0.000626222
9 *2192:A1 *350:22 0.000295841
10 *268:10 *2192:A2 0
11 *268:10 *2270:CLK 0.000139894
12 *268:16 *2076:A1 4.4742e-05
13 *268:16 *2077:A2 0.000606305
14 *268:16 *2078:A1 1.85875e-05
15 *268:16 *2192:A2 0
16 *268:16 *350:22 4.06487e-05
17 *2078:A3 *268:10 0
18 *2078:A3 *268:16 0.00011098
*RES
1 *2302:Q *268:10 12.2242 
2 *268:10 *268:16 6.34242 
3 *268:16 *2076:B1 4.65354 
4 *268:16 *2192:A1 5.57475 
5 *268:10 *2077:A1 9.15353 
*END

*D_NET *269 0.00764936
*CONN
*I *2074:A1 I *D gf180mcu_fd_sc_mcu7t5v0__nor2_1
*I *2073:B1 I *D gf180mcu_fd_sc_mcu7t5v0__aoi22_1
*I *2188:A1 I *D gf180mcu_fd_sc_mcu7t5v0__xor2_1
*I *2303:Q O *D gf180mcu_fd_sc_mcu7t5v0__dffq_1
*CAP
1 *2074:A1 0.000272258
2 *2073:B1 0.000125131
3 *2188:A1 9.33817e-05
4 *2303:Q 0.000320759
5 *269:12 0.000479615
6 *269:8 0.000854119
7 *2073:B1 *2074:A2 0
8 *2073:B1 *351:14 0.000626308
9 *2073:B1 *369:291 2.27632e-05
10 *2074:A1 *307:30 0.000619996
11 *2188:A1 *351:14 0.000492161
12 *269:8 *2303:CLK 0.000712172
13 *269:8 *292:55 0.000148369
14 *269:8 *307:36 0
15 *269:12 *2303:CLK 0.000445108
16 *2075:A2 *2073:B1 2.78647e-05
17 *2075:A3 *2074:A1 0.00133746
18 *189:10 *2073:B1 0.000492162
19 *189:10 *2188:A1 0.000536823
20 *189:10 *269:12 4.28999e-05
*RES
1 *2303:Q *269:8 11.2263 
2 *269:8 *269:12 5.65151 
3 *269:12 *2188:A1 5.42121 
4 *269:12 *2073:B1 5.80505 
5 *269:8 *2074:A1 11.4456 
*END

*D_NET *270 0.00563464
*CONN
*I *2071:A1 I *D gf180mcu_fd_sc_mcu7t5v0__nor2_1
*I *2070:B1 I *D gf180mcu_fd_sc_mcu7t5v0__aoi22_1
*I *2184:A1 I *D gf180mcu_fd_sc_mcu7t5v0__xor2_1
*I *2304:Q O *D gf180mcu_fd_sc_mcu7t5v0__dffq_1
*CAP
1 *2071:A1 0.000206731
2 *2070:B1 0.000115689
3 *2184:A1 0.000160224
4 *2304:Q 0.000143169
5 *270:12 0.000506069
6 *270:8 0.000580056
7 *2070:B1 *2070:B2 0.000626386
8 *2071:A1 *2071:A2 0.000106826
9 *2071:A1 *293:53 0
10 *2184:A1 *2070:B2 0.000134146
11 *2184:A1 *2184:A2 0.000204829
12 *2184:A1 *331:87 8.37099e-06
13 *270:8 *352:10 0.000652825
14 *270:8 *369:230 0
15 *270:12 *2070:A2 0.000512949
16 *270:12 *2070:B2 0.000233152
17 *270:12 *352:10 0.000326413
18 *270:12 *352:12 0.000792716
19 *270:12 *369:230 0
20 *2072:A2 *2070:B1 0.000232502
21 *2072:A2 *2071:A1 0
22 *2304:D *2070:B1 4.57943e-05
23 *2304:D *2184:A1 4.57943e-05
*RES
1 *2304:Q *270:8 10.1515 
2 *270:8 *270:12 6.57273 
3 *270:12 *2184:A1 5.42121 
4 *270:12 *2070:B1 5.80505 
5 *270:8 *2071:A1 9.92121 
*END

*D_NET *271 0.00511874
*CONN
*I *2180:A1 I *D gf180mcu_fd_sc_mcu7t5v0__xor2_1
*I *2067:B1 I *D gf180mcu_fd_sc_mcu7t5v0__aoi22_1
*I *2068:A1 I *D gf180mcu_fd_sc_mcu7t5v0__nor2_1
*I *2305:Q O *D gf180mcu_fd_sc_mcu7t5v0__dffq_1
*CAP
1 *2180:A1 4.98182e-05
2 *2067:B1 0.00042722
3 *2068:A1 0
4 *2305:Q 0.000972962
5 *271:21 0.000639689
6 *271:14 0.00113561
7 *2067:B1 *2067:A2 2.33227e-05
8 *2067:B1 *2067:B2 0.000740173
9 *2067:B1 *2069:A1 0.000177937
10 *2067:B1 *293:53 1.85358e-05
11 *2180:A1 *2180:A2 1.16613e-05
12 *271:14 *2069:A1 2.85999e-05
13 *271:14 *2180:A2 0
14 *271:21 *2068:A2 0.000138991
15 *271:21 *2069:A1 4.54858e-05
16 *271:21 *2180:A2 2.78813e-05
17 *271:21 *353:20 4.57943e-05
18 *2069:A2 *271:14 0.000135209
19 *2069:A2 *271:21 0.000364325
20 *2069:A3 *271:14 2.16568e-05
21 *2069:A3 *271:21 8.63562e-05
22 *2182:A3 *2180:A1 4.1855e-06
23 *183:12 *2180:A1 2.33227e-05
*RES
1 *2305:Q *271:14 17.6345 
2 *271:14 *2068:A1 4.5 
3 *271:14 *271:21 1.08571 
4 *271:21 *2067:B1 15.496 
5 *271:21 *2180:A1 4.88384 
*END

*D_NET *272 0.00348249
*CONN
*I *2177:A1 I *D gf180mcu_fd_sc_mcu7t5v0__nor2_1
*I *2178:A1 I *D gf180mcu_fd_sc_mcu7t5v0__xor3_1
*I *2176:A1 I *D gf180mcu_fd_sc_mcu7t5v0__nand2_1
*I *2306:Q O *D gf180mcu_fd_sc_mcu7t5v0__dffq_1
*CAP
1 *2177:A1 0.000175922
2 *2178:A1 2.25799e-05
3 *2176:A1 0.000460263
4 *2306:Q 0.000148172
5 *272:16 0.000791059
6 *272:10 0.00063231
7 *2176:A1 *2176:A2 2.71648e-05
8 *2176:A1 *292:76 0
9 *2176:A1 *355:10 0
10 *2177:A1 *2065:C 2.69068e-06
11 *2177:A1 *2177:A2 8.36274e-05
12 *2178:A1 *2177:A2 8.94841e-05
13 *272:10 *355:10 0.000326412
14 *272:16 *2177:A2 0.000111525
15 *272:16 *355:10 0
16 *2065:A2 *2176:A1 0.000116649
17 *2065:B *2177:A1 8.46903e-05
18 *2178:A3 *2177:A1 0.000211499
19 *2178:A3 *272:16 0.000198442
*RES
1 *2306:Q *272:10 14.3444 
2 *272:10 *272:16 6.18889 
3 *272:16 *2176:A1 10.8123 
4 *272:16 *2178:A1 9.15353 
5 *272:10 *2177:A1 5.56378 
*END

*D_NET *273 0.00493946
*CONN
*I *2173:A1 I *D gf180mcu_fd_sc_mcu7t5v0__xor3_1
*I *2172:A1 I *D gf180mcu_fd_sc_mcu7t5v0__nor2_1
*I *2171:A1 I *D gf180mcu_fd_sc_mcu7t5v0__nand2_1
*I *2307:Q O *D gf180mcu_fd_sc_mcu7t5v0__dffq_1
*CAP
1 *2173:A1 0.000166848
2 *2172:A1 0
3 *2171:A1 0.000374143
4 *2307:Q 0.000224774
5 *273:23 0.000317207
6 *273:10 0.000749276
7 *2171:A1 *2064:C 0.000268281
8 *2171:A1 *2171:A2 0.000353617
9 *2173:A1 *2171:A2 0.000133287
10 *2173:A1 *2172:A2 0.000217238
11 *2173:A1 *2173:A2 0.000402597
12 *2173:A1 *328:83 0.000128275
13 *273:10 *292:78 0.000741846
14 *273:23 *2064:C 0.000136579
15 *273:23 *2171:A2 0.00041299
16 *273:23 *2172:A2 6.39172e-06
17 *2064:A1 *273:23 0
18 *2064:A2 *273:10 0.0001001
19 *2064:B *273:23 0.000166848
20 *2307:D *2171:A1 3.91666e-05
*RES
1 *2307:Q *273:10 15.4192 
2 *273:10 *2171:A1 7.00317 
3 *273:10 *273:23 1.39278 
4 *273:23 *2172:A1 4.5 
5 *273:23 *2173:A1 5.79408 
*END

*D_NET *274 0.00442322
*CONN
*I *2166:A1 I *D gf180mcu_fd_sc_mcu7t5v0__nand2_1
*I *2167:A1 I *D gf180mcu_fd_sc_mcu7t5v0__nor2_1
*I *2168:A1 I *D gf180mcu_fd_sc_mcu7t5v0__xor3_1
*I *2308:Q O *D gf180mcu_fd_sc_mcu7t5v0__dffq_1
*CAP
1 *2166:A1 0.000104747
2 *2167:A1 2.54317e-05
3 *2168:A1 0.000295237
4 *2308:Q 0.00038313
5 *274:12 0.000393873
6 *274:10 0.000561082
7 *2166:A1 *2166:A2 4.4742e-05
8 *2167:A1 *2167:A2 2.27632e-05
9 *2168:A1 *2063:C 0.000274117
10 *2168:A1 *2167:A2 0
11 *274:12 *356:19 0
12 *2063:A1 *2168:A1 2.27632e-05
13 *2063:A2 *2168:A1 0.000979311
14 *2063:A2 *274:12 0.000466362
15 *2169:A2 *2168:A1 0.00074956
16 *2169:A2 *274:12 0.0001001
*RES
1 *2308:Q *274:10 10.5354 
2 *274:10 *274:12 0.844444 
3 *274:12 *2168:A1 11.5333 
4 *274:12 *2167:A1 9.14257 
5 *274:10 *2166:A1 9.43045 
*END

*D_NET *275 0.00761124
*CONN
*I *2162:A1 I *D gf180mcu_fd_sc_mcu7t5v0__nor2_1
*I *2161:A1 I *D gf180mcu_fd_sc_mcu7t5v0__nand2_1
*I *2163:A1 I *D gf180mcu_fd_sc_mcu7t5v0__xor3_1
*I *2309:Q O *D gf180mcu_fd_sc_mcu7t5v0__dffq_1
*CAP
1 *2162:A1 2.8892e-05
2 *2161:A1 0.000191859
3 *2163:A1 0.000535829
4 *2309:Q 0.00035228
5 *275:12 0.000855061
6 *275:10 0.000508545
7 *2161:A1 *2161:A2 4.4742e-05
8 *2161:A1 *357:17 0.000795596
9 *2162:A1 *2162:A2 1.52648e-05
10 *2162:A1 *332:77 9.99542e-06
11 *2163:A1 *2062:C 0.000367378
12 *2163:A1 *2163:A2 0.000314856
13 *2163:A1 *2309:CLK 0.000128121
14 *275:10 *2164:A1 0.000697015
15 *275:10 *295:80 0.00049216
16 *275:12 *2062:C 0.000373055
17 *275:12 *2164:A1 0.0004197
18 *2062:A2 *2161:A1 0.000335043
19 *2062:B *2161:A1 8.94841e-05
20 *2062:B *2163:A1 8.90215e-05
21 *2062:B *275:12 0.000445108
22 *2163:A3 *2163:A1 0.000282978
23 *2309:D *2161:A1 0
24 *2309:D *2163:A1 0.000227592
25 *167:12 *2161:A1 1.16613e-05
*RES
1 *2309:Q *275:10 11.4566 
2 *275:10 *275:12 1.30505 
3 *275:12 *2163:A1 12.6081 
4 *275:12 *2161:A1 10.9658 
5 *275:10 *2162:A1 9.14257 
*END

*D_NET *276 0.00908987
*CONN
*I *2157:A1 I *D gf180mcu_fd_sc_mcu7t5v0__nor2_1
*I *2156:A1 I *D gf180mcu_fd_sc_mcu7t5v0__nand2_1
*I *2158:A1 I *D gf180mcu_fd_sc_mcu7t5v0__xor3_1
*I *2310:Q O *D gf180mcu_fd_sc_mcu7t5v0__dffq_1
*CAP
1 *2157:A1 0.000120383
2 *2156:A1 0.000591689
3 *2158:A1 0.000137604
4 *2310:Q 0.000304688
5 *276:12 0.000944286
6 *276:8 0.000640063
7 *2156:A1 *2150:A2 0
8 *2156:A1 *2155:A1 0.000429763
9 *2156:A1 *2155:A2 2.79039e-05
10 *2156:A1 *2156:A2 0.000378395
11 *2156:A1 *2279:CLK 8.28597e-05
12 *2156:A1 *295:123 7.30225e-06
13 *2157:A1 *332:60 0.00124638
14 *2158:A1 *295:123 0.000111525
15 *276:8 *2160:A2 0.00116585
16 *276:8 *358:10 0
17 *276:12 *2158:A2 0
18 *276:12 *2160:A2 0.000886024
19 *276:12 *358:10 0
20 *2061:A2 *2156:A1 0.000131359
21 *2061:B *2157:A1 0.00115849
22 *2158:A3 *2156:A1 8.37099e-06
23 *2158:A3 *2158:A1 5.0226e-05
24 *2279:D *2156:A1 0.000512934
25 *2310:D *2156:A1 0.000153768
*RES
1 *2310:Q *276:8 10.9192 
2 *276:8 *276:12 5.95858 
3 *276:12 *2158:A1 5.42121 
4 *276:12 *2156:A1 16.9244 
5 *276:8 *2157:A1 11.1385 
*END

*D_NET *277 0.00248542
*CONN
*I *2143:B1 I *D gf180mcu_fd_sc_mcu7t5v0__aoi22_1
*I *2052:A1 I *D gf180mcu_fd_sc_mcu7t5v0__xor2_1
*I *2144:A1 I *D gf180mcu_fd_sc_mcu7t5v0__nor2_1
*I *2283:Q O *D gf180mcu_fd_sc_mcu7t5v0__dffq_1
*CAP
1 *2143:B1 7.75245e-05
2 *2052:A1 0.000254562
3 *2144:A1 0.000249055
4 *2283:Q 0
5 *277:15 0.000392693
6 *277:4 0.000309662
7 *2052:A1 *2052:A2 0.000635974
8 *2052:A1 *359:10 0.000124639
9 *2143:B1 *2052:A2 0
10 *2143:B1 *293:16 0.000233155
11 *2143:B1 *334:183 8.68604e-05
12 *2144:A1 *334:183 3.71751e-05
13 *2144:A1 *359:10 2.92985e-05
14 *2145:A2 *2052:A1 0
15 *2145:A3 *2144:A1 5.4824e-05
*RES
1 *2283:Q *277:4 4.5 
2 *277:4 *2144:A1 5.95858 
3 *277:4 *277:15 0.383838 
4 *277:15 *2052:A1 5.88182 
5 *277:15 *2143:B1 14.0374 
*END

*D_NET *278 0.00493337
*CONN
*I *2151:A1 I *D gf180mcu_fd_sc_mcu7t5v0__nand2_1
*I *2152:A1 I *D gf180mcu_fd_sc_mcu7t5v0__nor2_1
*I *2153:A1 I *D gf180mcu_fd_sc_mcu7t5v0__xor3_1
*I *2311:Q O *D gf180mcu_fd_sc_mcu7t5v0__dffq_1
*CAP
1 *2151:A1 0.000326034
2 *2152:A1 0
3 *2153:A1 7.33625e-05
4 *2311:Q 0.000865717
5 *278:12 8.51572e-05
6 *278:10 0.00120355
7 *2151:A1 *2151:A2 0.000355269
8 *2151:A1 *2153:A2 1.63551e-06
9 *2151:A1 *360:6 6.1059e-05
10 *2153:A1 *2151:A2 0.000295922
11 *2153:A1 *2153:A2 0.000198442
12 *278:10 *2311:CLK 0.000512969
13 *278:10 *358:10 0
14 *278:12 *2151:A2 4.55265e-05
15 *278:12 *2153:A2 1.52648e-05
16 *2060:A2 *2151:A1 9.26789e-06
17 *2060:B *2151:A1 0.00026284
18 *2060:B *278:10 0.00054402
19 *2311:D *2151:A1 1.85875e-05
20 *159:12 *2151:A1 5.87542e-05
*RES
1 *2311:Q *278:10 18.0293 
2 *278:10 *278:12 0.153535 
3 *278:12 *2153:A1 5.49798 
4 *278:12 *2152:A1 4.5 
5 *278:10 *2151:A1 15.6961 
*END

*D_NET *279 0.00486045
*CONN
*I *2134:B I *D gf180mcu_fd_sc_mcu7t5v0__aoi21_1
*I *2133:A3 I *D gf180mcu_fd_sc_mcu7t5v0__and3_1
*I *2312:Q O *D gf180mcu_fd_sc_mcu7t5v0__dffq_1
*CAP
1 *2134:B 0.000191466
2 *2133:A3 0.000102446
3 *2312:Q 7.76954e-05
4 *279:10 0.000371608
5 *2133:A3 *2133:A2 0.000273159
6 *2133:A3 *2136:A2 0.00022371
7 *2134:B *2136:A2 0.000536824
8 *2134:B *2155:A2 5.93477e-05
9 *2134:B *369:560 0.000348268
10 *2134:B *369:575 0.000233155
11 *279:10 *2160:A2 0.0010726
12 *279:10 *332:39 0.000435216
13 *279:10 *369:560 8.90215e-05
14 *2135:A3 *2134:B 0.00026041
15 *2142:A2 *2134:B 0.000107538
16 *149:8 *2133:A3 0.000386975
17 *149:8 *2134:B 9.10123e-05
*RES
1 *2312:Q *279:10 15.2657 
2 *279:10 *2133:A3 5.80505 
3 *279:10 *2134:B 15.1724 
*END

*D_NET *280 0.00594961
*CONN
*I *2131:A1 I *D gf180mcu_fd_sc_mcu7t5v0__nor2_1
*I *2130:B1 I *D gf180mcu_fd_sc_mcu7t5v0__aoi22_1
*I *2048:A1 I *D gf180mcu_fd_sc_mcu7t5v0__xor2_1
*I *2284:Q O *D gf180mcu_fd_sc_mcu7t5v0__dffq_1
*CAP
1 *2131:A1 0.000280075
2 *2130:B1 0.000123846
3 *2048:A1 0
4 *2284:Q 0.000389094
5 *280:16 0.0003468
6 *280:10 0.000892122
7 *2130:B1 *2130:B2 0.000626386
8 *2131:A1 *2131:A2 0.000523514
9 *2131:A1 *309:18 0.00032483
10 *280:10 *292:23 0.00065286
11 *280:10 *309:18 0.000167885
12 *280:10 *320:20 0
13 *280:16 *2130:B2 8.94841e-05
14 *280:16 *292:23 0.00097932
15 *280:16 *320:20 0
16 *280:16 *320:28 0
17 *2132:A2 *2130:B1 0.000189004
18 *2132:A2 *280:16 4.55265e-05
19 *246:12 *2130:B1 0.000178968
20 *246:12 *280:16 0.000139891
*RES
1 *2284:Q *280:10 10.996 
2 *280:10 *280:16 6.26565 
3 *280:16 *2048:A1 4.5 
4 *280:16 *2130:B1 5.88182 
5 *280:10 *2131:A1 11.1385 
*END

*D_NET *281 0.00383882
*CONN
*I *2127:B1 I *D gf180mcu_fd_sc_mcu7t5v0__aoi22_1
*I *2044:A1 I *D gf180mcu_fd_sc_mcu7t5v0__xor2_1
*I *2128:A1 I *D gf180mcu_fd_sc_mcu7t5v0__nor2_1
*I *2285:Q O *D gf180mcu_fd_sc_mcu7t5v0__dffq_1
*CAP
1 *2127:B1 3.93939e-05
2 *2044:A1 0.000469529
3 *2128:A1 0
4 *2285:Q 0.000320393
5 *281:19 0.000804928
6 *281:8 0.000616398
7 *2044:A1 *2044:A2 0.000295325
8 *2044:A1 *2175:A2 8.94841e-05
9 *2044:A1 *2285:CLK 4.55265e-05
10 *2044:A1 *362:14 5.21162e-05
11 *2127:B1 *2127:A2 1.02976e-05
12 *2127:B1 *2127:B2 2.37087e-05
13 *281:8 *2127:A2 2.84016e-05
14 *281:8 *2128:A2 0.000113816
15 *281:8 *2253:CLK 0
16 *281:19 *2127:A1 8.70433e-05
17 *281:19 *330:54 0.000419711
18 *281:19 *362:12 8.68604e-05
19 *281:19 *362:14 0.000277953
20 *2129:A2 *2127:B1 4.55265e-05
21 *2129:A3 *2044:A1 0
22 *2129:A3 *281:19 0
23 *2285:D *2127:B1 1.24058e-05
*RES
1 *2285:Q *281:8 6.12309 
2 *281:8 *2128:A1 4.5 
3 *281:8 *281:19 6.25469 
4 *281:19 *2044:A1 10.9192 
5 *281:19 *2127:B1 9.30707 
*END

*D_NET *282 0.00733664
*CONN
*I *2125:A1 I *D gf180mcu_fd_sc_mcu7t5v0__nor2_1
*I *2124:B1 I *D gf180mcu_fd_sc_mcu7t5v0__aoi22_1
*I *2040:A1 I *D gf180mcu_fd_sc_mcu7t5v0__xor2_1
*I *2286:Q O *D gf180mcu_fd_sc_mcu7t5v0__dffq_1
*CAP
1 *2125:A1 1.28371e-05
2 *2124:B1 0.000274575
3 *2040:A1 0
4 *2286:Q 0.000544874
5 *282:16 0.000767047
6 *282:12 0.00105018
7 *2124:B1 *2040:A2 8.37099e-06
8 *2124:B1 *2124:A1 0.000553909
9 *2124:B1 *311:30 0.000159343
10 *2124:B1 *330:67 1.30565e-05
11 *2125:A1 *2125:A2 4.55265e-05
12 *282:12 *2183:A1 0.00022371
13 *282:12 *2308:CLK 0.000186536
14 *282:12 *293:107 0.00181878
15 *282:16 *2125:A2 0.000152112
16 *282:16 *311:30 0
17 *2043:A3 *282:16 0
18 *2126:A3 *282:16 2.33227e-05
19 *2286:D *2125:A1 9.15886e-05
20 *2286:D *282:12 0.000137383
21 *171:10 *2124:B1 0.00051295
22 *240:10 *2124:B1 0.00022371
23 *240:10 *282:16 0.000536823
*RES
1 *2286:Q *282:12 17.6455 
2 *282:12 *282:16 2.3798 
3 *282:16 *2040:A1 4.5 
4 *282:16 *2124:B1 15.4192 
5 *282:12 *2125:A1 4.96061 
*END

*D_NET *283 0.00581676
*CONN
*I *2121:B1 I *D gf180mcu_fd_sc_mcu7t5v0__aoi22_1
*I *2036:A1 I *D gf180mcu_fd_sc_mcu7t5v0__xor2_1
*I *2122:A1 I *D gf180mcu_fd_sc_mcu7t5v0__nor2_1
*I *2287:Q O *D gf180mcu_fd_sc_mcu7t5v0__dffq_1
*CAP
1 *2121:B1 0.000230908
2 *2036:A1 0
3 *2122:A1 0
4 *2287:Q 0.000190609
5 *283:19 0.000305842
6 *283:8 0.000265543
7 *2121:B1 *2039:A1 0.000415434
8 *2121:B1 *2121:B2 0.000746106
9 *2121:B1 *2165:A2 4.4742e-05
10 *2121:B1 *295:106 4.55265e-05
11 *2121:B1 *330:27 0.000296738
12 *283:8 *2165:A2 0.00116329
13 *283:8 *295:31 0.000805354
14 *283:19 *2165:A2 0.00064915
15 *283:19 *2328:I 8.37099e-06
16 *283:19 *295:31 8.94841e-05
17 *283:19 *295:106 0.000559666
18 *2123:A3 *2121:B1 0
*RES
1 *2287:Q *283:8 6.72626 
2 *283:8 *2122:A1 4.5 
3 *283:8 *283:19 1.45858 
4 *283:19 *2036:A1 4.5 
5 *283:19 *2121:B1 15.496 
*END

*D_NET *284 0.00727623
*CONN
*I *2032:A1 I *D gf180mcu_fd_sc_mcu7t5v0__xor2_1
*I *2119:A1 I *D gf180mcu_fd_sc_mcu7t5v0__nor2_1
*I *2118:B1 I *D gf180mcu_fd_sc_mcu7t5v0__aoi22_1
*I *2288:Q O *D gf180mcu_fd_sc_mcu7t5v0__dffq_1
*CAP
1 *2032:A1 0.0003052
2 *2119:A1 8.58674e-05
3 *2118:B1 0.000211537
4 *2288:Q 0
5 *284:12 0.000469558
6 *284:6 0.000477353
7 *2032:A1 *2032:A2 0.000104232
8 *2032:A1 *306:20 0.000536902
9 *2032:A1 *310:18 0.000204869
10 *2032:A1 *324:12 6.52824e-05
11 *2032:A1 *324:14 8.70433e-05
12 *2032:A1 *330:12 5.71999e-05
13 *2032:A1 *365:26 0.000295325
14 *2032:A1 *369:27 0.000326413
15 *2032:A1 *369:29 0.000652881
16 *2118:B1 *2119:A2 3.26412e-05
17 *2118:B1 *300:26 0.000139906
18 *2118:B1 *365:26 0.00038576
19 *2119:A1 *326:14 0.000216543
20 *2119:A1 *331:23 0.000575253
21 *2119:A1 *331:27 4.4742e-05
22 *284:12 *2118:A2 0.000534505
23 *284:12 *326:14 2.39827e-05
24 *284:12 *331:27 0.000581644
25 *284:12 *365:26 0.000191093
26 *284:12 *369:29 0.000512949
27 *2120:A2 *2118:B1 2.33227e-05
28 *234:14 *2032:A1 0.000134226
*RES
1 *2288:Q *284:6 9 
2 *284:6 *284:12 6.34242 
3 *284:12 *2118:B1 14.6515 
4 *284:12 *2119:A1 5.56378 
5 *284:6 *2032:A1 11.9939 
*END

*D_NET *285 0.00479353
*CONN
*I *2244:A1 I *D gf180mcu_fd_sc_mcu7t5v0__xor2_1
*I *2115:B1 I *D gf180mcu_fd_sc_mcu7t5v0__aoi22_1
*I *2116:A1 I *D gf180mcu_fd_sc_mcu7t5v0__nor2_1
*I *2289:Q O *D gf180mcu_fd_sc_mcu7t5v0__dffq_1
*CAP
1 *2244:A1 0.000319021
2 *2115:B1 0.000194762
3 *2116:A1 0
4 *2289:Q 0.000327499
5 *285:16 0.000361576
6 *285:10 0.000813334
7 *2115:B1 *2115:A1 4.55265e-05
8 *2115:B1 *2115:B2 4.55265e-05
9 *2115:B1 *2116:A2 0.000114246
10 *2115:B1 *2289:CLK 5.05777e-05
11 *2115:B1 *320:20 0.000145873
12 *2244:A1 *301:18 3.4984e-05
13 *285:10 *306:20 0.000285999
14 *285:10 *331:53 0.000402676
15 *285:16 *2289:CLK 8.22151e-06
16 *285:16 *301:18 0.000156349
17 *285:16 *306:20 0.000143
18 *2117:A2 *2115:B1 4.66453e-05
19 *2117:A2 *2244:A1 0.000204869
20 *2117:A3 *285:16 0.000597627
21 *2289:D *2115:B1 0.00018536
22 *2289:D *285:16 0.00025962
23 *231:10 *2244:A1 5.02333e-05
*RES
1 *2289:Q *285:10 11.303 
2 *285:10 *285:16 6.25469 
3 *285:16 *2116:A1 4.5 
4 *285:16 *2115:B1 6.19985 
5 *285:10 *2244:A1 10.6889 
*END

*D_NET *286 0.00568335
*CONN
*I *2240:A1 I *D gf180mcu_fd_sc_mcu7t5v0__xor2_1
*I *2112:B1 I *D gf180mcu_fd_sc_mcu7t5v0__aoi22_1
*I *2113:A1 I *D gf180mcu_fd_sc_mcu7t5v0__nor2_1
*I *2290:Q O *D gf180mcu_fd_sc_mcu7t5v0__dffq_1
*CAP
1 *2240:A1 2.3149e-05
2 *2112:B1 0.00021936
3 *2113:A1 0.000143429
4 *2290:Q 0.000230935
5 *286:12 0.000805337
6 *286:10 0.000696633
7 *2112:B1 *291:69 2.5113e-05
8 *2112:B1 *367:16 0.000178888
9 *2113:A1 *2113:A2 0.000100049
10 *2113:A1 *2240:A2 2.85999e-05
11 *2113:A1 *291:69 4.55265e-05
12 *2240:A1 *304:18 3.05295e-05
13 *2240:A1 *329:14 4.55265e-05
14 *286:10 *2112:A2 0.000237338
15 *286:10 *2243:A1 6.52824e-05
16 *286:10 *304:18 0.000250355
17 *286:10 *337:14 0.000492079
18 *286:12 *2112:A2 0.000504402
19 *286:12 *2114:A1 0.000606163
20 *286:12 *2240:A2 0.000142974
21 *286:12 *2243:A1 2.61013e-05
22 *2114:A2 *2112:B1 0.000137135
23 *2114:A3 *2113:A1 0.000430626
24 *2290:D *2112:B1 6.80647e-05
25 *2290:D *2113:A1 9.79166e-06
26 *228:10 *286:10 0.000139966
*RES
1 *2290:Q *286:10 10.6889 
2 *286:10 *286:12 2.07273 
3 *286:12 *2113:A1 10.0747 
4 *286:12 *2112:B1 10.3818 
5 *286:10 *2240:A1 9.15353 
*END

*D_NET *1 0.0280516
*CONN
*P clk I
*I *2313:I I *D gf180mcu_fd_sc_mcu7t5v0__clkbuf_16
*CAP
1 clk 0.00810972
2 *2313:I 0.000101805
3 *1:14 0.00314728
4 *1:12 0.0111552
5 *2313:I *287:75 7.83332e-05
6 *1:12 *2330:I 0
7 *1:12 *2332:I 0
8 *1:12 *2333:I 0
9 *1:12 *2334:I 0
10 *1:12 *2339:I 0.000259501
11 *1:12 *2340:I 0.000801194
12 *1:12 *2341:I 0
13 *1:12 *2342:I 0
14 *1:12 *2345:I 1.30565e-05
15 *1:12 *2346:I 0
16 *1:12 *2350:I 0
17 *1:12 *2351:I 0.000143621
18 *1:12 *2356:I 0
19 *1:12 *2357:I 0.0001859
20 *1:12 *2360:I 0.00118369
21 *1:14 *2102:A1 0
22 *1:14 *2102:A2 1.25565e-05
23 *1:14 *2102:A3 1.91579e-05
24 *1:14 *2294:D 0
25 *1:14 *2294:CLK 0.000627615
26 *1:14 *2295:D 0
27 *1:14 *2317:I 0.000182106
28 *1:14 *2321:I 6.30649e-05
29 *1:14 *287:75 0.000135424
30 *1:14 *287:79 6.50564e-05
31 *1:14 *287:86 2.78813e-05
32 *1:14 *287:91 0.000169279
33 *1:14 *287:107 0.000174703
34 *1:14 *287:112 0.000320718
35 *1:14 *287:116 0.000182106
36 *1:14 *287:123 0.000227632
37 *1:14 *287:128 0.000295922
38 *1:14 *290:52 0.00036909
*RES
1 clk *1:12 47.7676 
2 *1:12 *1:14 19.0822 
3 *1:14 *2313:I 5.14704 
*END

*D_NET *287 0.0099641
*CONN
*I *2317:I I *D gf180mcu_fd_sc_mcu7t5v0__clkbuf_16
*I *2320:I I *D gf180mcu_fd_sc_mcu7t5v0__clkbuf_16
*I *2321:I I *D gf180mcu_fd_sc_mcu7t5v0__clkbuf_16
*I *2316:I I *D gf180mcu_fd_sc_mcu7t5v0__clkbuf_16
*I *2314:I I *D gf180mcu_fd_sc_mcu7t5v0__clkbuf_16
*I *2319:I I *D gf180mcu_fd_sc_mcu7t5v0__clkbuf_16
*I *2318:I I *D gf180mcu_fd_sc_mcu7t5v0__clkbuf_16
*I *2315:I I *D gf180mcu_fd_sc_mcu7t5v0__clkbuf_16
*I *2313:Z O *D gf180mcu_fd_sc_mcu7t5v0__clkbuf_16
*CAP
1 *2317:I 8.09046e-05
2 *2320:I 0
3 *2321:I 0.000149939
4 *2316:I 0
5 *2314:I 0
6 *2319:I 0
7 *2318:I 0
8 *2315:I 0.000125607
9 *2313:Z 0
10 *287:128 0.00020196
11 *287:123 0.000230776
12 *287:116 0.000190625
13 *287:112 0.000231062
14 *287:107 0.00021846
15 *287:91 0.000312029
16 *287:86 0.000260931
17 *287:79 0.00011634
18 *287:75 0.000320951
19 *287:48 0.000364678
20 *287:43 0.000364658
21 *287:41 0.000271401
22 *287:37 0.000364678
23 *287:32 0.00034445
24 *287:30 0.000289999
25 *287:26 0.000376541
26 *287:21 0.000322558
27 *287:19 0.000236037
28 *287:15 0.000390204
29 *287:13 0.000912673
30 *287:6 0.000412926
31 *287:13 *2092:A2 0
32 *287:13 *2214:A1 0.000148369
33 *287:13 *2214:A2 2.96738e-05
34 *287:15 *329:96 0
35 *287:19 *329:96 0
36 *287:21 *329:96 0
37 *287:26 *329:96 0
38 *287:30 *329:96 0
39 *287:32 *329:96 0
40 *287:37 *329:96 0
41 *287:75 *329:83 0
42 *287:79 *329:83 0
43 *287:86 *329:83 0
44 *287:91 *329:83 0
45 *2092:A1 *287:13 0
46 *2092:A1 *287:75 1.25565e-05
47 *2093:A2 *287:13 0.000173721
48 *2093:A3 *287:15 0.000265029
49 *2093:A3 *287:75 0.000322134
50 *2313:I *287:75 7.83332e-05
51 *1:14 *2317:I 0.000182106
52 *1:14 *2321:I 6.30649e-05
53 *1:14 *287:75 0.000135424
54 *1:14 *287:79 6.50564e-05
55 *1:14 *287:86 2.78813e-05
56 *1:14 *287:91 0.000169279
57 *1:14 *287:107 0.000174703
58 *1:14 *287:112 0.000320718
59 *1:14 *287:116 0.000182106
60 *1:14 *287:123 0.000227632
61 *1:14 *287:128 0.000295922
*RES
1 *2313:Z *287:6 9 
2 *287:6 *287:13 6.26565 
3 *287:13 *287:15 1.45858 
4 *287:15 *287:19 0.614141 
5 *287:19 *287:21 0.56479 
6 *287:21 *287:26 1.06378 
7 *287:26 *287:30 0.751226 
8 *287:30 *287:32 0.614141 
9 *287:32 *287:37 1.08571 
10 *287:37 *287:41 0.679942 
11 *287:41 *287:43 0.614141 
12 *287:43 *287:48 1.15151 
13 *287:48 *2315:I 5.11414 
14 *287:41 *2318:I 4.5 
15 *287:30 *2319:I 4.5 
16 *287:19 *2314:I 4.5 
17 *287:13 *287:75 1.91919 
18 *287:75 *287:79 0.614141 
19 *287:79 *2316:I 4.5 
20 *287:79 *287:86 0.30707 
21 *287:86 *287:91 1.47503 
22 *287:91 *2321:I 5.09769 
23 *2321:I *287:107 5.11414 
24 *287:107 *287:112 1.15151 
25 *287:112 *287:116 0.614141 
26 *287:116 *2320:I 4.5 
27 *287:116 *287:123 0.767676 
28 *287:123 *287:128 0.997979 
29 *287:128 *2317:I 5.11414 
*END

*D_NET *288 0.0166384
*CONN
*I *2251:CLK I *D gf180mcu_fd_sc_mcu7t5v0__dffq_1
*I *2322:I I *D gf180mcu_fd_sc_mcu7t5v0__inv_2
*I *2283:CLK I *D gf180mcu_fd_sc_mcu7t5v0__dffq_1
*I *2265:CLK I *D gf180mcu_fd_sc_mcu7t5v0__dffq_1
*I *2266:CLK I *D gf180mcu_fd_sc_mcu7t5v0__dffq_1
*I *2267:CLK I *D gf180mcu_fd_sc_mcu7t5v0__dffq_1
*I *2299:CLK I *D gf180mcu_fd_sc_mcu7t5v0__dffq_1
*I *2298:CLK I *D gf180mcu_fd_sc_mcu7t5v0__dffq_1
*I *2314:Z O *D gf180mcu_fd_sc_mcu7t5v0__clkbuf_16
*CAP
1 *2251:CLK 4.71866e-05
2 *2322:I 0.000452491
3 *2283:CLK 0.00033538
4 *2265:CLK 8.19684e-05
5 *2266:CLK 0
6 *2267:CLK 0.00121079
7 *2299:CLK 6.98046e-05
8 *2298:CLK 1.20044e-05
9 *2314:Z 0.000940216
10 *288:86 0.00141977
11 *288:82 0.00144546
12 *288:35 0.00246907
13 *288:29 0.00233027
14 *288:10 0.00207436
15 *288:6 0.00117637
16 *2267:CLK *2085:B2 5.87542e-05
17 *2283:CLK *293:16 0
18 *2283:CLK *334:87 0.000512934
19 *2322:I *293:16 0
20 *2322:I *334:85 0.000145806
21 *2322:I *334:87 0.00102587
22 *288:10 *2090:A1 0.000338158
23 *288:29 *2089:A2 2.33227e-05
24 *2087:A3 *2267:CLK 0
25 *2089:A1 *288:29 1.85875e-05
26 *2090:A3 *288:10 0
27 *2090:A3 *288:29 0.000280533
28 *2211:A2 *288:10 3.12005e-05
29 *2211:A3 *288:10 2.50778e-05
30 *2251:D *288:82 0
31 *2265:D *288:10 0
32 *2266:D *2267:CLK 0
33 *2266:D *288:35 0
34 *2267:D *2267:CLK 0
35 *2283:D *2322:I 4.4742e-05
36 *2298:D *288:29 6.82897e-05
*RES
1 *2314:Z *288:6 5.34444 
2 *288:6 *288:10 4.98989 
3 *288:10 *2298:CLK 4.65354 
4 *288:10 *288:29 5.54372 
5 *288:29 *288:35 10.2411 
6 *288:35 *2299:CLK 9.29062 
7 *288:35 *2267:CLK 14.7411 
8 *288:29 *2266:CLK 4.5 
9 *288:6 *2265:CLK 4.96061 
10 *2314:Z *288:82 17.0313 
11 *288:82 *288:86 7.95454 
12 *288:86 *2283:CLK 11.2098 
13 *288:86 *2322:I 11.6526 
14 *288:82 *2251:CLK 4.86739 
*END

*D_NET *289 0.0252478
*CONN
*I *2250:CLK I *D gf180mcu_fd_sc_mcu7t5v0__dffq_1
*I *2302:CLK I *D gf180mcu_fd_sc_mcu7t5v0__dffq_1
*I *2269:CLK I *D gf180mcu_fd_sc_mcu7t5v0__dffq_1
*I *2301:CLK I *D gf180mcu_fd_sc_mcu7t5v0__dffq_1
*I *2282:CLK I *D gf180mcu_fd_sc_mcu7t5v0__dffq_1
*I *2323:I I *D gf180mcu_fd_sc_mcu7t5v0__inv_2
*I *2300:CLK I *D gf180mcu_fd_sc_mcu7t5v0__dffq_1
*I *2268:CLK I *D gf180mcu_fd_sc_mcu7t5v0__dffq_1
*I *2315:Z O *D gf180mcu_fd_sc_mcu7t5v0__clkbuf_16
*CAP
1 *2250:CLK 0.000759378
2 *2302:CLK 0.00162748
3 *2269:CLK 2.57819e-05
4 *2301:CLK 4.30488e-05
5 *2282:CLK 0.000898097
6 *2323:I 0
7 *2300:CLK 0.00153375
8 *2268:CLK 3.6364e-05
9 *2315:Z 0.00158065
10 *289:71 0.00224577
11 *289:56 0.000919632
12 *289:42 0.00115743
13 *289:38 0.000924993
14 *289:34 0.00144785
15 *289:12 0.0019324
16 *289:10 0.00224983
17 *2250:CLK *2145:A1 4.56977e-05
18 *2250:CLK *293:16 0.000326413
19 *2250:CLK *328:128 0.000195169
20 *2250:CLK *328:152 0
21 *2250:CLK *334:173 7.95169e-05
22 *2269:CLK *305:26 6.03495e-05
23 *2282:CLK *2053:A1 2.33227e-05
24 *2282:CLK *328:128 4.23034e-05
25 *2300:CLK *328:161 0
26 *2300:CLK *328:173 0
27 *2300:CLK *346:14 0
28 *2302:CLK *305:26 0.000910489
29 *2302:CLK *334:25 0
30 *2302:CLK *334:29 0
31 *289:10 *334:57 0.00121663
32 *289:10 *345:12 0.000156349
33 *289:10 *345:14 0.000225837
34 *289:34 *2198:A1 0
35 *289:34 *328:152 0
36 *289:38 *292:12 6.52824e-05
37 *289:38 *328:122 5.71999e-05
38 *289:38 *328:128 0.0001287
39 *289:38 *334:57 0
40 *289:42 *328:128 2.0479e-05
41 *289:42 *328:152 0.000250355
42 *289:56 *328:120 0.000143
43 *289:56 *328:122 0.000386099
44 *289:71 *2080:A2 0.00017492
45 *289:71 *305:26 0.00103212
46 *289:71 *328:120 0.000443299
47 *2053:B *2282:CLK 4.06487e-05
48 *2055:A2 *2250:CLK 2.72585e-05
49 *2055:A2 *2282:CLK 9.79165e-05
50 *2055:A3 *2250:CLK 0.000330292
51 *2196:A1 *289:71 0.000512946
52 *2198:A3 *289:56 7.18107e-05
53 *2199:A2 *289:12 9.86581e-06
54 *2199:A3 *289:12 0.00013575
55 *2199:A3 *289:34 1.16613e-05
56 *2199:A3 *289:38 0
57 *2203:A3 *2300:CLK 0
58 *2250:D *2282:CLK 0.000198243
59 *2268:D *2300:CLK 9.29377e-06
60 *2268:D *289:12 0.000102232
61 *2300:D *2300:CLK 0
62 *2301:D *289:71 8.57998e-05
63 *2302:D *2302:CLK 0
64 *195:10 *289:56 0.000163206
65 *195:10 *289:71 8.48671e-05
*RES
1 *2315:Z *289:10 22.6353 
2 *289:10 *289:12 1.91919 
3 *289:12 *2268:CLK 4.80707 
4 *289:12 *2300:CLK 11.6394 
5 *289:10 *289:34 1.30505 
6 *289:34 *289:38 6.26565 
7 *289:38 *289:42 5.72006 
8 *289:42 *2323:I 4.5 
9 *289:42 *2282:CLK 8.86753 
10 *289:38 *289:56 2.8404 
11 *289:56 *2301:CLK 9.13708 
12 *289:56 *289:71 9.10606 
13 *289:71 *2269:CLK 4.80707 
14 *289:71 *2302:CLK 13.6353 
15 *289:34 *2250:CLK 17.4755 
*END

*D_NET *290 0.0294047
*CONN
*I *2296:CLK I *D gf180mcu_fd_sc_mcu7t5v0__dffq_1
*I *2264:CLK I *D gf180mcu_fd_sc_mcu7t5v0__dffq_1
*I *2260:CLK I *D gf180mcu_fd_sc_mcu7t5v0__dffq_1
*I *2293:CLK I *D gf180mcu_fd_sc_mcu7t5v0__dffq_1
*I *2261:CLK I *D gf180mcu_fd_sc_mcu7t5v0__dffq_1
*I *2294:CLK I *D gf180mcu_fd_sc_mcu7t5v0__dffq_1
*I *2295:CLK I *D gf180mcu_fd_sc_mcu7t5v0__dffq_1
*I *2262:CLK I *D gf180mcu_fd_sc_mcu7t5v0__dffq_1
*I *2263:CLK I *D gf180mcu_fd_sc_mcu7t5v0__dffq_1
*I *2297:CLK I *D gf180mcu_fd_sc_mcu7t5v0__dffq_1
*I *2316:Z O *D gf180mcu_fd_sc_mcu7t5v0__clkbuf_16
*CAP
1 *2296:CLK 0.000950778
2 *2264:CLK 0.000355699
3 *2260:CLK 0.000214236
4 *2293:CLK 0.000228034
5 *2261:CLK 0.000713622
6 *2294:CLK 0.000278873
7 *2295:CLK 0
8 *2262:CLK 0
9 *2263:CLK 0.000249851
10 *2297:CLK 0.000893516
11 *2316:Z 0.000705417
12 *290:112 0.00135175
13 *290:74 0.0013293
14 *290:70 0.00174964
15 *290:52 0.00140037
16 *290:44 0.0025671
17 *290:37 0.000957977
18 *290:4 0.00114337
19 *2260:CLK *2229:A2 2.6113e-05
20 *2260:CLK *300:26 0.000143621
21 *2260:CLK *333:26 8.57998e-05
22 *2260:CLK *333:32 0.0001859
23 *2261:CLK *2225:A2 5.7788e-05
24 *2261:CLK *335:43 0.00191203
25 *2261:CLK *335:54 9.13954e-05
26 *2261:CLK *341:16 0.000282891
27 *2263:CLK *302:34 6.22881e-05
28 *2293:CLK *2104:A2 0.000164641
29 *2293:CLK *341:16 0.000136579
30 *2294:CLK *2102:A1 0
31 *2296:CLK *2215:A1 0
32 *2297:CLK *2091:A1 0
33 *2297:CLK *2091:A2 0.000181497
34 *2297:CLK *2213:A1 0
35 *2297:CLK *302:34 4.1855e-06
36 *290:37 *2213:A1 2.76376e-05
37 *290:37 *2213:A2 0.000169381
38 *290:37 *302:34 0.00167821
39 *290:37 *342:18 9.90717e-05
40 *290:44 *2097:A2 0
41 *290:44 *2220:A2 0.000178968
42 *290:44 *342:18 0.00106405
43 *290:52 *2097:A2 0.000104232
44 *290:70 *2220:A2 0.000134226
45 *290:70 *2222:A1 8.94841e-05
46 *290:70 *2222:A2 0.000273159
47 *290:70 *2229:A2 1.95847e-05
48 *290:70 *300:26 3.26412e-05
49 *290:70 *300:28 0
50 *290:70 *333:43 0
51 *290:70 *333:49 0
52 *290:74 *2103:A1 0.000318685
53 *290:74 *2103:B2 0
54 *290:74 *2229:A2 7.98965e-05
55 *290:74 *333:39 4.55265e-05
56 *290:74 *341:16 0.000736099
57 *2091:B1 *2297:CLK 4.1855e-05
58 *2096:A2 *2296:CLK 7.29331e-05
59 *2096:A3 *2296:CLK 0.000436233
60 *2104:A1 *2293:CLK 3.51836e-05
61 *2213:B *2264:CLK 0
62 *2213:B *290:112 0
63 *2215:A2 *2296:CLK 0.000839402
64 *2215:A2 *290:37 0.000394674
65 *2215:A3 *2264:CLK 4.16233e-05
66 *2215:A3 *2297:CLK 4.5767e-05
67 *2223:A3 *290:37 0.000223051
68 *2225:B *2261:CLK 6.82897e-05
69 *2226:A3 *2261:CLK 1.78854e-05
70 *2231:A2 *290:74 0.000268452
71 *2263:D *2296:CLK 0.000459464
72 *2264:D *290:112 0
73 *2295:D *290:52 0.00060623
74 *2296:D *2296:CLK 5.0226e-05
75 *1:14 *2294:CLK 0.000627615
76 *1:14 *290:52 0.00036909
77 *216:12 *2261:CLK 0.000233344
78 *258:23 *2293:CLK 0
79 *259:18 *2261:CLK 5.20852e-05
80 *260:6 *290:70 0.000183123
81 *260:18 *290:44 7.62965e-05
82 *260:18 *290:52 0.000771467
83 *260:18 *290:70 1.52648e-05
*RES
1 *2316:Z *290:4 4.5 
2 *290:4 *2297:CLK 8.41515 
3 *290:4 *2263:CLK 5.80505 
4 *2316:Z *290:37 10.0437 
5 *290:37 *2262:CLK 4.5 
6 *290:37 *290:44 2.13304 
7 *290:44 *290:52 14.774 
8 *290:52 *2295:CLK 4.5 
9 *290:52 *2294:CLK 6.69336 
10 *290:44 *290:70 9.7202 
11 *290:70 *290:74 7.49394 
12 *290:74 *2261:CLK 18.3199 
13 *290:74 *2293:CLK 5.86537 
14 *290:70 *2260:CLK 10.9027 
15 *2316:Z *290:112 4.7303 
16 *290:112 *2264:CLK 5.71183 
17 *290:112 *2296:CLK 18.934 
*END

*D_NET *291 0.0265934
*CONN
*I *2292:CLK I *D gf180mcu_fd_sc_mcu7t5v0__dffq_1
*I *2248:CLK I *D gf180mcu_fd_sc_mcu7t5v0__dffq_1
*I *2258:CLK I *D gf180mcu_fd_sc_mcu7t5v0__dffq_1
*I *2249:CLK I *D gf180mcu_fd_sc_mcu7t5v0__dffq_1
*I *2290:CLK I *D gf180mcu_fd_sc_mcu7t5v0__dffq_1
*I *2324:I I *D gf180mcu_fd_sc_mcu7t5v0__inv_2
*I *2291:CLK I *D gf180mcu_fd_sc_mcu7t5v0__dffq_1
*I *2259:CLK I *D gf180mcu_fd_sc_mcu7t5v0__dffq_1
*I *2317:Z O *D gf180mcu_fd_sc_mcu7t5v0__clkbuf_16
*CAP
1 *2292:CLK 0.00112046
2 *2248:CLK 0
3 *2258:CLK 0.000532661
4 *2249:CLK 0.00107181
5 *2290:CLK 4.835e-05
6 *2324:I 0
7 *2291:CLK 0.000520232
8 *2259:CLK 3.45054e-05
9 *2317:Z 0.00253536
10 *291:90 0.00166564
11 *291:69 0.0018716
12 *291:47 0.00310815
13 *291:25 0.000725158
14 *291:23 0.00216439
15 *291:8 0.00333512
16 *2258:CLK *2109:A1 0.000134226
17 *2258:CLK *2237:A1 3.51545e-05
18 *2258:CLK *2238:A1 2.72585e-05
19 *2258:CLK *300:26 0
20 *2258:CLK *333:12 0.000890215
21 *2258:CLK *333:14 8.90215e-05
22 *2291:CLK *2235:A1 0
23 *2292:CLK *2239:A1 5.35146e-05
24 *2292:CLK *296:12 0
25 *2292:CLK *297:16 0.00340439
26 *2292:CLK *297:33 0.00011098
27 *2292:CLK *299:10 0.000474781
28 *2292:CLK *313:24 0.00016076
29 *291:8 *342:12 0.000110968
30 *291:25 *2235:A1 0
31 *291:47 *294:12 0
32 *291:69 *2113:A2 0.000402596
33 *291:69 *313:24 9.27718e-06
34 *291:69 *367:8 9.29778e-05
35 *291:69 *367:16 4.97409e-05
36 *291:90 *2239:A1 6.78648e-05
37 *291:90 *313:24 0.000394232
38 *2108:A3 *2292:CLK 4.06487e-05
39 *2111:A2 *291:47 0.000699502
40 *2111:A3 *291:47 0
41 *2112:B1 *291:69 2.5113e-05
42 *2113:A1 *291:69 4.55265e-05
43 *2114:A3 *291:69 8.93232e-05
44 *2235:A2 *2259:CLK 8.61751e-05
45 *2239:A2 *2292:CLK 0
46 *2258:D *291:90 0
47 *2259:D *2259:CLK 6.82897e-05
48 *2259:D *291:23 0
49 *2259:D *291:25 0
50 *2290:D *291:69 0
51 *2291:D *2291:CLK 0.000264358
52 *2291:D *291:25 3.30261e-05
53 *225:18 *291:69 0
54 *225:18 *291:90 0
55 *257:10 *2292:CLK 0
*RES
1 *2317:Z *291:8 17.9818 
2 *291:8 *2259:CLK 9.29062 
3 *291:8 *291:23 6.95656 
4 *291:23 *291:25 1.04048 
5 *291:25 *2291:CLK 7.14437 
6 *291:25 *2324:I 4.5 
7 *291:23 *291:47 14.297 
8 *291:47 *2290:CLK 4.80707 
9 *291:47 *2249:CLK 9.02929 
10 *291:47 *291:69 4.06868 
11 *291:69 *2258:CLK 16.5543 
12 *291:69 *291:90 2.93362 
13 *291:90 *2248:CLK 4.5 
14 *291:90 *2292:CLK 21.5277 
*END

*D_NET *292 0.0502757
*CONN
*I *2325:I I *D gf180mcu_fd_sc_mcu7t5v0__clkbuf_4
*I *2306:CLK I *D gf180mcu_fd_sc_mcu7t5v0__dffq_1
*I *2274:CLK I *D gf180mcu_fd_sc_mcu7t5v0__dffq_1
*I *2307:CLK I *D gf180mcu_fd_sc_mcu7t5v0__dffq_1
*I *2270:CLK I *D gf180mcu_fd_sc_mcu7t5v0__dffq_1
*I *2271:CLK I *D gf180mcu_fd_sc_mcu7t5v0__dffq_1
*I *2303:CLK I *D gf180mcu_fd_sc_mcu7t5v0__dffq_1
*I *2252:CLK I *D gf180mcu_fd_sc_mcu7t5v0__dffq_1
*I *2284:CLK I *D gf180mcu_fd_sc_mcu7t5v0__dffq_1
*I *2318:Z O *D gf180mcu_fd_sc_mcu7t5v0__clkbuf_16
*CAP
1 *2325:I 0
2 *2306:CLK 0
3 *2274:CLK 0.000223171
4 *2307:CLK 3.54669e-05
5 *2270:CLK 0.000891533
6 *2271:CLK 0.000178711
7 *2303:CLK 0.000511037
8 *2252:CLK 7.88386e-05
9 *2284:CLK 0
10 *2318:Z 0.00228196
11 *292:78 0.00171323
12 *292:76 0.00167245
13 *292:70 0.00161513
14 *292:55 0.00128065
15 *292:42 0.00120685
16 *292:38 0.00140523
17 *292:23 0.0015084
18 *292:12 0.00285224
19 *2252:CLK *307:30 0
20 *2270:CLK *2078:A1 0
21 *2270:CLK *2192:A2 0
22 *2274:CLK *2174:A1 8.30924e-05
23 *2303:CLK *351:8 0.000761629
24 *2303:CLK *351:14 0.000271173
25 *292:12 *2079:B2 0.000391617
26 *292:12 *2210:A2 6.52824e-05
27 *292:12 *303:18 0.00583639
28 *292:12 *303:20 0.00052226
29 *292:12 *308:26 0.00105195
30 *292:12 *313:24 0.000208465
31 *292:12 *328:118 0.000512953
32 *292:12 *328:120 0.00284445
33 *292:12 *328:122 0.00144554
34 *292:12 *328:128 0.000419673
35 *292:23 *2048:A2 0.000326413
36 *292:23 *303:18 0.000179906
37 *292:23 *308:26 0.000245518
38 *292:23 *361:10 0.00172532
39 *292:23 *361:12 0.000885977
40 *292:38 *321:41 0.000237391
41 *292:38 *331:53 0
42 *292:38 *331:72 0.00052476
43 *292:38 *361:10 0.00186521
44 *292:38 *369:291 0.000390339
45 *292:42 *331:72 0.000163259
46 *292:42 *369:291 7.43502e-05
47 *292:55 *351:8 0.000304651
48 *292:70 *351:8 0.000348173
49 *292:76 *2174:A1 0.000139891
50 *292:76 *2176:A2 4.1855e-06
51 *292:76 *355:10 0
52 *292:78 *2064:C 0.000606209
53 *292:78 *2174:A1 0.00139905
54 *292:78 *2192:A2 0
55 *2046:A3 *292:38 0.000631972
56 *2047:A3 *292:38 0.000204829
57 *2064:A1 *2307:CLK 1.6596e-05
58 *2064:A2 *292:78 0
59 *2065:A2 *292:70 0
60 *2065:A2 *292:76 0
61 *2090:A2 *292:12 0.00116576
62 *2174:A2 *2274:CLK 2.27632e-05
63 *2176:A1 *292:76 0
64 *2187:A2 *292:70 0
65 *2187:A3 *292:42 0
66 *2191:A2 *2303:CLK 3.25871e-05
67 *2252:D *292:38 0
68 *2271:D *2271:CLK 0
69 *2271:D *292:70 0.000313194
70 *2274:D *2274:CLK 4.60405e-05
71 *2306:D *292:70 0
72 *179:12 *292:70 0.00219235
73 *189:10 *2303:CLK 0
74 *246:12 *292:23 0.000474781
75 *268:10 *2270:CLK 0.000139894
76 *269:8 *2303:CLK 0.000712172
77 *269:8 *292:55 0.000148369
78 *269:12 *2303:CLK 0.000445108
79 *273:10 *292:78 0.000741846
80 *280:10 *292:23 0.00065286
81 *280:16 *292:23 0.00097932
82 *289:38 *292:12 6.52824e-05
*RES
1 *2318:Z *292:12 37.5447 
2 *292:12 *2284:CLK 4.5 
3 *292:12 *292:23 10.7017 
4 *292:23 *2252:CLK 9.29062 
5 *292:23 *292:38 11.7929 
6 *292:38 *292:42 7.26363 
7 *292:42 *2303:CLK 13.2058 
8 *292:42 *292:55 1.15151 
9 *292:55 *2271:CLK 9.59769 
10 *292:55 *292:70 10.7346 
11 *292:70 *292:76 7.47749 
12 *292:76 *292:78 4.98989 
13 *292:78 *2270:CLK 13.2058 
14 *292:78 *2307:CLK 9.13708 
15 *292:76 *2274:CLK 10.2118 
16 *292:70 *2306:CLK 4.5 
17 *292:38 *2325:I 4.5 
*END

*D_NET *293 0.0429038
*CONN
*I *2308:CLK I *D gf180mcu_fd_sc_mcu7t5v0__dffq_1
*I *2275:CLK I *D gf180mcu_fd_sc_mcu7t5v0__dffq_1
*I *2286:CLK I *D gf180mcu_fd_sc_mcu7t5v0__dffq_1
*I *2272:CLK I *D gf180mcu_fd_sc_mcu7t5v0__dffq_1
*I *2305:CLK I *D gf180mcu_fd_sc_mcu7t5v0__dffq_1
*I *2273:CLK I *D gf180mcu_fd_sc_mcu7t5v0__dffq_1
*I *2253:CLK I *D gf180mcu_fd_sc_mcu7t5v0__dffq_1
*I *2326:I I *D gf180mcu_fd_sc_mcu7t5v0__clkbuf_4
*I *2304:CLK I *D gf180mcu_fd_sc_mcu7t5v0__dffq_1
*I *2319:Z O *D gf180mcu_fd_sc_mcu7t5v0__clkbuf_16
*CAP
1 *2308:CLK 0.000410037
2 *2275:CLK 0.0011415
3 *2286:CLK 2.35856e-05
4 *2272:CLK 0.000327282
5 *2305:CLK 4.71866e-05
6 *2273:CLK 0.00071728
7 *2253:CLK 0.00100904
8 *2326:I 0
9 *2304:CLK 0.000415959
10 *2319:Z 0.0070045
11 *293:107 0.00202872
12 *293:96 0.0011685
13 *293:79 0.00131961
14 *293:53 0.00230569
15 *293:49 0.00231854
16 *293:31 0.00108747
17 *293:27 0.000890811
18 *293:16 0.00778011
19 *2272:CLK *2181:A1 4.06487e-05
20 *2272:CLK *2182:A2 0
21 *2272:CLK *311:30 0.000527315
22 *2272:CLK *311:32 0.00064619
23 *2273:CLK *2179:A1 1.89736e-05
24 *2275:CLK *352:10 6.82491e-05
25 *2286:CLK *2183:A1 2.08238e-05
26 *2304:CLK *2070:B2 0.000169922
27 *2308:CLK *2169:A1 0.00016076
28 *293:16 *2132:A1 0.00100096
29 *293:16 *2144:A2 0
30 *293:16 *2145:A1 0
31 *293:16 *317:14 0
32 *293:16 *334:87 0
33 *293:16 *334:89 0
34 *293:16 *334:177 0.0001144
35 *293:16 *334:183 8.57998e-05
36 *293:16 *334:233 0.000371799
37 *293:16 *334:248 0.000571999
38 *293:16 *369:234 0.000215432
39 *293:16 *369:273 0
40 *293:16 *369:277 0
41 *293:27 *369:230 4.56977e-05
42 *293:27 *369:234 0.000104452
43 *293:49 *369:230 0.00022196
44 *293:53 *2067:A1 0
45 *293:53 *2067:A2 0
46 *293:53 *2067:B2 0.000169381
47 *293:53 *2068:A2 0
48 *293:53 *369:226 0.000128275
49 *293:53 *369:439 0
50 *293:79 *2181:A1 7.14998e-05
51 *293:79 *369:230 4.56977e-05
52 *293:79 *369:435 0.0001001
53 *293:96 *311:30 0.00143174
54 *293:107 *2183:A1 0.000699494
55 *293:107 *311:30 0
56 *2051:A2 *293:16 0.000225775
57 *2067:B1 *293:53 1.85358e-05
58 *2069:A2 *293:53 3.71585e-05
59 *2069:A3 *293:53 0
60 *2071:A1 *293:53 0
61 *2132:A3 *293:16 0.000886024
62 *2143:B1 *293:16 0.000233155
63 *2145:A2 *293:16 0.000801194
64 *2181:B *2272:CLK 0.000130384
65 *2183:A2 *2272:CLK 0.000148307
66 *2209:B *293:16 8.48671e-05
67 *2250:CLK *293:16 0.000326413
68 *2275:D *2275:CLK 0
69 *2283:D *293:16 0.000979335
70 *2283:CLK *293:16 0
71 *2322:I *293:16 0
72 *240:10 *293:96 0
73 *240:10 *293:107 0
74 *281:8 *2253:CLK 0
75 *282:12 *2308:CLK 0.000186536
76 *282:12 *293:107 0.00181878
*RES
1 *2319:Z *293:16 43.4687 
2 *293:16 *2304:CLK 10.9795 
3 *293:16 *293:27 1.76565 
4 *293:27 *293:31 4.80707 
5 *293:31 *2326:I 4.5 
6 *293:31 *2253:CLK 9.28152 
7 *293:27 *293:49 2.68687 
8 *293:49 *293:53 11.7929 
9 *293:53 *2273:CLK 8.03131 
10 *293:53 *2305:CLK 4.86739 
11 *293:49 *293:79 5.95858 
12 *293:79 *2272:CLK 7.18687 
13 *293:79 *293:96 8.18484 
14 *293:96 *2286:CLK 9.13708 
15 *293:96 *293:107 3.76161 
16 *293:107 *2275:CLK 14.5108 
17 *293:107 *2308:CLK 11.2098 
*END

*D_NET *294 0.053981
*CONN
*I *2257:CLK I *D gf180mcu_fd_sc_mcu7t5v0__dffq_1
*I *2256:CLK I *D gf180mcu_fd_sc_mcu7t5v0__dffq_1
*I *2255:CLK I *D gf180mcu_fd_sc_mcu7t5v0__dffq_1
*I *2285:CLK I *D gf180mcu_fd_sc_mcu7t5v0__dffq_1
*I *2327:I I *D gf180mcu_fd_sc_mcu7t5v0__clkinv_1
*I *2312:CLK I *D gf180mcu_fd_sc_mcu7t5v0__dffq_1
*I *2280:CLK I *D gf180mcu_fd_sc_mcu7t5v0__dffq_2
*I *2281:CLK I *D gf180mcu_fd_sc_mcu7t5v0__dffq_1
*I *2288:CLK I *D gf180mcu_fd_sc_mcu7t5v0__dffq_1
*I *2289:CLK I *D gf180mcu_fd_sc_mcu7t5v0__dffq_1
*I *2320:Z O *D gf180mcu_fd_sc_mcu7t5v0__clkbuf_16
*CAP
1 *2257:CLK 0
2 *2256:CLK 6.13911e-05
3 *2255:CLK 5.99516e-05
4 *2285:CLK 0.00070919
5 *2327:I 9.96769e-05
6 *2312:CLK 0.000707481
7 *2280:CLK 1.9016e-05
8 *2281:CLK 0.000660718
9 *2288:CLK 0
10 *2289:CLK 0.000650185
11 *2320:Z 0.0038235
12 *294:102 0.00154941
13 *294:87 0.00173401
14 *294:65 0.00136844
15 *294:52 0.00181126
16 *294:43 0.00128017
17 *294:37 0.00201052
18 *294:31 0.000775088
19 *294:18 0.00122845
20 *294:12 0.00407296
21 *2255:CLK *2175:A2 0.000118847
22 *2255:CLK *310:18 0.000103582
23 *2256:CLK *366:6 7.30225e-06
24 *2256:CLK *369:107 9.1053e-05
25 *2280:CLK *300:26 2.08238e-05
26 *2280:CLK *331:6 7.98965e-05
27 *2281:CLK *321:24 0
28 *2281:CLK *325:14 0.000343199
29 *2281:CLK *332:16 0
30 *2285:CLK *2175:A2 0.00161735
31 *2285:CLK *310:18 0.00161302
32 *2289:CLK *2115:A1 1.41602e-05
33 *2289:CLK *2115:A2 0.000457006
34 *2289:CLK *2115:B2 7.98965e-05
35 *2289:CLK *2116:A2 0.000159343
36 *2289:CLK *325:16 0.000214043
37 *2289:CLK *366:21 4.57943e-05
38 *2312:CLK *2155:A2 0.00242485
39 *2312:CLK *2175:A2 3.05295e-05
40 *2312:CLK *310:18 2.58898e-05
41 *2312:CLK *319:14 0
42 *2312:CLK *321:24 0
43 *2312:CLK *369:6 0.000178888
44 *2312:CLK *369:10 0.000348347
45 *2327:I *302:18 2.09275e-05
46 *2327:I *321:24 0.000113816
47 *294:12 *2243:A1 0
48 *294:12 *302:20 0
49 *294:12 *303:18 0.000482573
50 *294:12 *329:24 0
51 *294:12 *329:52 0.00321757
52 *294:12 *329:54 0.00219163
53 *294:12 *329:60 0.000512934
54 *294:18 *295:16 0.000469046
55 *294:18 *302:20 0.000587542
56 *294:18 *303:18 0.000457006
57 *294:31 *295:16 0.000121605
58 *294:31 *302:20 0.000761629
59 *294:37 *2246:A2 9.29377e-06
60 *294:37 *369:97 0.000984322
61 *294:37 *369:107 0.000447339
62 *294:43 *2246:A2 0
63 *294:43 *309:18 0.000417288
64 *294:43 *320:20 0.00160104
65 *294:52 *309:18 0.000678835
66 *294:52 *320:20 0.0030967
67 *294:65 *2155:A2 0.000979311
68 *294:65 *309:18 3.91695e-05
69 *294:65 *321:24 0
70 *294:65 *332:16 0
71 *294:87 *2246:A2 0
72 p *2281:CLK 7.98965e-05
73 *2044:A1 *2285:CLK 4.55265e-05
74 *2111:A3 *294:12 0.000886065
75 *2115:B1 *2289:CLK 5.05777e-05
76 *2117:A2 *2289:CLK 0
77 *2117:A3 *2289:CLK 1.75918e-05
78 *2136:A1 *2312:CLK 0.000492081
79 *2140:A1 *2281:CLK 0.000326413
80 *2246:A3 *2256:CLK 0.000131661
81 *2246:A3 *294:37 0.000122118
82 *2247:A2 *294:31 0.00125906
83 *2257:D *294:12 4.60405e-05
84 *2257:D *294:18 8.96892e-07
85 *2280:D *2312:CLK 0.000932651
86 *2281:D *2281:CLK 0.000419688
87 *2289:D *2289:CLK 0
88 *2334:I *294:52 0.000111525
89 *2337:I *2281:CLK 4.06487e-05
90 *2354:I *2281:CLK 1.30565e-05
91 *2358:I *2281:CLK 0.000233155
92 *151:12 *2281:CLK 0
93 *255:8 *2281:CLK 0.000886036
94 *255:8 *294:65 9.32637e-05
95 *285:16 *2289:CLK 8.22151e-06
96 *291:47 *294:12 0
*RES
1 *2320:Z *294:12 34.9017 
2 *294:12 *294:18 7.35685 
3 *294:18 *2289:CLK 12.6684 
4 *294:18 *294:31 7.18687 
5 *294:31 *294:37 7.1101 
6 *294:37 *294:43 9.01284 
7 *294:43 *2288:CLK 4.5 
8 *294:43 *294:52 9.89018 
9 *294:52 *2281:CLK 12.8987 
10 *294:52 *294:65 3.14747 
11 *294:65 *2280:CLK 9.13708 
12 *294:65 *2312:CLK 14.127 
13 *294:37 *294:87 2.99394 
14 *294:87 *2327:I 9.53737 
15 *294:87 *294:102 6.8798 
16 *294:102 *2285:CLK 13.0212 
17 *294:102 *2255:CLK 5.09769 
18 *294:31 *2256:CLK 4.94416 
19 *294:12 *2257:CLK 4.5 
*END

*D_NET *295 0.0472883
*CONN
*I *2277:CLK I *D gf180mcu_fd_sc_mcu7t5v0__dffq_1
*I *2279:CLK I *D gf180mcu_fd_sc_mcu7t5v0__dffq_1
*I *2310:CLK I *D gf180mcu_fd_sc_mcu7t5v0__dffq_1
*I *2328:I I *D gf180mcu_fd_sc_mcu7t5v0__clkinv_1
*I *2311:CLK I *D gf180mcu_fd_sc_mcu7t5v0__dffq_1
*I *2278:CLK I *D gf180mcu_fd_sc_mcu7t5v0__dffq_1
*I *2276:CLK I *D gf180mcu_fd_sc_mcu7t5v0__dffq_1
*I *2309:CLK I *D gf180mcu_fd_sc_mcu7t5v0__dffq_1
*I *2254:CLK I *D gf180mcu_fd_sc_mcu7t5v0__dffq_1
*I *2287:CLK I *D gf180mcu_fd_sc_mcu7t5v0__dffq_1
*I *2321:Z O *D gf180mcu_fd_sc_mcu7t5v0__clkbuf_16
*CAP
1 *2277:CLK 0.000569088
2 *2279:CLK 0.000592667
3 *2310:CLK 0
4 *2328:I 4.46762e-05
5 *2311:CLK 0.000522237
6 *2278:CLK 0
7 *2276:CLK 0.000341409
8 *2309:CLK 0.000186815
9 *2254:CLK 3.4463e-05
10 *2287:CLK 0.00014781
11 *2321:Z 0.00628893
12 *295:123 0.00151182
13 *295:119 0.00203701
14 *295:106 0.000898918
15 *295:80 0.00220237
16 *295:57 0.00280488
17 *295:46 0.00199558
18 *295:35 0.00154021
19 *295:31 0.00198458
20 *295:16 0.00763552
21 *2276:CLK *2163:A2 0
22 *2276:CLK *2164:A1 2.33227e-05
23 *2277:CLK *322:16 7.98965e-05
24 *2279:CLK *2150:A1 0.000534129
25 *2279:CLK *2155:A2 0.000233167
26 *2279:CLK *2160:A2 0.000257399
27 *2279:CLK *311:30 4.41465e-05
28 *2279:CLK *332:54 0.00144554
29 *2279:CLK *369:575 0.000148369
30 *2287:CLK *2175:A2 0.000268281
31 *2309:CLK *311:30 0
32 *2311:CLK *2060:C 0.000177419
33 *2311:CLK *2151:A2 8.82675e-05
34 *2311:CLK *358:10 0
35 *295:16 *2115:A2 6.94883e-05
36 *295:16 *302:20 0.000789917
37 *295:16 *307:30 0
38 *295:16 *329:73 0.00026113
39 *295:16 *329:75 0.000202376
40 *295:16 *329:77 0.000284756
41 *295:16 *329:83 7.14998e-05
42 *295:16 *366:21 0.000413455
43 *295:16 *369:107 0.000118695
44 *295:35 *2039:A1 0
45 *295:46 *363:12 0.000682498
46 *295:80 *2060:C 2.44272e-05
47 *295:80 *2164:A1 0.000151597
48 *295:106 *2038:A2 0.000134146
49 *295:106 *2165:A2 0.000152593
50 *295:119 *2038:A2 0.00076053
51 *295:119 *2165:A2 0.000228971
52 *295:119 *369:510 8.94841e-05
53 *295:119 *369:518 0.000626304
54 *2039:A2 *295:106 0
55 *2039:A3 *295:106 0
56 *2121:B1 *295:106 4.55265e-05
57 *2123:A3 *295:31 0
58 *2153:A3 *2311:CLK 0.000280925
59 *2153:A3 *295:80 0
60 *2156:A1 *2279:CLK 8.28597e-05
61 *2156:A1 *295:123 7.30225e-06
62 *2158:A1 *295:123 0.000111525
63 *2163:A1 *2309:CLK 0.000128121
64 *2163:A3 *2276:CLK 0.000139407
65 *2164:A2 *2276:CLK 0.00049216
66 *2245:B *295:16 0.00125909
67 *2247:A2 *295:16 0.00026113
68 *2254:D *2254:CLK 4.4742e-05
69 *2276:D *2276:CLK 7.20762e-05
70 *2276:D *295:80 6.82897e-05
71 *2279:D *2279:CLK 0.000174048
72 *2287:D *2287:CLK 0
73 *2311:D *2311:CLK 2.27632e-05
74 *163:10 *2279:CLK 0.000606221
75 *237:6 *295:106 0.000126377
76 *261:12 *295:16 0.000606256
77 *275:10 *295:80 0.00049216
78 *278:10 *2311:CLK 0.000512969
79 *283:8 *295:31 0.000805354
80 *283:19 *2328:I 8.37099e-06
81 *283:19 *295:31 8.94841e-05
82 *283:19 *295:106 0.000559666
83 *294:18 *295:16 0.000469046
84 *294:31 *295:16 0.000121605
*RES
1 *2321:Z *295:16 40.5515 
2 *295:16 *2287:CLK 9.90476 
3 *295:16 *295:31 9.87373 
4 *295:31 *295:35 6.72626 
5 *295:35 *2254:CLK 9.13708 
6 *295:35 *295:46 4.52929 
7 *295:46 *2309:CLK 10.0583 
8 *295:46 *295:57 2.99394 
9 *295:57 *2276:CLK 11.5936 
10 *295:57 *295:80 12.5441 
11 *295:80 *2278:CLK 4.5 
12 *295:80 *2311:CLK 16.9545 
13 *295:31 *295:106 1.91919 
14 *295:106 *2328:I 4.80707 
15 *295:106 *295:119 8.18484 
16 *295:119 *295:123 8.93607 
17 *295:123 *2310:CLK 4.5 
18 *295:123 *2279:CLK 18.4899 
19 *295:119 *2277:CLK 11.5169 
*END

*D_NET *296 0.0183724
*CONN
*I *2109:A2 I *D gf180mcu_fd_sc_mcu7t5v0__aoi22_1
*I *2237:A2 I *D gf180mcu_fd_sc_mcu7t5v0__aoi21_1
*I *2238:A2 I *D gf180mcu_fd_sc_mcu7t5v0__and3_1
*I *2329:Z O *D gf180mcu_fd_sc_mcu7t5v0__buf_1
*CAP
1 *2109:A2 0.000677447
2 *2237:A2 7.73545e-05
3 *2238:A2 0.000169827
4 *2329:Z 0.00204387
5 *296:16 0.000354432
6 *296:12 0.00282857
7 *2109:A2 *2109:A1 0.0015068
8 *2109:A2 *2237:A1 0.0010289
9 *2237:A2 *2237:A1 0.000325187
10 *2238:A2 *2237:A1 6.82897e-05
11 *296:12 *2165:A2 0.0001573
12 *296:12 *2367:I 0.00133532
13 *296:12 *298:12 0.000848633
14 *296:12 *300:26 0
15 *296:12 *301:18 0.000223709
16 *296:12 *309:18 0.000240812
17 *296:12 *332:26 0
18 *2138:A1 *296:12 0
19 *2141:A2 *296:12 0.00270032
20 *2236:A1 *2109:A2 0.000661458
21 *2237:B *2109:A2 7.62965e-05
22 *2237:B *2238:A2 0.000134226
23 *2237:B *296:12 0.000178043
24 *2237:B *296:16 0.000148369
25 *2239:A2 *296:12 0.000512934
26 *2239:A3 *2109:A2 4.60206e-05
27 *2258:D *2109:A2 0.000112007
28 *2292:CLK *296:12 0
29 *2334:I *296:12 0.00121732
30 *2349:I *296:12 0.000216531
31 *225:18 *2109:A2 0.000441727
32 *257:10 *2237:A2 4.06487e-05
*RES
1 *2329:Z *296:12 22.5879 
2 *296:12 *296:16 4.88384 
3 *296:16 *2238:A2 5.42121 
4 *296:16 *2237:A2 5.09769 
5 *296:12 *2109:A2 15.2785 
*END

*D_NET *297 0.017189
*CONN
*I *2233:A2 I *D gf180mcu_fd_sc_mcu7t5v0__aoi21_1
*I *2234:A2 I *D gf180mcu_fd_sc_mcu7t5v0__and3_1
*I *2106:A2 I *D gf180mcu_fd_sc_mcu7t5v0__aoi22_1
*I *2330:Z O *D gf180mcu_fd_sc_mcu7t5v0__buf_1
*CAP
1 *2233:A2 0
2 *2234:A2 0.000361197
3 *2106:A2 0
4 *2330:Z 0.0013796
5 *297:33 0.00128459
6 *297:16 0.00230299
7 *2234:A2 *2234:A1 9.16247e-06
8 *297:16 *2363:I 0.000437672
9 *297:16 *299:10 0.00237843
10 *297:16 *323:18 0
11 *297:16 *329:14 1.85875e-05
12 *297:33 *2106:B2 0.000163259
13 *297:33 *2107:A2 0.000671128
14 *297:33 *2233:A1 0.00124319
15 *297:33 *2234:A1 0
16 *297:33 *298:12 0
17 *297:33 *339:10 0.000223051
18 *2107:A1 *297:33 0.000558472
19 *2108:A2 *297:16 0.000195171
20 *2141:A2 *297:16 0
21 *2234:A3 *2234:A2 0.000581644
22 *2234:A3 *297:33 8.37099e-06
23 *2235:A2 *2234:A2 6.0313e-05
24 *2235:A2 *297:33 2.27632e-05
25 *2235:A3 *2234:A2 1.16613e-05
26 *2292:D *297:16 4.4742e-05
27 *2292:CLK *297:16 0.00340439
28 *2292:CLK *297:33 0.00011098
29 *2331:I *297:16 0.000346326
30 *2342:I *297:16 0.000253984
31 *2344:I *297:16 0.000156678
32 *2354:I *297:16 0.000214499
33 *2358:I *297:16 0.000326425
34 *222:10 *297:33 0
35 *257:10 *297:33 0.000419711
*RES
1 *2330:Z *297:16 25.2413 
2 *297:16 *2106:A2 4.5 
3 *297:16 *297:33 15.602 
4 *297:33 *2234:A2 7.18687 
5 *297:33 *2233:A2 4.5 
*END

*D_NET *298 0.0144745
*CONN
*I *2103:A2 I *D gf180mcu_fd_sc_mcu7t5v0__aoi22_1
*I *2229:A2 I *D gf180mcu_fd_sc_mcu7t5v0__aoi21_1
*I *2230:A2 I *D gf180mcu_fd_sc_mcu7t5v0__and3_1
*I *2331:Z O *D gf180mcu_fd_sc_mcu7t5v0__buf_1
*CAP
1 *2103:A2 0
2 *2229:A2 0.00018902
3 *2230:A2 8.03731e-06
4 *2331:Z 0.0029368
5 *298:22 0.000586503
6 *298:12 0.00332625
7 *2229:A2 *333:26 0.000233152
8 *2229:A2 *333:32 0.000606242
9 *2229:A2 *333:43 0.000118695
10 *2229:A2 *341:16 7.98965e-05
11 *298:12 *2231:A1 0.000124037
12 *298:12 *2367:I 0.00135235
13 *298:12 *333:10 0
14 *298:12 *333:12 0
15 *298:12 *333:14 0
16 *298:12 *333:16 0
17 *298:12 *333:18 0
18 *298:12 *333:20 0
19 *298:12 *333:26 0
20 *298:12 *339:10 0.000419697
21 *298:12 *339:25 0.000419697
22 *298:22 *2230:A1 7.99511e-05
23 *298:22 *2231:A1 0
24 *2107:A1 *298:12 7.18107e-05
25 *2229:B *2230:A2 4.55265e-05
26 *2229:B *298:22 3.05295e-05
27 *2230:A3 *298:22 0.000134226
28 *2231:A2 *2229:A2 0.000886
29 *2231:A2 *298:12 0
30 *2231:A3 *298:22 0
31 *2237:B *298:12 0.000512958
32 *2260:D *298:22 4.1855e-06
33 *2260:CLK *2229:A2 2.6113e-05
34 *219:10 *298:12 4.4742e-05
35 *219:10 *298:22 0.000645835
36 *225:18 *298:12 0.000369934
37 *257:10 *298:12 0.000274186
38 *290:70 *2229:A2 1.95847e-05
39 *290:74 *2229:A2 7.98965e-05
40 *296:12 *298:12 0.000848633
41 *297:33 *298:12 0
*RES
1 *2331:Z *298:12 28.6232 
2 *298:12 *298:22 2.45656 
3 *298:22 *2230:A2 4.65354 
4 *298:22 *2229:A2 15.4027 
5 *298:12 *2103:A2 4.5 
*END

*D_NET *299 0.0149344
*CONN
*I *2226:A2 I *D gf180mcu_fd_sc_mcu7t5v0__and3_1
*I *2225:A2 I *D gf180mcu_fd_sc_mcu7t5v0__aoi21_1
*I *2100:A2 I *D gf180mcu_fd_sc_mcu7t5v0__aoi22_1
*I *2332:Z O *D gf180mcu_fd_sc_mcu7t5v0__buf_1
*CAP
1 *2226:A2 6.51e-05
2 *2225:A2 0.000355594
3 *2100:A2 0.000223676
4 *2332:Z 0.00353716
5 *299:25 0.000470536
6 *299:10 0.00381068
7 *2100:A2 *2100:A1 4.55265e-05
8 *2100:A2 *2226:A1 2.27632e-05
9 *2100:A2 *341:16 0
10 *2225:A2 *2226:A1 0.000134226
11 *2225:A2 *333:49 3.53164e-05
12 *2225:A2 *333:57 8.35545e-05
13 *2225:A2 *333:61 0.00178558
14 *299:10 *2239:A1 0.000195153
15 *299:10 *323:18 8.37099e-06
16 *299:10 *335:16 0
17 *299:10 *335:22 0
18 *299:10 *340:12 0
19 *299:10 *341:16 0
20 *299:25 *2226:A1 4.4742e-05
21 *2104:A1 *299:10 0.000195847
22 *2225:B *2225:A2 0.000159411
23 *2226:A3 *2225:A2 0.000122811
24 *2226:A3 *299:25 9.29377e-06
25 *2261:CLK *2225:A2 5.7788e-05
26 *2292:CLK *299:10 0.000474781
27 *258:8 *299:10 0.000718107
28 *297:16 *299:10 0.00237843
*RES
1 *2332:Z *299:10 27.7313 
2 *299:10 *2100:A2 9.84444 
3 *299:10 *299:25 4.88384 
4 *299:25 *2225:A2 8.01486 
5 *299:25 *2226:A2 4.80707 
*END

*D_NET *300 0.0289774
*CONN
*I *2221:A2 I *D gf180mcu_fd_sc_mcu7t5v0__aoi21_1
*I *2097:A2 I *D gf180mcu_fd_sc_mcu7t5v0__aoi22_1
*I *2222:A2 I *D gf180mcu_fd_sc_mcu7t5v0__and3_1
*I *2333:Z O *D gf180mcu_fd_sc_mcu7t5v0__buf_1
*CAP
1 *2221:A2 0
2 *2097:A2 0.000809599
3 *2222:A2 0.000248326
4 *2333:Z 0.00626606
5 *300:45 0.000828546
6 *300:28 0.000780837
7 *300:26 0.00677962
8 *2097:A2 *2097:A1 0.000892441
9 *2097:A2 *2221:A1 8.72272e-06
10 *2097:A2 *342:12 0.000326412
11 *2097:A2 *342:18 0
12 *2222:A2 *2220:A2 4.4742e-05
13 *300:26 *2112:A2 0
14 *300:26 *2113:A2 0.000225837
15 *300:26 *2118:A1 0
16 *300:26 *2119:A2 0.000185316
17 *300:26 *2240:A2 0.000364814
18 *300:26 *2242:A1 0.000156349
19 *300:26 *301:18 0
20 *300:26 *313:24 0
21 *300:26 *326:14 0.00201331
22 *300:26 *331:6 0.000150692
23 *300:26 *332:26 0.000876382
24 *300:26 *365:26 4.35216e-05
25 *300:26 *369:31 4.66362e-05
26 *300:26 *369:37 0.00200523
27 *300:26 *369:48 0.000312697
28 *300:28 *342:12 0.000391695
29 *300:45 *2221:A1 2.72585e-05
30 *2118:B1 *300:26 0.000139906
31 *2120:A2 *300:26 0.000411048
32 *2120:A3 *300:26 5.22259e-05
33 *2221:B *2097:A2 2.98728e-05
34 *2221:B *2222:A2 0.000267065
35 *2221:B *300:28 0.000296738
36 *2221:B *300:45 3.98305e-06
37 *2222:A3 *2222:A2 0.000581644
38 *2223:A2 *2097:A2 0.00012593
39 *2223:A3 *2097:A2 0.000437672
40 *2223:A3 *300:45 5.43296e-05
41 *2234:A3 *300:26 0.000886024
42 *2258:CLK *300:26 0
43 *2260:CLK *300:26 0.000143621
44 *2280:CLK *300:26 2.08238e-05
45 *2288:D *300:26 0.000198442
46 *2348:I *300:26 4.18475e-05
47 *2359:I *300:26 0.000133043
48 *222:10 *300:26 0.000512969
49 *260:18 *2097:A2 0.000445108
50 *290:44 *2097:A2 0
51 *290:52 *2097:A2 0.000104232
52 *290:70 *2222:A2 0.000273159
53 *290:70 *300:26 3.26412e-05
54 *290:70 *300:28 0
55 *296:12 *300:26 0
*RES
1 *2333:Z *300:26 49.9353 
2 *300:26 *300:28 2.68687 
3 *300:28 *2222:A2 10.8424 
4 *300:28 *300:45 4.66999 
5 *300:45 *2097:A2 18.3158 
6 *300:45 *2221:A2 4.5 
*END

*D_NET *301 0.0277476
*CONN
*I *2218:A2 I *D gf180mcu_fd_sc_mcu7t5v0__and3_1
*I *2094:A2 I *D gf180mcu_fd_sc_mcu7t5v0__aoi22_1
*I *2217:A2 I *D gf180mcu_fd_sc_mcu7t5v0__aoi21_1
*I *2334:Z O *D gf180mcu_fd_sc_mcu7t5v0__buf_1
*CAP
1 *2218:A2 2.42427e-05
2 *2094:A2 0.000147664
3 *2217:A2 2.38859e-05
4 *2334:Z 0.00439794
5 *301:27 0.000262903
6 *301:18 0.00451283
7 *2094:A2 *2094:A1 0.00049957
8 *2217:A2 *2217:A1 8.72272e-06
9 *2217:A2 *334:187 0.000169381
10 *2218:A2 *334:187 0
11 *301:18 *2057:A1 0.000699489
12 *301:18 *2059:A1 0.000326427
13 *301:18 *2146:A2 0.000419697
14 *301:18 *2244:A2 9.10123e-05
15 *301:18 *305:26 0
16 *301:18 *306:20 0.00536298
17 *301:18 *306:22 0.000326413
18 *301:18 *309:18 0.00644996
19 *301:18 *334:269 0.000257399
20 *301:18 *366:6 0.000591804
21 *301:18 *369:97 0.00048326
22 *301:27 *2218:A1 0.000134226
23 *301:27 *334:187 0.000357934
24 *2059:A3 *301:18 0.000121605
25 *2094:B1 *2094:A2 0.000233152
26 *2096:A3 *2094:A2 7.98965e-05
27 *2117:A2 *301:18 0.000251615
28 *2117:A3 *301:18 0.000115687
29 *2120:A2 *301:18 3.00102e-05
30 *2120:A3 *301:18 7.35048e-05
31 *2148:A3 *301:18 0
32 *2217:B *2217:A2 2.98728e-05
33 *2217:B *301:27 0.000196518
34 *2244:A1 *301:18 3.4984e-05
35 *2263:D *2094:A2 3.91695e-05
36 *2288:D *301:18 0.000613823
37 *2349:I *301:18 0
38 *231:10 *301:18 0
39 *285:16 *301:18 0.000156349
40 *296:12 *301:18 0.000223709
41 *300:26 *301:18 0
*RES
1 *2334:Z *301:18 44.2838 
2 *301:18 *2217:A2 4.79062 
3 *301:18 *301:27 0.844444 
4 *301:27 *2094:A2 14.4815 
5 *301:27 *2218:A2 4.65354 
*END

*D_NET *302 0.0314497
*CONN
*I *2213:A2 I *D gf180mcu_fd_sc_mcu7t5v0__aoi21_1
*I *2091:A2 I *D gf180mcu_fd_sc_mcu7t5v0__aoi22_1
*I *2214:A2 I *D gf180mcu_fd_sc_mcu7t5v0__and3_1
*I *2335:Z O *D gf180mcu_fd_sc_mcu7t5v0__buf_1
*CAP
1 *2213:A2 2.9843e-05
2 *2091:A2 0.000133574
3 *2214:A2 0.000273805
4 *2335:Z 0.00199104
5 *302:34 0.001691
6 *302:20 0.00669414
7 *302:18 0.00737171
8 *2091:A2 *2091:A1 0.000348348
9 *2213:A2 *2213:A1 3.4984e-05
10 *2214:A2 *2214:A1 0.000400155
11 *2214:A2 *334:125 5.21162e-05
12 *302:18 *321:24 0.000159049
13 *302:18 *331:6 0.000213757
14 *302:18 *331:23 0.000198243
15 *302:18 *331:27 0.00161839
16 *302:20 *2246:A2 0.000979237
17 *302:20 *329:52 0.00044392
18 *302:20 *329:54 0.000300299
19 *302:20 *329:60 7.18107e-05
20 *302:34 *2213:A1 0.000444738
21 *302:34 *334:125 0.000382155
22 *2091:B1 *2091:A2 0.000182106
23 *2091:B1 *2214:A2 0.000250396
24 *2092:A1 *2214:A2 7.14998e-05
25 *2213:B *2213:A2 7.30225e-06
26 *2223:A3 *302:20 0.0004197
27 *2247:A2 *302:20 0.000277953
28 *2262:D *302:20 8.70433e-05
29 *2263:CLK *302:34 6.22881e-05
30 *2297:CLK *2091:A2 0.000181497
31 *2297:CLK *302:34 4.1855e-06
32 *2327:I *302:18 2.09275e-05
33 *2348:I *302:18 0.000911008
34 *2355:I *302:18 0.000739011
35 *262:12 *2214:A2 5.71999e-05
36 *262:12 *302:34 0.000328874
37 *287:13 *2214:A2 2.96738e-05
38 *290:37 *2213:A2 0.000169381
39 *290:37 *302:34 0.00167821
40 *294:12 *302:20 0
41 *294:18 *302:20 0.000587542
42 *294:31 *302:20 0.000761629
43 *295:16 *302:20 0.000789917
*RES
1 *2335:Z *302:18 22.204 
2 *302:18 *302:20 28.6343 
3 *302:20 *302:34 16.6 
4 *302:34 *2214:A2 10.8424 
5 *302:34 *2091:A2 10.2118 
6 *302:20 *2213:A2 9.29062 
*END

*D_NET *303 0.0317682
*CONN
*I *2088:A2 I *D gf180mcu_fd_sc_mcu7t5v0__aoi22_1
*I *2209:A2 I *D gf180mcu_fd_sc_mcu7t5v0__aoi21_1
*I *2210:A2 I *D gf180mcu_fd_sc_mcu7t5v0__and3_1
*I *2336:Z O *D gf180mcu_fd_sc_mcu7t5v0__buf_1
*CAP
1 *2088:A2 6.01531e-05
2 *2209:A2 0.000241956
3 *2210:A2 0.00030573
4 *2336:Z 0.0051145
5 *303:20 0.000731827
6 *303:18 0.0053588
7 *2088:A2 *2088:A1 4.4742e-05
8 *2209:A2 *2209:A1 5.77608e-05
9 *2210:A2 *334:95 0.000440188
10 *303:18 *2048:A2 0.00022371
11 *303:18 *2130:B2 9.16247e-06
12 *303:18 *2132:A1 0
13 *303:18 *2145:A1 0.000143621
14 *303:18 *2241:A1 5.82858e-05
15 *303:18 *2241:A2 0.000141528
16 *303:18 *2242:A2 3.11342e-05
17 *303:18 *308:26 0.00616931
18 *303:18 *313:24 0
19 *303:18 *334:87 0.000979237
20 *303:18 *334:173 0.000783389
21 *303:18 *337:31 0.000295922
22 *303:18 *369:37 6.9968e-05
23 *303:18 *369:67 0.000278797
24 *303:20 *334:87 4.35216e-05
25 *303:20 *334:89 0.000348173
26 *303:20 *334:95 0.000152326
27 *2088:B1 *2088:A2 2.20732e-05
28 *2090:A2 *2210:A2 0.000208465
29 *2132:A2 *303:18 0
30 *2132:A3 *303:18 1.52683e-05
31 *2138:A1 *303:18 0.00022371
32 *2149:A2 *303:18 0.000381482
33 *2211:A2 *2209:A2 4.55265e-05
34 *2243:A2 *303:18 4.31461e-05
35 *2243:A3 *303:18 0.000611895
36 *2257:D *303:18 0
37 *2284:D *303:18 0.000128275
38 *204:10 *2209:A2 0.000101429
39 *204:10 *2210:A2 0.000359759
40 *292:12 *2210:A2 6.52824e-05
41 *292:12 *303:18 0.00583639
42 *292:12 *303:20 0.00052226
43 *292:23 *303:18 0.000179906
44 *294:12 *303:18 0.000482573
45 *294:18 *303:18 0.000457006
*RES
1 *2336:Z *303:18 48.4585 
2 *303:18 *303:20 1.91919 
3 *303:20 *2210:A2 11.1495 
4 *303:20 *2209:A2 9.90476 
5 *303:18 *2088:A2 9.29885 
*END

*D_NET *304 0.0314035
*CONN
*I *2205:A2 I *D gf180mcu_fd_sc_mcu7t5v0__aoi21_1
*I *2206:A2 I *D gf180mcu_fd_sc_mcu7t5v0__and3_1
*I *2085:A2 I *D gf180mcu_fd_sc_mcu7t5v0__aoi22_1
*I *2337:Z O *D gf180mcu_fd_sc_mcu7t5v0__buf_1
*CAP
1 *2205:A2 0.000117163
2 *2206:A2 2.42427e-05
3 *2085:A2 0.000255205
4 *2337:Z 0.00334327
5 *304:35 0.000188028
6 *304:20 0.00354026
7 *304:18 0.00658171
8 *2085:A2 *2085:A1 7.5506e-05
9 *2085:A2 *2207:A1 0.000499536
10 *2205:A2 *2085:A1 2.76411e-05
11 *2205:A2 *2205:A1 8.72272e-06
12 *2205:A2 *334:63 0.000331693
13 *2206:A2 *334:59 0
14 *304:18 *2049:A2 0.00036029
15 *304:18 *2059:A1 0
16 *304:18 *2079:B2 0.000894759
17 *304:18 *2130:A1 0.000715707
18 *304:18 *308:26 0.000891309
19 *304:18 *320:28 0.000536902
20 *304:18 *328:8 0.000381045
21 *304:18 *328:18 2.78813e-05
22 *304:18 *329:14 0.000591347
23 *304:18 *329:18 0.000102232
24 *304:18 *329:24 0
25 *304:18 *329:26 0
26 *304:18 *334:10 0.0027291
27 *304:18 *337:14 0.00141281
28 *304:18 *349:6 0.00049216
29 *304:18 *369:316 4.57943e-05
30 *304:18 *369:329 0.00179918
31 *304:18 *369:350 0.000324067
32 *304:20 *2207:A1 0.000830868
33 *304:20 *328:45 0.000504402
34 *304:20 *328:199 0.000783389
35 *304:20 *334:25 0
36 *304:35 *2085:A1 0.000113776
37 *2049:B *304:18 0.000527315
38 *2051:A2 *304:18 0
39 *2051:A3 *304:18 0.000326566
40 *2087:A2 *2085:A2 8.70433e-05
41 *2199:A2 *304:20 0
42 *2205:B *2205:A2 1.86852e-05
43 *2206:A3 *2205:A2 4.4742e-05
44 *2206:A3 *304:35 0.00022363
45 *2207:A2 *2205:A2 0.000217064
46 *2207:A3 *2085:A2 0.000504455
47 *2207:A3 *304:20 0.000207717
48 *2240:A1 *304:18 3.05295e-05
49 *2266:D *2085:A2 0.000204869
50 *2269:D *304:20 0
51 *2337:I *304:18 7.63238e-05
52 *228:10 *304:18 0.0001542
53 *286:10 *304:18 0.000250355
*RES
1 *2337:Z *304:18 43.6404 
2 *304:18 *304:20 13.8949 
3 *304:20 *2085:A2 11.0686 
4 *304:20 *304:35 4.88384 
5 *304:35 *2206:A2 4.65354 
6 *304:35 *2205:A2 5.71183 
*END

*D_NET *305 0.0307953
*CONN
*I *2082:A2 I *D gf180mcu_fd_sc_mcu7t5v0__aoi22_1
*I *2201:A2 I *D gf180mcu_fd_sc_mcu7t5v0__aoi21_1
*I *2202:A2 I *D gf180mcu_fd_sc_mcu7t5v0__and3_1
*I *2338:Z O *D gf180mcu_fd_sc_mcu7t5v0__buf_1
*CAP
1 *2082:A2 0
2 *2201:A2 0.000311147
3 *2202:A2 0.000106782
4 *2338:Z 0.00498878
5 *305:36 0.000584547
6 *305:34 0.000574247
7 *305:26 0.00539641
8 *2201:A2 *328:173 0.000398676
9 *2201:A2 *334:33 0.000186521
10 *2201:A2 *334:37 0.00079274
11 *2202:A2 *2202:A1 0.000113776
12 *305:26 *2057:A1 0.000297545
13 *305:26 *2057:A2 4.06487e-05
14 *305:26 *2058:A1 4.1855e-06
15 *305:26 *2059:A1 3.26412e-05
16 *305:26 *2080:A2 5.02185e-05
17 *305:26 *2112:A1 3.4984e-05
18 *305:26 *2141:A1 0.000411291
19 *305:26 *2146:A2 0
20 *305:26 *2240:A2 0.000250355
21 *305:26 *2367:I 3.4984e-05
22 *305:26 *313:24 0.00532404
23 *305:26 *329:14 0.00052476
24 *305:26 *329:18 0.000116613
25 *305:26 *329:24 0.000894839
26 *305:26 *329:26 0.00219227
27 *305:26 *333:10 0.000581644
28 *305:34 *2082:A1 2.27632e-05
29 *305:34 *334:33 0.000573279
30 *305:36 *2082:A1 0.000182106
31 *305:36 *2202:A1 4.55265e-05
32 *2056:A1 *305:26 0
33 *2057:B *305:26 1.19937e-05
34 *2058:A3 *305:26 0.000239178
35 *2059:A2 *305:26 0.000110257
36 *2059:A3 *305:26 0.000177439
37 *2080:A1 *305:26 0
38 *2141:A2 *305:26 0
39 *2147:A1 *305:26 0.000104952
40 *2148:A3 *305:26 0.000138687
41 *2196:A1 *305:26 0.000117763
42 *2201:B *2201:A2 0.000504455
43 *2201:B *2202:A2 4.4742e-05
44 *2203:A3 *2201:A2 0.000173721
45 *2248:D *305:26 0.000138687
46 *2249:D *305:26 0
47 *2269:CLK *305:26 6.03495e-05
48 *2301:D *305:26 8.37099e-06
49 *2302:CLK *305:26 0.000910489
50 *2331:I *305:26 0.00155395
51 *2358:I *305:26 0.000134226
52 *195:10 *305:26 0.0001542
53 *252:6 *305:26 0.000111407
54 *289:71 *305:26 0.00103212
55 *301:18 *305:26 0
*RES
1 *2338:Z *305:26 46.4333 
2 *305:26 *305:34 11.6869 
3 *305:34 *305:36 0.767676 
4 *305:36 *2202:A2 5.03737 
5 *305:36 *2201:A2 16.0169 
6 *305:34 *2082:A2 4.5 
*END

*D_NET *306 0.0284614
*CONN
*I *2057:A2 I *D gf180mcu_fd_sc_mcu7t5v0__aoi21_1
*I *2058:A2 I *D gf180mcu_fd_sc_mcu7t5v0__and3_1
*I *2146:A2 I *D gf180mcu_fd_sc_mcu7t5v0__aoi22_1
*I *2339:Z O *D gf180mcu_fd_sc_mcu7t5v0__buf_1
*CAP
1 *2057:A2 1.54716e-05
2 *2058:A2 0.000179666
3 *2146:A2 0.000411536
4 *2339:Z 0.00395672
5 *306:22 0.000640936
6 *306:20 0.00402193
7 *2058:A2 *2057:A1 0.000402597
8 *2058:A2 *2058:A1 4.4742e-05
9 *2146:A2 *2056:A2 5.63676e-05
10 *2146:A2 *334:269 6.69679e-05
11 *2146:A2 *348:6 5.31073e-06
12 *306:20 *2032:A2 0.000134226
13 *306:20 *2033:A2 0.000527235
14 *306:20 *2034:A1 8.94841e-05
15 *306:20 *2034:A2 0.000156989
16 *306:20 *2175:A2 0
17 *306:20 *307:30 0.00237338
18 *306:20 *310:18 0.00191899
19 *306:20 *321:24 8.55555e-05
20 *306:20 *365:20 0.00272917
21 *306:20 *369:16 0.000476183
22 *2032:A1 *306:20 0.000536902
23 *2033:B *306:20 4.57943e-05
24 *2035:A2 *306:20 4.54858e-05
25 *2056:A1 *2146:A2 0.000661541
26 *2057:B *306:20 0.000466308
27 *2057:B *306:22 0.000233155
28 *2058:A3 *2057:A2 7.98965e-05
29 *2058:A3 *2058:A2 0.000265888
30 *2058:A3 *2146:A2 4.1855e-06
31 *2059:A2 *306:20 0.000415434
32 *2142:A1 *306:20 0
33 *2148:A2 *2146:A2 0.000222755
34 *2280:D *306:20 0.000198415
35 *2343:I *306:20 0.000300067
36 *234:14 *306:20 1.52648e-05
37 *252:6 *2146:A2 9.80825e-05
38 *285:10 *306:20 0.000285999
39 *285:16 *306:20 0.000143
40 *301:18 *2146:A2 0.000419697
41 *301:18 *306:20 0.00536298
42 *301:18 *306:22 0.000326413
43 *305:26 *2057:A2 4.06487e-05
44 *305:26 *2146:A2 0
*RES
1 *2339:Z *306:20 39.4767 
2 *306:20 *306:22 0.537373 
3 *306:22 *2146:A2 11.9775 
4 *306:22 *2058:A2 10.305 
5 *306:20 *2057:A2 9.13708 
*END

*D_NET *307 0.0338547
*CONN
*I *2079:A2 I *D gf180mcu_fd_sc_mcu7t5v0__aoi22_1
*I *2198:A2 I *D gf180mcu_fd_sc_mcu7t5v0__and3_1
*I *2197:A2 I *D gf180mcu_fd_sc_mcu7t5v0__aoi21_1
*I *2340:Z O *D gf180mcu_fd_sc_mcu7t5v0__buf_1
*CAP
1 *2079:A2 0
2 *2198:A2 9.30952e-05
3 *2197:A2 0.000110185
4 *2340:Z 0.00373601
5 *307:48 0.00174369
6 *307:36 0.00269706
7 *307:30 0.00489266
8 *2197:A2 *328:152 0.000159302
9 *2197:A2 *328:161 8.61751e-05
10 *2197:A2 *334:51 0.000118847
11 *2198:A2 *328:152 9.1053e-05
12 *307:30 *2033:A1 0.000182106
13 *307:30 *2033:A2 0.000527235
14 *307:30 *2034:A1 8.94841e-05
15 *307:30 *2046:A2 1.25565e-05
16 *307:30 *321:24 0.00196402
17 *307:30 *322:16 0.000341449
18 *307:30 *331:36 7.63238e-05
19 *307:30 *331:53 0.000656385
20 *307:30 *365:20 0.000760532
21 *307:30 *369:16 0.00098432
22 *307:30 *369:291 0.000138121
23 *307:36 *2073:A2 0.00153887
24 *307:36 *2190:A2 0.000699505
25 *307:36 *313:24 0.00172544
26 *307:36 *334:10 4.4307e-05
27 *307:36 *369:291 0.000282891
28 *307:36 *369:297 0.000178043
29 *307:36 *369:299 0.000207717
30 *307:36 *369:303 0.00121663
31 *307:36 *369:316 4.23449e-05
32 *307:48 *2196:A2 0.000445108
33 *307:48 *328:32 0.000102232
34 *307:48 *334:10 0.000410958
35 *307:48 *334:51 0.000326413
36 *307:48 *349:10 0.00120392
37 *307:48 *369:316 0.000181364
38 *2074:A1 *307:30 0.000619996
39 *2079:B1 *307:48 1.02166e-05
40 *2197:B *2197:A2 8.36352e-06
41 *2197:B *2198:A2 2.092e-05
42 *2198:A3 *307:48 0.000130565
43 *2199:A3 *307:48 0.000326413
44 *2252:D *307:30 0.000536902
45 *2252:CLK *307:30 0
46 *2269:D *307:48 0.0001573
47 *2280:D *307:30 0.000581565
48 *195:10 *307:48 0.00102276
49 *269:8 *307:36 0
50 *295:16 *307:30 0
51 *306:20 *307:30 0.00237338
*RES
1 *2340:Z *307:30 44.2545 
2 *307:30 *307:36 12.8636 
3 *307:36 *307:48 18.9071 
4 *307:48 *2197:A2 5.25123 
5 *307:48 *2198:A2 5.03737 
6 *307:36 *2079:A2 4.5 
*END

*D_NET *308 0.0310557
*CONN
*I *2193:A2 I *D gf180mcu_fd_sc_mcu7t5v0__aoi21_1
*I *2194:A2 I *D gf180mcu_fd_sc_mcu7t5v0__and3_1
*I *2076:A2 I *D gf180mcu_fd_sc_mcu7t5v0__aoi22_1
*I *2341:Z O *D gf180mcu_fd_sc_mcu7t5v0__buf_1
*CAP
1 *2193:A2 2.85128e-05
2 *2194:A2 0.000178148
3 *2076:A2 0.000303114
4 *2341:Z 0.00461658
5 *308:28 0.000505478
6 *308:26 0.00466931
7 *2076:A2 *2076:A1 0.00064183
8 *2076:A2 *2078:A1 0.000146413
9 *2076:A2 *334:29 0
10 *2193:A2 *2193:A1 4.06487e-05
11 *2194:A2 *2076:A1 0
12 *2194:A2 *2193:A1 2.33227e-05
13 *308:26 *2078:A1 0.000293274
14 *308:26 *2079:B2 0.000244867
15 *308:26 *2137:A1 0.00144895
16 *308:26 *2137:A2 6.82897e-05
17 *308:26 *2193:A1 0.000258785
18 *308:26 *2242:A1 0.000447339
19 *308:26 *2242:A2 9.88193e-05
20 *308:26 *320:28 0
21 *308:26 *321:24 0.00163207
22 *308:26 *323:18 0.000356086
23 *308:26 *329:14 0
24 *308:26 *334:10 0.000383325
25 *308:26 *337:14 0.00137289
26 *308:26 *349:6 0.000128275
27 *308:26 *369:67 0.00109997
28 p *308:26 0.000183177
29 *2049:B *308:26 0.000184082
30 *2078:A2 *2076:A2 0
31 *2193:B *308:26 3.51545e-05
32 *2195:A2 *2193:A2 4.55265e-05
33 *2195:A2 *2194:A2 0.000581642
34 *2195:A2 *308:26 2.59026e-05
35 *2195:A2 *308:28 2.59026e-05
36 *2195:A3 *2194:A2 6.82897e-05
37 *2337:I *308:26 5.8582e-05
38 *2344:I *308:26 0.00153884
39 *2354:I *308:26 0.000579796
40 *2358:I *308:26 0.000227632
41 *192:8 *2076:A2 4.5592e-05
42 *192:8 *308:26 0.000111218
43 *292:12 *308:26 0.00105195
44 *292:23 *308:26 0.000245518
45 *303:18 *308:26 0.00616931
46 *304:18 *308:26 0.000891309
*RES
1 *2341:Z *308:26 48.8213 
2 *308:26 *308:28 0.383838 
3 *308:28 *2076:A2 6.5645 
4 *308:28 *2194:A2 6.35065 
5 *308:26 *2193:A2 4.96883 
*END

*D_NET *309 0.0291845
*CONN
*I *2189:A2 I *D gf180mcu_fd_sc_mcu7t5v0__aoi21_1
*I *2073:A2 I *D gf180mcu_fd_sc_mcu7t5v0__aoi22_1
*I *2190:A2 I *D gf180mcu_fd_sc_mcu7t5v0__and3_1
*I *2342:Z O *D gf180mcu_fd_sc_mcu7t5v0__buf_1
*CAP
1 *2189:A2 0
2 *2073:A2 0.000207944
3 *2190:A2 8.3668e-05
4 *2342:Z 0.00332969
5 *309:22 0.000328227
6 *309:18 0.00336631
7 *2073:A2 *369:291 4.30876e-05
8 *2073:A2 *369:295 0.00107255
9 *2073:A2 *369:297 0.000279791
10 *2190:A2 *369:297 0.000699508
11 *309:18 *2189:A1 1.52648e-05
12 *309:18 *320:20 0.0036959
13 *309:18 *325:14 0.00219172
14 *309:18 *329:14 0.00049216
15 *309:22 *2189:A1 3.38005e-05
16 *2075:A2 *2073:A2 8.46903e-05
17 *2131:A1 *309:18 0.00032483
18 *2132:A3 *309:18 1.75918e-05
19 *2140:A3 *309:18 0.00060623
20 *2141:A2 *309:18 0.00130565
21 *2190:A3 *309:22 4.1855e-06
22 *2334:I *309:18 0.000134226
23 *2337:I *309:18 0.00049216
24 *255:8 *309:18 0.000143
25 *280:10 *309:18 0.000167885
26 *294:43 *309:18 0.000417288
27 *294:52 *309:18 0.000678835
28 *294:65 *309:18 3.91695e-05
29 *296:12 *309:18 0.000240812
30 *301:18 *309:18 0.00644996
31 *307:36 *2073:A2 0.00153887
32 *307:36 *2190:A2 0.000699505
*RES
1 *2342:Z *309:18 41.1199 
2 *309:18 *309:22 4.66999 
3 *309:22 *2190:A2 10.305 
4 *309:22 *2073:A2 11.6786 
5 *309:18 *2189:A2 4.5 
*END

*D_NET *310 0.0211611
*CONN
*I *2070:A2 I *D gf180mcu_fd_sc_mcu7t5v0__aoi22_1
*I *2186:A2 I *D gf180mcu_fd_sc_mcu7t5v0__and3_1
*I *2185:A2 I *D gf180mcu_fd_sc_mcu7t5v0__aoi21_1
*I *2343:Z O *D gf180mcu_fd_sc_mcu7t5v0__buf_1
*CAP
1 *2070:A2 0.00083263
2 *2186:A2 7.35558e-05
3 *2185:A2 0.000101579
4 *2343:Z 0.00303326
5 *310:29 0.000989377
6 *310:18 0.00321803
7 *2070:A2 *2070:B2 7.10073e-05
8 *2070:A2 *331:87 0.000277953
9 *2070:A2 *369:234 0
10 *2185:A2 *2185:A1 0.000216822
11 *2186:A2 *2185:A1 0.000113776
12 *310:18 *2045:A1 0.000177419
13 *310:18 *2045:A2 5.00681e-05
14 *310:18 *2066:I 0.000386935
15 *310:18 *2175:A1 0
16 *310:18 *2175:A2 0.000489932
17 *310:18 *331:72 0.00154753
18 *310:18 *331:87 0.000121605
19 *310:18 *361:10 6.82491e-05
20 *310:18 *365:20 0.000620528
21 *310:18 *369:10 0.000139011
22 *310:29 *331:87 0.000138977
23 *2032:A1 *310:18 0.000204869
24 *2033:B *310:18 0.000468662
25 *2035:A2 *310:18 4.66765e-05
26 *2035:A3 *310:18 3.66772e-05
27 *2047:A2 *310:18 1.78876e-05
28 *2047:A3 *310:18 4.66453e-05
29 *2072:A2 *2070:A2 0.000455101
30 *2136:A1 *310:18 6.9968e-05
31 *2186:A3 *2186:A2 0.000135715
32 *2187:A3 *2070:A2 0.000419673
33 *2187:A3 *310:18 0.000838483
34 *2187:A3 *310:29 0.000419673
35 *2255:CLK *310:18 0.000103582
36 *2285:CLK *310:18 0.00161302
37 *2312:CLK *310:18 2.58898e-05
38 *179:12 *2185:A2 0.000222714
39 *179:12 *310:18 0
40 *186:14 *2070:A2 8.57998e-05
41 *234:14 *310:18 0.000849937
42 *270:12 *2070:A2 0.000512949
43 *306:20 *310:18 0.00191899
*RES
1 *2343:Z *310:18 34.1798 
2 *310:18 *2185:A2 9.75123 
3 *310:18 *310:29 0.690908 
4 *310:29 *2186:A2 9.53737 
5 *310:29 *2070:A2 13.6828 
*END

*D_NET *311 0.0427789
*CONN
*I *2181:A2 I *D gf180mcu_fd_sc_mcu7t5v0__aoi21_1
*I *2182:A2 I *D gf180mcu_fd_sc_mcu7t5v0__and3_1
*I *2067:A2 I *D gf180mcu_fd_sc_mcu7t5v0__aoi22_1
*I *2344:Z O *D gf180mcu_fd_sc_mcu7t5v0__buf_1
*CAP
1 *2181:A2 0
2 *2182:A2 4.24247e-05
3 *2067:A2 0.000159975
4 *2344:Z 0.00289213
5 *311:32 0.000355922
6 *311:30 0.00413546
7 *311:12 0.00687407
8 *2067:A2 *2067:A1 0.000581644
9 *2067:A2 *369:439 8.94841e-05
10 *311:12 *2137:A2 0.000761629
11 *311:12 *2150:A2 0.0064823
12 *311:12 *2366:I 0.000512946
13 *311:12 *323:18 0.000955464
14 *311:12 *335:10 0.00116581
15 *311:12 *335:12 0.000296738
16 *311:12 *335:14 0.000623151
17 *311:30 *2124:A2 0.000114094
18 *311:30 *2125:A2 0.000447339
19 *311:30 *2150:A1 0
20 *311:30 *2150:A2 0
21 *311:30 *2160:A1 5.9347e-05
22 *311:30 *2160:A2 0.00370641
23 *311:30 *330:67 0.00033007
24 *311:30 *363:12 0
25 *311:30 *369:226 0.000468952
26 *311:30 *369:439 3.51545e-05
27 *311:32 *369:439 0.00121754
28 *2041:B *311:30 0.000299614
29 *2043:A3 *311:30 6.82897e-05
30 *2062:A2 *311:30 0
31 *2067:B1 *2067:A2 2.33227e-05
32 *2124:B1 *311:30 0.000159343
33 *2126:A2 *311:30 0
34 *2181:B *2067:A2 1.85875e-05
35 *2181:B *311:32 0.000110586
36 *2182:A3 *2067:A2 4.57943e-05
37 *2272:CLK *2182:A2 0
38 *2272:CLK *311:30 0.000527315
39 *2272:CLK *311:32 0.00064619
40 *2279:D *311:30 0.000134226
41 *2279:CLK *311:30 4.41465e-05
42 *2286:D *311:30 1.25565e-05
43 *2309:CLK *311:30 0
44 *2329:I *311:12 0.000326427
45 *2335:I *311:12 0.000801194
46 *2338:I *311:12 0.00175076
47 *2341:I *311:12 0.000167858
48 *2345:I *311:12 0
49 *2350:I *311:12 0.000250314
50 *2352:I *311:12 0.000207717
51 *2356:I *311:12 0.000130565
52 *2360:I *311:12 0.00175076
53 *159:12 *311:12 0.00011098
54 *183:12 *2067:A2 3.3484e-05
55 *240:10 *311:30 0.00141905
56 *282:16 *311:30 0
57 *293:53 *2067:A2 0
58 *293:96 *311:30 0.00143174
59 *293:107 *311:30 0
*RES
1 *2344:Z *311:12 38.9868 
2 *311:12 *311:30 33.8563 
3 *311:30 *311:32 2.16594 
4 *311:32 *2067:A2 6.03535 
5 *311:32 *2182:A2 4.80707 
6 *311:30 *2181:A2 4.5 
*END

*D_NET *312 0.0146282
*CONN
*I *2175:A2 I *D gf180mcu_fd_sc_mcu7t5v0__nand2_1
*I *2345:Z O *D gf180mcu_fd_sc_mcu7t5v0__buf_1
*CAP
1 *2175:A2 0.00338839
2 *2345:Z 0.00338839
3 *2175:A2 *2044:A2 0.000313193
4 *2175:A2 *2045:A1 0.000706283
5 *2175:A2 *2045:A2 1.41602e-05
6 *2175:A2 *2175:A1 1.52648e-05
7 *2175:A2 *323:18 0.000184147
8 *2175:A2 *324:12 0
9 *2175:A2 *330:12 0.00027263
10 *2175:A2 *330:27 0.000158468
11 *2175:A2 *369:6 0.000113776
12 *2175:A2 *369:10 0.000933252
13 *2175:A2 *369:236 0.000152648
14 *2175:A2 *369:273 0.000427413
15 *2035:A2 *2175:A2 0.000252771
16 *2035:A3 *2175:A2 2.62122e-05
17 *2044:A1 *2175:A2 8.94841e-05
18 *2046:A3 *2175:A2 9.90717e-05
19 *2047:A2 *2175:A2 3.49172e-05
20 *2129:A2 *2175:A2 0
21 *2129:A3 *2175:A2 6.87617e-06
22 *2136:A1 *2175:A2 0.000128275
23 *2142:A1 *2175:A2 9.05243e-05
24 *2142:A2 *2175:A2 1.85875e-05
25 *2187:A2 *2175:A2 0
26 *2255:D *2175:A2 0.000396502
27 *2255:CLK *2175:A2 0.000118847
28 *2285:D *2175:A2 3.16154e-05
29 *2285:CLK *2175:A2 0.00161735
30 *2287:D *2175:A2 0
31 *2287:CLK *2175:A2 0.000268281
32 *2312:D *2175:A2 0.000291512
33 *2312:CLK *2175:A2 3.05295e-05
34 *234:14 *2175:A2 0
35 *243:10 *2175:A2 0.000568871
36 *306:20 *2175:A2 0
37 *310:18 *2175:A2 0.000489932
*RES
1 *2345:Z *2175:A2 33.8727 
*END

*D_NET *313 0.0242722
*CONN
*I *2170:A2 I *D gf180mcu_fd_sc_mcu7t5v0__nand2_1
*I *2346:Z O *D gf180mcu_fd_sc_mcu7t5v0__buf_1
*CAP
1 *2170:A2 0.000109321
2 *2346:Z 0.00438518
3 *313:24 0.0044945
4 *313:24 *2059:A1 0.000371087
5 *313:24 *2079:B2 0.000886054
6 *313:24 *2081:A1 0.000313113
7 *313:24 *2112:A1 0.00035603
8 *313:24 *2112:A2 0.000532029
9 *313:24 *2141:A1 0.000100437
10 *313:24 *2367:I 3.4984e-05
11 *313:24 *328:8 0.000430833
12 *313:24 *328:18 3.26164e-05
13 *313:24 *328:20 0.000326517
14 *313:24 *328:32 0.000136303
15 *313:24 *328:118 0.000174087
16 *313:24 *329:26 3.61773e-05
17 *313:24 *333:10 0.000178043
18 *313:24 *333:12 0.000267065
19 *313:24 *367:8 0.000402598
20 *313:24 *369:303 4.35216e-05
21 *2051:A2 *313:24 0.000198243
22 *2051:A3 *313:24 3.73968e-05
23 *2059:A2 *313:24 7.63238e-05
24 *2080:A1 *313:24 0.000106318
25 *2081:A2 *313:24 0.000699463
26 *2114:A2 *313:24 6.1059e-05
27 *2141:A2 *313:24 0.000671128
28 *2248:D *313:24 1.04119e-05
29 *2249:D *313:24 0.000213757
30 *2290:D *313:24 0.000111509
31 *2292:CLK *313:24 0.00016076
32 *2341:I *313:24 0.000581486
33 *2350:I *313:24 4.1855e-05
34 *175:16 *2170:A2 3.05295e-05
35 *291:69 *313:24 9.27718e-06
36 *291:90 *313:24 0.000394232
37 *292:12 *313:24 0.000208465
38 *300:26 *313:24 0
39 *303:18 *313:24 0
40 *305:26 *313:24 0.00532404
41 *307:36 *313:24 0.00172544
*RES
1 *2346:Z *313:24 48.6303 
2 *313:24 *2170:A2 9.46061 
*END

*D_NET *314 0.0134933
*CONN
*I *2165:A2 I *D gf180mcu_fd_sc_mcu7t5v0__nand2_1
*I *2347:Z O *D gf180mcu_fd_sc_mcu7t5v0__buf_1
*CAP
1 *2165:A2 0.00456606
2 *2347:Z 0.00456606
3 *2165:A2 *2120:A1 0.00033007
4 *2165:A2 *2122:A2 0.000139085
5 *2165:A2 *2136:A2 0
6 *2165:A2 *2160:A2 0
7 *2165:A2 *2165:A1 2.71648e-05
8 *2165:A2 *322:16 0
9 *2165:A2 *364:10 0.00034572
10 *2165:A2 *369:170 0.000209883
11 *2165:A2 *369:174 0.000372747
12 *2165:A2 *369:510 2.27632e-05
13 *2165:A2 *369:518 0.000318645
14 *2120:A3 *2165:A2 0.0001144
15 *2121:B1 *2165:A2 4.4742e-05
16 *2123:A3 *2165:A2 8.46903e-05
17 *283:8 *2165:A2 0.00116329
18 *283:19 *2165:A2 0.00064915
19 *295:106 *2165:A2 0.000152593
20 *295:119 *2165:A2 0.000228971
21 *296:12 *2165:A2 0.0001573
*RES
1 *2347:Z *2165:A2 41.6444 
*END

*D_NET *315 0.0178817
*CONN
*I *2160:A2 I *D gf180mcu_fd_sc_mcu7t5v0__nand2_1
*I *2348:Z O *D gf180mcu_fd_sc_mcu7t5v0__buf_1
*CAP
1 *2160:A2 0.00262924
2 *2348:Z 0.00262924
3 *2160:A2 *2136:A2 0.00237827
4 *2160:A2 *2158:A2 0
5 *2160:A2 *2160:A1 2.71648e-05
6 *2160:A2 *332:26 0.000277953
7 *2160:A2 *332:39 5.21162e-05
8 *2160:A2 *332:54 0.000938092
9 *2160:A2 *369:560 0.000565781
10 *2136:A1 *2160:A2 0.00116583
11 *2159:A2 *2160:A2 0
12 *2165:A2 *2160:A2 0
13 *2277:D *2160:A2 0.00012975
14 *2279:D *2160:A2 0
15 *2279:CLK *2160:A2 0.000257399
16 *276:8 *2160:A2 0.00116585
17 *276:12 *2160:A2 0.000886024
18 *279:10 *2160:A2 0.0010726
19 *311:30 *2160:A2 0.00370641
*RES
1 *2348:Z *2160:A2 38.804 
*END

*D_NET *316 0.0145401
*CONN
*I *2155:A2 I *D gf180mcu_fd_sc_mcu7t5v0__nand2_1
*I *2349:Z O *D gf180mcu_fd_sc_mcu7t5v0__buf_1
*CAP
1 *2155:A2 0.00122323
2 *2349:Z 0.00122323
3 *2155:A2 *2155:A1 9.26789e-06
4 *2155:A2 *319:14 0
5 *2155:A2 *332:26 0.00265793
6 *2155:A2 *332:39 0.00265793
7 *2155:A2 *332:54 0.000729129
8 *2155:A2 *369:575 0.00231481
9 *2134:B *2155:A2 5.93477e-05
10 *2142:A2 *2155:A2 0
11 *2156:A1 *2155:A2 2.79039e-05
12 *2279:CLK *2155:A2 0.000233167
13 *2312:CLK *2155:A2 0.00242485
14 *294:65 *2155:A2 0.000979311
*RES
1 *2349:Z *2155:A2 30.4364 
*END

*D_NET *317 0.0164025
*CONN
*I *2053:A2 I *D gf180mcu_fd_sc_mcu7t5v0__aoi21_1
*I *2054:A2 I *D gf180mcu_fd_sc_mcu7t5v0__and3_1
*I *2143:A2 I *D gf180mcu_fd_sc_mcu7t5v0__aoi22_1
*I *2350:Z O *D gf180mcu_fd_sc_mcu7t5v0__buf_1
*CAP
1 *2053:A2 3.98057e-05
2 *2054:A2 2.42427e-05
3 *2143:A2 0.000343839
4 *2350:Z 0.0058557
5 *317:16 0.000498973
6 *317:14 0.00602639
7 *2053:A2 *2053:A1 8.72272e-06
8 *2143:A2 *2052:A2 5.08239e-06
9 *2143:A2 *2054:A1 2.27632e-05
10 *2143:A2 *2143:A1 0.000204869
11 *2143:A2 *334:177 5.93477e-05
12 *2143:A2 *359:8 4.1855e-06
13 *2143:A2 *359:10 2.84016e-05
14 *317:14 *334:248 0.00106826
15 *2053:B *317:14 0.000466324
16 *2053:B *317:16 0.000606271
17 *2251:D *2143:A2 0
18 *2251:D *317:14 0
19 *2251:D *317:16 0
20 *249:12 *2143:A2 0.00104609
21 *249:12 *317:16 9.32725e-05
22 *293:16 *317:14 0
*RES
1 *2350:Z *317:14 42.2586 
2 *317:14 *317:16 1.15151 
3 *317:16 *2143:A2 11.0727 
4 *317:16 *2054:A2 9.15353 
5 *317:14 *2053:A2 9.13708 
*END

*D_NET *318 0.0103695
*CONN
*I *2150:A2 I *D gf180mcu_fd_sc_mcu7t5v0__nand2_1
*I *2351:Z O *D gf180mcu_fd_sc_mcu7t5v0__buf_1
*CAP
1 *2150:A2 0.00131601
2 *2351:Z 0.00131601
3 *2150:A2 *2150:A1 1.38205e-05
4 *2150:A2 *2156:A2 0
5 *2150:A2 *319:14 0.000104232
6 *2150:A2 *323:18 0.00102276
7 *2061:A2 *2150:A2 0
8 *2142:A2 *2150:A2 0.0001144
9 *2156:A1 *2150:A2 0
10 *311:12 *2150:A2 0.0064823
11 *311:30 *2150:A2 0
*RES
1 *2351:Z *2150:A2 29.8222 
*END

*D_NET *319 0.0135127
*CONN
*I *2134:A2 I *D gf180mcu_fd_sc_mcu7t5v0__aoi21_1
*I *2133:A2 I *D gf180mcu_fd_sc_mcu7t5v0__and3_1
*I *2352:Z O *D gf180mcu_fd_sc_mcu7t5v0__buf_1
*CAP
1 *2134:A2 0
2 *2133:A2 0.000191271
3 *2352:Z 0.00100489
4 *319:14 0.00119616
5 *2133:A2 *2136:A2 0.000725379
6 *2133:A2 *324:12 0.00126228
7 *319:14 *2136:A2 0.000795767
8 *319:14 *321:24 0.00181866
9 *319:14 *323:18 0.00415041
10 *319:14 *324:12 0.000751025
11 *2133:A3 *2133:A2 0.000273159
12 *2142:A2 *319:14 0.000699494
13 *2150:A2 *319:14 0.000104232
14 *2155:A2 *319:14 0
15 *2280:D *319:14 0
16 *2312:CLK *319:14 0
17 *2349:I *319:14 0.000137356
18 *2359:I *319:14 0.000402597
*RES
1 *2352:Z *319:14 22.8492 
2 *319:14 *2133:A2 6.81948 
3 *319:14 *2134:A2 4.5 
*END

*D_NET *320 0.024411
*CONN
*I *2130:A2 I *D gf180mcu_fd_sc_mcu7t5v0__aoi22_1
*I *2050:A2 I *D gf180mcu_fd_sc_mcu7t5v0__and3_1
*I *2049:A2 I *D gf180mcu_fd_sc_mcu7t5v0__aoi21_1
*I *2353:Z O *D gf180mcu_fd_sc_mcu7t5v0__buf_1
*CAP
1 *2130:A2 2.54856e-05
2 *2050:A2 2.53026e-05
3 *2049:A2 0.000222891
4 *2353:Z 0.00247028
5 *320:28 0.00106535
6 *320:20 0.00331291
7 *2049:A2 *328:18 7.83181e-05
8 *2049:A2 *369:329 2.15813e-05
9 *2049:A2 *369:350 0.000214043
10 *2130:A2 *2130:A1 3.55704e-05
11 *320:20 *2115:A1 0.000104931
12 *320:20 *2115:A2 0
13 *320:20 *2137:A2 0.00022363
14 *320:20 *325:14 0.00152645
15 *320:20 *325:16 0.000137383
16 *320:28 *2130:A1 0.00191199
17 *320:28 *369:350 6.52824e-06
18 *2049:B *2049:A2 6.1059e-05
19 *2049:B *320:28 1.52648e-05
20 *2051:A3 *320:28 0
21 *2115:B1 *320:20 0.000145873
22 *2117:A2 *320:20 0.000313194
23 *2245:B *320:20 4.06487e-05
24 *2247:A2 *320:20 2.87368e-05
25 *2289:D *320:20 0.000760612
26 *2329:I *320:20 0.000339055
27 *2334:I *320:20 0.000250437
28 *2347:I *320:20 0.00137996
29 *2362:I *320:20 0.000187224
30 *246:12 *320:28 0.000215432
31 *280:10 *320:20 0
32 *280:16 *320:20 0
33 *280:16 *320:28 0
34 *294:43 *320:20 0.00160104
35 *294:52 *320:20 0.0030967
36 *304:18 *2049:A2 0.00036029
37 *304:18 *320:28 0.000536902
38 *308:26 *320:28 0
39 *309:18 *320:20 0.0036959
*RES
1 *2353:Z *320:20 30.1111 
2 *320:20 *320:28 9.48989 
3 *320:28 *2049:A2 6.17244 
4 *320:28 *2050:A2 4.65354 
5 *320:20 *2130:A2 9.14942 
*END

*D_NET *321 0.0295876
*CONN
*I *2127:A2 I *D gf180mcu_fd_sc_mcu7t5v0__aoi22_1
*I *2045:A2 I *D gf180mcu_fd_sc_mcu7t5v0__aoi21_1
*I *2046:A2 I *D gf180mcu_fd_sc_mcu7t5v0__and3_1
*I *2354:Z O *D gf180mcu_fd_sc_mcu7t5v0__buf_1
*CAP
1 *2127:A2 0.0010351
2 *2045:A2 2.09029e-05
3 *2046:A2 0.000321503
4 *2354:Z 0.00421617
5 *321:41 0.00125293
6 *321:24 0.0047346
7 *2045:A2 *2045:A1 8.72272e-06
8 *2127:A2 *2044:A2 0
9 *2127:A2 *2127:B2 6.50564e-05
10 *2127:A2 *2128:A2 5.83066e-05
11 *2127:A2 *362:14 0
12 *2127:A2 *369:273 0
13 *321:24 *2033:A1 0.000671128
14 *321:24 *322:16 0.000671128
15 *321:24 *323:18 0.00442579
16 *321:24 *331:27 0
17 *321:24 *332:16 0.00155579
18 *321:24 *365:20 0.000227632
19 *321:41 *331:53 0
20 *2046:A3 *2046:A2 0.000184882
21 *2046:A3 *2127:A2 0.000466324
22 *2046:A3 *321:41 0.000886003
23 *2047:A2 *2127:A2 0.000148369
24 *2047:A2 *321:24 0.000167912
25 *2047:A2 *321:41 0.000563803
26 *2047:A3 *321:24 9.05241e-05
27 *2127:B1 *2127:A2 1.02976e-05
28 *2136:A1 *321:24 4.55265e-05
29 *2175:A2 *2045:A2 1.41602e-05
30 *2252:D *321:41 7.14998e-05
31 *2280:D *321:24 0
32 *2281:CLK *321:24 0
33 *2285:D *2127:A2 0
34 *2312:CLK *321:24 0
35 *2327:I *321:24 0.000113816
36 *2340:I *321:24 0.000134226
37 *2355:I *321:24 0.000831527
38 *151:12 *321:24 0.00060623
39 *281:8 *2127:A2 2.84016e-05
40 *292:38 *321:41 0.000237391
41 *294:65 *321:24 0
42 *302:18 *321:24 0.000159049
43 *306:20 *321:24 8.55555e-05
44 *307:30 *2046:A2 1.25565e-05
45 *307:30 *321:24 0.00196402
46 *308:26 *321:24 0.00163207
47 *310:18 *2045:A2 5.00681e-05
48 *319:14 *321:24 0.00181866
*RES
1 *2354:Z *321:24 43.2858 
2 *321:24 *2046:A2 6.26565 
3 *321:24 *321:41 6.57273 
4 *321:41 *2045:A2 9.13708 
5 *321:41 *2127:A2 13.9734 
*END

*D_NET *322 0.0183848
*CONN
*I *2124:A2 I *D gf180mcu_fd_sc_mcu7t5v0__aoi22_1
*I *2042:A2 I *D gf180mcu_fd_sc_mcu7t5v0__and3_1
*I *2041:A2 I *D gf180mcu_fd_sc_mcu7t5v0__aoi21_1
*I *2355:Z O *D gf180mcu_fd_sc_mcu7t5v0__buf_1
*CAP
1 *2124:A2 0.000590406
2 *2042:A2 0.000158637
3 *2041:A2 0.000193132
4 *2355:Z 0.00429339
5 *322:22 0.000965034
6 *322:16 0.00549706
7 *2041:A2 *369:222 0.000686393
8 *2041:A2 *369:226 1.19937e-05
9 *2042:A2 *362:12 2.6113e-05
10 *2042:A2 *369:212 0.000139891
11 *2124:A2 *2040:A2 7.30225e-06
12 *2124:A2 *363:12 7.2674e-05
13 *322:16 *2039:A1 0
14 *322:16 *2158:A2 0
15 *322:16 *330:12 3.91695e-05
16 *322:16 *358:10 0
17 *322:16 *363:12 0
18 *322:16 *369:16 0.0010725
19 *322:16 *369:160 0.000885977
20 *322:22 *363:12 0
21 *322:22 *369:212 0.000984322
22 *322:22 *369:222 8.94841e-05
23 *2043:A2 *2042:A2 2.33227e-05
24 *2043:A2 *322:22 0.000364212
25 *2043:A3 *322:22 0.000536823
26 *2126:A2 *2124:A2 0.000140002
27 *2165:A2 *322:16 0
28 *2254:D *322:16 0
29 *2277:D *322:16 0
30 *2277:CLK *322:16 7.98965e-05
31 *171:10 *2124:A2 0.000300299
32 *171:10 *322:22 0.0001001
33 *307:30 *322:16 0.000341449
34 *311:30 *2124:A2 0.000114094
35 *321:24 *322:16 0.000671128
*RES
1 *2355:Z *322:16 38.9576 
2 *322:16 *322:22 8.03131 
3 *322:22 *2041:A2 6.0189 
4 *322:22 *2042:A2 14.1909 
5 *322:16 *2124:A2 11.6704 
*END

*D_NET *323 0.0326193
*CONN
*I *2037:A2 I *D gf180mcu_fd_sc_mcu7t5v0__aoi21_1
*I *2038:A2 I *D gf180mcu_fd_sc_mcu7t5v0__and3_1
*I *2121:A2 I *D gf180mcu_fd_sc_mcu7t5v0__aoi22_1
*I *2356:Z O *D gf180mcu_fd_sc_mcu7t5v0__buf_1
*CAP
1 *2037:A2 0.000129268
2 *2038:A2 0.000123652
3 *2121:A2 0.000145384
4 *2356:Z 0.00283172
5 *323:29 0.000579434
6 *323:18 0.00330361
7 *2037:A2 *2039:A1 0.000296738
8 *2037:A2 *369:518 0.000326412
9 *2121:A2 *2121:A1 0.00022363
10 *2121:A2 *2121:B2 6.30649e-06
11 *2121:A2 *330:31 0.000263578
12 *2121:A2 *369:170 3.05023e-05
13 *2121:A2 *369:174 3.05295e-05
14 *323:18 *2121:A1 0.000139891
15 *323:18 *2133:A1 0.000850097
16 *323:18 *2137:A2 0.0018187
17 *323:18 *2239:A1 0.000223629
18 *323:18 *2366:I 0.000152326
19 *323:18 *324:12 0.00106979
20 *323:18 *330:12 0.000116613
21 *323:18 *330:27 0.00137633
22 *323:18 *335:10 0.000522182
23 *323:18 *335:12 0.000296738
24 *323:18 *335:14 0.000919889
25 *323:18 *369:166 0.00165537
26 *323:29 *2039:A1 0.000474781
27 *323:29 *2121:A1 0.000279782
28 *323:29 *369:166 0
29 *323:29 *369:510 0
30 *323:29 *369:518 0.000148369
31 *2038:A3 *2038:A2 0.000448907
32 *2039:A3 *2037:A2 0.000258785
33 *2150:A2 *323:18 0.00102276
34 *2175:A2 *323:18 0.000184147
35 *2312:D *323:18 0.00056904
36 *2329:I *323:18 0.000130565
37 *2344:I *323:18 0.000391695
38 *2350:I *323:18 0.000106799
39 *237:6 *2037:A2 6.74483e-05
40 *237:6 *2038:A2 0.000313114
41 *295:106 *2038:A2 0.000134146
42 *295:119 *2038:A2 0.00076053
43 *297:16 *323:18 0
44 *299:10 *323:18 8.37099e-06
45 *308:26 *323:18 0.000356086
46 *311:12 *323:18 0.000955464
47 *319:14 *323:18 0.00415041
48 *321:24 *323:18 0.00442579
*RES
1 *2356:Z *323:18 46.404 
2 *323:18 *2121:A2 9.75945 
3 *323:18 *323:29 1.76565 
4 *323:29 *2038:A2 10.6121 
5 *323:29 *2037:A2 10.2886 
*END

*D_NET *324 0.0155154
*CONN
*I *2034:A2 I *D gf180mcu_fd_sc_mcu7t5v0__and3_1
*I *2033:A2 I *D gf180mcu_fd_sc_mcu7t5v0__aoi21_1
*I *2118:A2 I *D gf180mcu_fd_sc_mcu7t5v0__aoi22_1
*I *2357:Z O *D gf180mcu_fd_sc_mcu7t5v0__buf_1
*CAP
1 *2034:A2 4.15849e-05
2 *2033:A2 7.89165e-05
3 *2118:A2 0.000537703
4 *2357:Z 0.00173653
5 *324:14 0.000662548
6 *324:12 0.00182405
7 *2118:A2 *2033:A1 2.85999e-05
8 *2118:A2 *326:14 0.000802958
9 *2118:A2 *331:27 0.000136579
10 *2118:A2 *365:20 0.000233152
11 *2118:A2 *369:27 0.000178043
12 *2118:A2 *369:29 0.000801194
13 *324:12 *2033:A1 1.43e-05
14 *324:12 *2133:A1 0.000894759
15 *324:12 *2136:A2 0.000182106
16 *324:12 *330:12 0
17 *324:12 *369:166 0.00125083
18 *324:14 *365:20 0.000152608
19 *324:14 *369:27 2.96738e-05
20 *2032:A1 *324:12 6.52824e-05
21 *2032:A1 *324:14 8.70433e-05
22 *2033:B *2034:A2 6.82897e-05
23 *2035:A2 *324:12 0.000792716
24 *2133:A2 *324:12 0.00126228
25 *2175:A2 *324:12 0
26 *234:14 *324:12 8.68604e-05
27 *284:12 *2118:A2 0.000534505
28 *306:20 *2033:A2 0.000527235
29 *306:20 *2034:A2 0.000156989
30 *307:30 *2033:A2 0.000527235
31 *319:14 *324:12 0.000751025
32 *323:18 *324:12 0.00106979
*RES
1 *2357:Z *324:12 19.8242 
2 *324:12 *324:14 0.383838 
3 *324:14 *2118:A2 12.911 
4 *324:14 *2033:A2 9.90476 
5 *324:12 *2034:A2 9.38384 
*END

*D_NET *325 0.0149001
*CONN
*I *2246:A2 I *D gf180mcu_fd_sc_mcu7t5v0__and3_1
*I *2245:A2 I *D gf180mcu_fd_sc_mcu7t5v0__aoi21_1
*I *2115:A2 I *D gf180mcu_fd_sc_mcu7t5v0__aoi22_1
*I *2358:Z O *D gf180mcu_fd_sc_mcu7t5v0__buf_1
*CAP
1 *2246:A2 0.000523982
2 *2245:A2 0
3 *2115:A2 0.000402299
4 *2358:Z 0.00202165
5 *325:16 0.00065297
6 *325:14 0.00279631
7 *2115:A2 *2115:A1 0.000165206
8 *2115:A2 *2116:A2 0.000192007
9 *2115:A2 *2245:A1 1.19937e-05
10 *2115:A2 *366:21 0.000349176
11 *325:14 *2241:A1 0
12 *325:14 *329:14 8.3644e-05
13 *325:14 *369:37 0
14 *2117:A2 *2115:A2 8.46903e-05
15 *2138:A1 *325:14 0.000130113
16 *2140:A1 *325:14 0.000121605
17 *2141:A2 *325:14 0.00026113
18 *2241:B *325:14 1.6596e-05
19 *2243:A2 *325:14 0
20 *2247:A2 *325:16 3.76167e-05
21 *2257:D *325:14 0
22 *2257:D *325:16 0
23 *2281:CLK *325:14 0.000343199
24 *2289:CLK *2115:A2 0.000457006
25 *2289:CLK *325:16 0.000214043
26 *2331:I *325:14 0.000204869
27 *2347:I *325:14 0.000341408
28 *2358:I *325:14 0.000234059
29 *255:8 *325:14 0.000173721
30 *255:23 *325:14 0.000167271
31 *294:37 *2246:A2 9.29377e-06
32 *294:43 *2246:A2 0
33 *294:87 *2246:A2 0
34 *295:16 *2115:A2 6.94883e-05
35 *302:20 *2246:A2 0.000979237
36 *309:18 *325:14 0.00219172
37 *320:20 *2115:A2 0
38 *320:20 *325:14 0.00152645
39 *320:20 *325:16 0.000137383
*RES
1 *2358:Z *325:14 27.5485 
2 *325:14 *325:16 1.21183 
3 *325:16 *2115:A2 15.888 
4 *325:16 *2245:A2 4.5 
5 *325:14 *2246:A2 16.1869 
*END

*D_NET *326 0.0147529
*CONN
*I *2241:A2 I *D gf180mcu_fd_sc_mcu7t5v0__aoi21_1
*I *2242:A2 I *D gf180mcu_fd_sc_mcu7t5v0__and3_1
*I *2112:A2 I *D gf180mcu_fd_sc_mcu7t5v0__aoi22_1
*I *2359:Z O *D gf180mcu_fd_sc_mcu7t5v0__buf_1
*CAP
1 *2241:A2 3.62098e-05
2 *2242:A2 6.95335e-05
3 *2112:A2 0.00070804
4 *2359:Z 0.00182839
5 *326:16 0.00087574
6 *326:14 0.00196277
7 *2112:A2 *2112:A1 2.69418e-05
8 *2112:A2 *2240:A2 0.000195847
9 *2112:A2 *2242:A1 0.000152326
10 *2112:A2 *367:8 1.99152e-06
11 *2112:A2 *367:16 1.34793e-05
12 *326:14 *2118:A1 0.000701658
13 *326:14 *2119:A2 7.69984e-05
14 *326:14 *331:6 0.000431448
15 *326:14 *331:23 2.32344e-06
16 *326:14 *331:27 0.000122118
17 *326:14 *369:29 1.30565e-05
18 *326:14 *369:31 0.000104452
19 *326:14 *369:37 0.000274186
20 *326:14 *369:48 0.000152326
21 *326:14 *369:97 0
22 *326:16 *2242:A1 6.52824e-05
23 *326:16 *369:48 0.00026113
24 *2114:A2 *2112:A2 0.000186882
25 *2118:A2 *326:14 0.000802958
26 *2119:A1 *326:14 0.000216543
27 *2120:A3 *326:14 2.8894e-05
28 *2241:B *326:14 0.000466553
29 *2241:B *326:16 0.000606252
30 *2243:A2 *2241:A2 8.61751e-05
31 *228:10 *2112:A2 0.000606519
32 *228:10 *326:16 9.33106e-05
33 *284:12 *326:14 2.39827e-05
34 *286:10 *2112:A2 0.000237338
35 *286:12 *2112:A2 0.000504402
36 *300:26 *2112:A2 0
37 *300:26 *326:14 0.00201331
38 *303:18 *2241:A2 0.000141528
39 *303:18 *2242:A2 3.11342e-05
40 *308:26 *2242:A2 9.88193e-05
41 *313:24 *2112:A2 0.000532029
*RES
1 *2359:Z *326:14 20.6687 
2 *326:14 *326:16 1.15151 
3 *326:16 *2112:A2 12.7534 
4 *326:16 *2242:A2 9.38384 
5 *326:14 *2241:A2 9.29062 
*END

*D_NET *327 0.0072991
*CONN
*I *2136:A2 I *D gf180mcu_fd_sc_mcu7t5v0__and2_1
*I *2360:Z O *D gf180mcu_fd_sc_mcu7t5v0__buf_1
*CAP
1 *2136:A2 0.00111243
2 *2360:Z 0.00111243
3 *2133:A2 *2136:A2 0.000725379
4 *2133:A3 *2136:A2 0.00022371
5 *2134:B *2136:A2 0.000536824
6 *2135:A3 *2136:A2 5.60951e-05
7 *2142:A2 *2136:A2 0.00017609
8 *2160:A2 *2136:A2 0.00237827
9 *2165:A2 *2136:A2 0
10 *319:14 *2136:A2 0.000795767
11 *324:12 *2136:A2 0.000182106
*RES
1 *2360:Z *2136:A2 25.7535 
*END

*D_NET *328 0.0600222
*CONN
*I *2051:A1 I *D gf180mcu_fd_sc_mcu7t5v0__nor3_1
*I *2132:A1 I *D gf180mcu_fd_sc_mcu7t5v0__nor3_1
*I *2081:A1 I *D gf180mcu_fd_sc_mcu7t5v0__nor3_1
*I *2148:A1 I *D gf180mcu_fd_sc_mcu7t5v0__nor3_1
*I *2207:A1 I *D gf180mcu_fd_sc_mcu7t5v0__nor3_1
*I *2087:A1 I *D gf180mcu_fd_sc_mcu7t5v0__nor3_1
*I *2084:A1 I *D gf180mcu_fd_sc_mcu7t5v0__nor3_1
*I *2203:A1 I *D gf180mcu_fd_sc_mcu7t5v0__nor3_1
*I *2199:A1 I *D gf180mcu_fd_sc_mcu7t5v0__nor3_1
*I *2055:A1 I *D gf180mcu_fd_sc_mcu7t5v0__nor3_1
*I *2145:A1 I *D gf180mcu_fd_sc_mcu7t5v0__nor3_1
*I *2075:A1 I *D gf180mcu_fd_sc_mcu7t5v0__nor3_1
*I *2174:A1 I *D gf180mcu_fd_sc_mcu7t5v0__nor2_1
*I *2064:C I *D gf180mcu_fd_sc_mcu7t5v0__aoi211_1
*I *2191:A1 I *D gf180mcu_fd_sc_mcu7t5v0__nor3_1
*I *2078:A1 I *D gf180mcu_fd_sc_mcu7t5v0__nor3_1
*I *2195:A1 I *D gf180mcu_fd_sc_mcu7t5v0__nor3_1
*I *2376:Z O *D gf180mcu_fd_sc_mcu7t5v0__buf_4
*CAP
1 *2051:A1 2.05143e-05
2 *2132:A1 0.00105733
3 *2081:A1 0.000221094
4 *2148:A1 0.00140343
5 *2207:A1 0.000388597
6 *2087:A1 4.22216e-05
7 *2084:A1 0.000201831
8 *2203:A1 0
9 *2199:A1 4.84854e-05
10 *2055:A1 1.4098e-05
11 *2145:A1 0.000698267
12 *2075:A1 0.00014341
13 *2174:A1 0.000401764
14 *2064:C 0.000328055
15 *2191:A1 0.000278089
16 *2078:A1 0.000877125
17 *2195:A1 7.00945e-05
18 *2376:Z 0.000599135
19 *328:199 0.000809197
20 *328:173 0.000999353
21 *328:161 0.00155613
22 *328:152 0.000918632
23 *328:128 0.00103832
24 *328:122 0.000949613
25 *328:120 0.0019718
26 *328:118 0.000758385
27 *328:83 0.00146717
28 *328:79 0.00155914
29 *328:64 0.00172796
30 *328:45 0.00214507
31 *328:32 0.00160672
32 *328:20 0.00151784
33 *328:18 0.00194264
34 *328:8 0.00112997
35 *2078:A1 *2076:A1 2.33227e-05
36 *2078:A1 *2077:A2 1.85875e-05
37 *2145:A1 *334:173 0.000718107
38 *2148:A1 *334:248 0.000705661
39 *2148:A1 *334:269 0.000273159
40 *2148:A1 *348:6 0.000213707
41 *2174:A1 *355:10 0
42 *2195:A1 *334:10 0
43 *2207:A1 *2085:A1 0.000114609
44 *328:8 *2059:A1 0.000137356
45 *328:8 *2130:A1 0.000186581
46 *328:18 *369:329 0.000145697
47 *328:20 *2368:I 0.000160592
48 *328:20 *369:316 5.02694e-05
49 *328:20 *369:329 0
50 *328:32 *2079:B2 0.000258204
51 *328:32 *334:10 0
52 *328:32 *369:316 1.25565e-05
53 *328:45 *334:25 0
54 *328:83 *2171:A2 0.000386934
55 *328:118 *2079:B2 2.96738e-05
56 *328:152 *2198:A1 0.000357856
57 *328:161 *334:43 9.20734e-05
58 *328:161 *334:51 1.12853e-05
59 *328:173 *2200:A2 1.53966e-05
60 *328:173 *2201:A1 0.000154424
61 *328:173 *334:43 0.000145194
62 *2049:A2 *328:18 7.83181e-05
63 *2051:A2 *328:18 0.000621087
64 *2051:A3 *328:8 9.81306e-06
65 *2051:A3 *328:18 1.52648e-05
66 *2055:A2 *2055:A1 4.55265e-05
67 *2064:B *2064:C 0.000626386
68 *2075:A3 *328:79 0.000156349
69 *2076:A2 *2078:A1 0.000146413
70 *2077:A1 *2078:A1 1.85875e-05
71 *2078:A2 *2078:A1 0.000149377
72 *2078:A3 *2078:A1 0.000151012
73 *2079:B1 *328:32 9.45019e-05
74 *2080:A1 *2081:A1 0.000581565
75 *2081:A2 *2081:A1 0.000183177
76 *2081:A2 *328:118 1.73721e-05
77 *2081:A2 *328:120 8.68604e-05
78 *2084:A2 *2084:A1 0.000409204
79 *2084:A2 *328:173 9.1053e-05
80 *2084:A3 *2084:A1 7.14998e-05
81 *2085:A2 *2207:A1 0.000499536
82 *2087:A2 *2207:A1 0.00163222
83 *2132:A2 *2132:A1 4.4742e-05
84 *2132:A3 *2132:A1 0.000215639
85 *2145:A2 *2145:A1 0.000328899
86 *2171:A1 *2064:C 0.000268281
87 *2173:A1 *328:83 0.000128275
88 *2173:A3 *328:79 0
89 *2174:A2 *2174:A1 3.05295e-05
90 *2174:A2 *328:83 0
91 *2191:A2 *2191:A1 4.55265e-05
92 *2191:A3 *2191:A1 2.50778e-05
93 *2193:B *2078:A1 4.06487e-05
94 *2195:A2 *2195:A1 8.37099e-06
95 *2196:A1 *328:120 9.79236e-05
96 *2197:A2 *328:152 0.000159302
97 *2197:A2 *328:161 8.61751e-05
98 *2197:B *328:152 0
99 *2198:A2 *328:152 9.1053e-05
100 *2199:A2 *328:161 9.96465e-05
101 *2199:A3 *328:152 2.78813e-05
102 *2199:A3 *328:161 1.85875e-05
103 *2201:A2 *328:173 0.000398676
104 *2203:A2 *2084:A1 2.96738e-05
105 *2203:A2 *328:173 0.000650355
106 *2203:A3 *328:173 0.00017909
107 *2250:D *328:128 0.000113816
108 *2250:CLK *2145:A1 4.56977e-05
109 *2250:CLK *328:128 0.000195169
110 *2250:CLK *328:152 0
111 *2266:D *2207:A1 2.33227e-05
112 *2267:D *328:173 4.55265e-05
113 *2268:D *328:161 0.000116613
114 *2269:D *2195:A1 4.57943e-05
115 *2269:D *328:32 0.000335797
116 *2270:D *2191:A1 0.000432502
117 *2270:CLK *2078:A1 0
118 *2274:CLK *2174:A1 8.30924e-05
119 *2282:D *2148:A1 0
120 *2282:CLK *328:128 4.23034e-05
121 *2300:CLK *328:161 0
122 *2300:CLK *328:173 0
123 *2307:D *2064:C 5.7788e-05
124 *175:16 *2191:A1 0
125 *175:16 *328:64 0.000699505
126 *175:16 *328:79 0.00111926
127 *192:8 *2078:A1 0.000386975
128 *265:12 *2084:A1 8.3644e-05
129 *268:16 *2078:A1 1.85875e-05
130 *273:23 *2064:C 0.000136579
131 *289:34 *328:152 0
132 *289:38 *328:122 5.71999e-05
133 *289:38 *328:128 0.0001287
134 *289:42 *328:128 2.0479e-05
135 *289:42 *328:152 0.000250355
136 *289:56 *328:120 0.000143
137 *289:56 *328:122 0.000386099
138 *289:71 *328:120 0.000443299
139 *292:12 *328:118 0.000512953
140 *292:12 *328:120 0.00284445
141 *292:12 *328:122 0.00144554
142 *292:12 *328:128 0.000419673
143 *292:76 *2174:A1 0.000139891
144 *292:78 *2064:C 0.000606209
145 *292:78 *2174:A1 0.00139905
146 *293:16 *2132:A1 0.00100096
147 *293:16 *2145:A1 0
148 *303:18 *2132:A1 0
149 *303:18 *2145:A1 0.000143621
150 *304:18 *328:8 0.000381045
151 *304:18 *328:18 2.78813e-05
152 *304:20 *2207:A1 0.000830868
153 *304:20 *328:45 0.000504402
154 *304:20 *328:199 0.000783389
155 *307:48 *328:32 0.000102232
156 *308:26 *2078:A1 0.000293274
157 *313:24 *2081:A1 0.000313113
158 *313:24 *328:8 0.000430833
159 *313:24 *328:18 3.26164e-05
160 *313:24 *328:20 0.000326517
161 *313:24 *328:32 0.000136303
162 *313:24 *328:118 0.000174087
*RES
1 *2376:Z *328:8 9.25959 
2 *328:8 *328:18 3.45454 
3 *328:18 *328:20 2.22626 
4 *328:20 *328:32 5.98787 
5 *328:32 *2195:A1 4.88384 
6 *328:32 *328:45 6.57273 
7 *328:45 *2078:A1 14.7576 
8 *328:45 *328:64 3.37777 
9 *328:64 *2191:A1 10.9192 
10 *328:64 *328:79 8.26161 
11 *328:79 *328:83 8.10808 
12 *328:83 *2064:C 11.3633 
13 *328:83 *2174:A1 11.8294 
14 *328:79 *2075:A1 5.03737 
15 *328:20 *328:118 5.34444 
16 *328:118 *328:120 4.68282 
17 *328:120 *328:122 2.3798 
18 *328:122 *328:128 6.80303 
19 *328:128 *2145:A1 17.8758 
20 *328:128 *2055:A1 4.65354 
21 *328:122 *328:152 7.18687 
22 *328:152 *2199:A1 4.80707 
23 *328:152 *328:161 2.22626 
24 *328:161 *328:173 13.8364 
25 *328:173 *2203:A1 4.5 
26 *328:173 *2084:A1 14.8818 
27 *328:161 *328:199 7.3404 
28 *328:199 *2087:A1 9.15353 
29 *328:199 *2207:A1 13.0687 
30 *328:120 *2148:A1 16.0626 
31 *328:118 *2081:A1 11.2263 
32 *328:18 *2132:A1 18.1061 
33 *328:8 *2051:A1 4.65354 
*END

*D_NET *329 0.0465085
*CONN
*I *2114:A1 I *D gf180mcu_fd_sc_mcu7t5v0__nor3_1
*I *2243:A1 I *D gf180mcu_fd_sc_mcu7t5v0__nor3_1
*I *2111:A1 I *D gf180mcu_fd_sc_mcu7t5v0__nor3_1
*I *2235:A1 I *D gf180mcu_fd_sc_mcu7t5v0__nor3_1
*I *2096:A1 I *D gf180mcu_fd_sc_mcu7t5v0__nor3_1
*I *2215:A1 I *D gf180mcu_fd_sc_mcu7t5v0__nor3_1
*I *2223:A1 I *D gf180mcu_fd_sc_mcu7t5v0__nor3_1
*I *2211:A1 I *D gf180mcu_fd_sc_mcu7t5v0__nor3_1
*I *2090:A1 I *D gf180mcu_fd_sc_mcu7t5v0__nor3_1
*I *2093:A1 I *D gf180mcu_fd_sc_mcu7t5v0__nor3_1
*I *2219:A1 I *D gf180mcu_fd_sc_mcu7t5v0__nor3_1
*I *2376:I I *D gf180mcu_fd_sc_mcu7t5v0__buf_4
*I *2059:A1 I *D gf180mcu_fd_sc_mcu7t5v0__nor3_1
*I *2363:Z O *D gf180mcu_fd_sc_mcu7t5v0__buf_4
*CAP
1 *2114:A1 0.000190314
2 *2243:A1 0.000833086
3 *2111:A1 0.000102229
4 *2235:A1 0.000340848
5 *2096:A1 1.91703e-05
6 *2215:A1 0.000374833
7 *2223:A1 0.000495897
8 *2211:A1 0.000473207
9 *2090:A1 0.000361138
10 *2093:A1 4.84854e-05
11 *2219:A1 2.42427e-05
12 *2376:I 0
13 *2059:A1 0.000242818
14 *2363:Z 0.00125119
15 *329:96 0.00207412
16 *329:83 0.00311988
17 *329:77 0.00241081
18 *329:75 0.000761475
19 *329:73 0.000960342
20 *329:60 0.00143163
21 *329:54 0.00143866
22 *329:52 0.00096416
23 *329:26 0.000823703
24 *329:24 0.00142486
25 *329:18 0.00127881
26 *329:14 0.00157694
27 *2223:A1 *342:12 0.000113008
28 *329:14 *2240:A2 0.000250355
29 *329:83 *2091:B2 0.00120803
30 *329:96 *2091:B2 0.00022371
31 *2090:A2 *2090:A1 0.000159302
32 *2092:A1 *329:83 0.000178968
33 *2093:A3 *329:83 0.000202794
34 *2093:A3 *329:96 3.38559e-05
35 *2211:A2 *2211:A1 1.52648e-05
36 *2211:A3 *2211:A1 0.000326511
37 *2213:B *2223:A1 0
38 *2215:A3 *329:83 0
39 *2219:A2 *329:73 1.16613e-05
40 *2223:A3 *2223:A1 9.29377e-06
41 *2235:A3 *2235:A1 2.26979e-05
42 *2240:A1 *329:14 4.55265e-05
43 *2241:B *2243:A1 0
44 *2243:A2 *2243:A1 4.55265e-05
45 *2249:D *2059:A1 3.4984e-05
46 *2259:D *2235:A1 0.000113816
47 *2262:D *2223:A1 4.57943e-05
48 *2263:D *329:73 0.001365
49 *2263:D *329:75 0.000890215
50 *2263:D *329:77 0.000898797
51 *2263:D *329:83 0.00107259
52 *2264:D *2215:A1 5.83066e-05
53 *2291:CLK *2235:A1 0
54 *2296:D *2096:A1 2.27632e-05
55 *2296:CLK *2215:A1 0
56 *2331:I *329:14 0.000106853
57 *2337:I *329:14 0.000614526
58 *2342:I *329:14 0.000581563
59 *2344:I *329:14 0.000134226
60 *228:10 *2243:A1 0
61 *261:12 *329:73 0.0001859
62 *286:10 *2243:A1 6.52824e-05
63 *286:12 *2114:A1 0.000606163
64 *286:12 *2243:A1 2.61013e-05
65 *287:15 *329:96 0
66 *287:19 *329:96 0
67 *287:21 *329:96 0
68 *287:26 *329:96 0
69 *287:30 *329:96 0
70 *287:32 *329:96 0
71 *287:37 *329:96 0
72 *287:75 *329:83 0
73 *287:79 *329:83 0
74 *287:86 *329:83 0
75 *287:91 *329:83 0
76 *288:10 *2090:A1 0.000338158
77 *291:25 *2235:A1 0
78 *294:12 *2243:A1 0
79 *294:12 *329:24 0
80 *294:12 *329:52 0.00321757
81 *294:12 *329:54 0.00219163
82 *294:12 *329:60 0.000512934
83 *295:16 *329:73 0.00026113
84 *295:16 *329:75 0.000202376
85 *295:16 *329:77 0.000284756
86 *295:16 *329:83 7.14998e-05
87 *297:16 *329:14 1.85875e-05
88 *301:18 *2059:A1 0.000326427
89 *302:20 *329:52 0.00044392
90 *302:20 *329:54 0.000300299
91 *302:20 *329:60 7.18107e-05
92 *304:18 *2059:A1 0
93 *304:18 *329:14 0.000591347
94 *304:18 *329:18 0.000102232
95 *304:18 *329:24 0
96 *304:18 *329:26 0
97 *305:26 *2059:A1 3.26412e-05
98 *305:26 *329:14 0.00052476
99 *305:26 *329:18 0.000116613
100 *305:26 *329:24 0.000894839
101 *305:26 *329:26 0.00219227
102 *308:26 *329:14 0
103 *309:18 *329:14 0.00049216
104 *313:24 *2059:A1 0.000371087
105 *313:24 *329:26 3.61773e-05
106 *325:14 *329:14 8.3644e-05
107 *328:8 *2059:A1 0.000137356
*RES
1 *2363:Z *329:14 13.4818 
2 *329:14 *329:18 5.34444 
3 *329:18 *329:24 6.64949 
4 *329:24 *329:26 3.96039 
5 *329:26 *2059:A1 15.2204 
6 *329:26 *2376:I 4.5 
7 *329:24 *329:52 9.79696 
8 *329:52 *329:54 3.60808 
9 *329:54 *329:60 8.03131 
10 *329:60 *2219:A1 4.65354 
11 *329:60 *329:73 8.79899 
12 *329:73 *329:75 2.3798 
13 *329:75 *329:77 1.61212 
14 *329:77 *329:83 13.8656 
15 *329:83 *2093:A1 4.80707 
16 *329:83 *329:96 10.1808 
17 *329:96 *2090:A1 11.3798 
18 *329:96 *2211:A1 10.7657 
19 *329:77 *2223:A1 11.3798 
20 *329:75 *2215:A1 10.4586 
21 *329:73 *2096:A1 9.15353 
22 *329:54 *2235:A1 10.7657 
23 *329:52 *2111:A1 9.38384 
24 *329:18 *2243:A1 11.9939 
25 *329:14 *2114:A1 14.6515 
*END

*D_NET *330 0.0365486
*CONN
*I *2039:A1 I *D gf180mcu_fd_sc_mcu7t5v0__nor3_1
*I *2123:A1 I *D gf180mcu_fd_sc_mcu7t5v0__nor3_1
*I *2063:C I *D gf180mcu_fd_sc_mcu7t5v0__aoi211_1
*I *2169:A1 I *D gf180mcu_fd_sc_mcu7t5v0__nor2_1
*I *2126:A1 I *D gf180mcu_fd_sc_mcu7t5v0__nor3_1
*I *2183:A1 I *D gf180mcu_fd_sc_mcu7t5v0__nor3_1
*I *2043:A1 I *D gf180mcu_fd_sc_mcu7t5v0__nor3_1
*I *2129:A1 I *D gf180mcu_fd_sc_mcu7t5v0__nor3_1
*I *2035:A1 I *D gf180mcu_fd_sc_mcu7t5v0__nor3_1
*I *2364:Z O *D gf180mcu_fd_sc_mcu7t5v0__buf_4
*CAP
1 *2039:A1 0.000568891
2 *2123:A1 2.42427e-05
3 *2063:C 0.000175686
4 *2169:A1 0.000950091
5 *2126:A1 4.22002e-05
6 *2183:A1 0.00121368
7 *2043:A1 0.000221174
8 *2129:A1 0.00016208
9 *2035:A1 2.42427e-05
10 *2364:Z 0.000703645
11 *330:97 0.0018124
12 *330:69 0.00125588
13 *330:67 0.00147228
14 *330:54 0.0015114
15 *330:37 0.00136873
16 *330:31 0.000865222
17 *330:27 0.00129822
18 *330:12 0.00131832
19 *2039:A1 *2121:A1 0.000233152
20 *2039:A1 *2160:A1 0.000104232
21 *2039:A1 *369:518 0.000104232
22 *2043:A1 *2040:A2 2.98728e-05
23 *2043:A1 *363:12 7.30225e-06
24 *2129:A1 *2127:A1 0
25 *330:12 *2032:A2 0.000326413
26 *330:12 *365:26 0.000419688
27 *330:12 *369:16 0.000328899
28 *330:12 *369:160 0.0001144
29 *330:27 *2121:A1 0.000233152
30 *330:27 *2121:B2 6.52824e-05
31 *330:31 *2121:B2 4.63394e-06
32 *330:31 *369:174 0.000386935
33 *330:37 *369:174 0.00114208
34 *330:54 *2127:A1 0.000380881
35 *330:54 *362:12 0.00279436
36 *330:54 *369:174 2.33227e-05
37 *330:54 *369:189 0.00032716
38 *330:54 *369:200 0.000225837
39 *330:67 *2124:A1 0.000257399
40 *330:67 *362:12 0.000279794
41 *2032:A1 *330:12 5.71999e-05
42 *2037:A2 *2039:A1 0.000296738
43 *2039:A2 *2039:A1 0.000106826
44 *2043:A2 *2043:A1 0.000259474
45 *2043:A3 *2043:A1 4.55265e-05
46 *2043:A3 *330:67 5.93477e-05
47 *2063:A1 *2169:A1 7.98965e-05
48 *2063:A2 *2063:C 0.000182282
49 *2063:A2 *2169:A1 0.000134226
50 *2063:A2 *330:97 0.000139891
51 *2121:A2 *330:31 0.000263578
52 *2121:B1 *2039:A1 0.000415434
53 *2121:B1 *330:27 0.000296738
54 *2123:A2 *330:31 0.000199991
55 *2123:A2 *330:37 2.27632e-05
56 *2123:A3 *330:37 2.50778e-05
57 *2124:B1 *330:67 1.30565e-05
58 *2129:A2 *2129:A1 1.6742e-05
59 *2129:A2 *330:54 0
60 *2129:A3 *330:54 0.000581565
61 *2168:A1 *2063:C 0.000274117
62 *2168:A3 *2063:C 1.43e-05
63 *2169:A2 *2063:C 0.000104746
64 *2169:A2 *2169:A1 0.00185376
65 *2175:A2 *330:12 0.00027263
66 *2175:A2 *330:27 0.000158468
67 *2253:D *2043:A1 0.000492081
68 *2253:D *330:54 0.00153892
69 *2253:D *330:67 0.000139891
70 *2254:D *2039:A1 0.000113816
71 *2255:D *330:27 0.00056904
72 *2272:D *2183:A1 3.05295e-05
73 *2275:D *2169:A1 0.000123041
74 *2286:D *2183:A1 0.000381619
75 *2286:CLK *2183:A1 2.08238e-05
76 *2287:D *330:37 0
77 *2308:D *2063:C 0.000169381
78 *2308:CLK *2169:A1 0.00016076
79 *171:10 *2063:C 2.73564e-05
80 *171:10 *330:67 0
81 *171:10 *330:97 0.000319884
82 *234:14 *330:12 8.68604e-05
83 *240:10 *330:67 4.28999e-05
84 *281:19 *330:54 0.000419711
85 *282:12 *2183:A1 0.00022371
86 *293:107 *2183:A1 0.000699494
87 *295:35 *2039:A1 0
88 *311:30 *330:67 0.00033007
89 *322:16 *2039:A1 0
90 *322:16 *330:12 3.91695e-05
91 *323:18 *330:12 0.000116613
92 *323:18 *330:27 0.00137633
93 *323:29 *2039:A1 0.000474781
94 *324:12 *330:12 0
*RES
1 *2364:Z *330:12 17.6455 
2 *330:12 *2035:A1 4.65354 
3 *330:12 *330:27 10.104 
4 *330:27 *330:31 5.80505 
5 *330:31 *330:37 4.83636 
6 *330:37 *2129:A1 5.57475 
7 *330:37 *330:54 11.5626 
8 *330:54 *2043:A1 10.4586 
9 *330:54 *330:67 3.60808 
10 *330:67 *330:69 4.5 
11 *330:69 *2183:A1 20.0252 
12 *330:69 *2126:A1 4.65354 
13 *330:67 *330:97 3.99192 
14 *330:97 *2169:A1 24.284 
15 *330:97 *2063:C 10.2886 
16 *330:31 *2123:A1 4.65354 
17 *330:27 *2039:A1 13.2222 
*END

*D_NET *331 0.0361517
*CONN
*I *2364:I I *D gf180mcu_fd_sc_mcu7t5v0__buf_4
*I *2069:A1 I *D gf180mcu_fd_sc_mcu7t5v0__nor3_1
*I *2179:A1 I *D gf180mcu_fd_sc_mcu7t5v0__nor2_1
*I *2072:A1 I *D gf180mcu_fd_sc_mcu7t5v0__nor3_1
*I *2065:C I *D gf180mcu_fd_sc_mcu7t5v0__aoi211_1
*I *2187:A1 I *D gf180mcu_fd_sc_mcu7t5v0__nor3_1
*I *2047:A1 I *D gf180mcu_fd_sc_mcu7t5v0__nor3_1
*I *2117:A1 I *D gf180mcu_fd_sc_mcu7t5v0__nor3_1
*I *2247:A1 I *D gf180mcu_fd_sc_mcu7t5v0__nor3_1
*I *2120:A1 I *D gf180mcu_fd_sc_mcu7t5v0__nor3_1
*I *2365:Z O *D gf180mcu_fd_sc_mcu7t5v0__buf_4
*CAP
1 *2364:I 2.42427e-05
2 *2069:A1 0.00100937
3 *2179:A1 0.00112816
4 *2072:A1 8.87714e-05
5 *2065:C 0.000910097
6 *2187:A1 1.21934e-05
7 *2047:A1 1.4098e-05
8 *2117:A1 0.000270366
9 *2247:A1 1.21213e-05
10 *2120:A1 0.000173
11 *2365:Z 0.000469149
12 *331:111 0.00247403
13 *331:98 0.000862549
14 *331:87 0.00204198
15 *331:72 0.00192913
16 *331:53 0.00219369
17 *331:36 0.00139851
18 *331:27 0.00136333
19 *331:23 0.00132141
20 *331:6 0.000759002
21 *2069:A1 *2067:B2 0.000885996
22 *2069:A1 *2180:A2 0.000381592
23 *331:72 *361:10 0.000134146
24 *331:98 *351:8 0.000121605
25 *2047:A2 *331:53 4.28999e-05
26 *2047:A2 *331:72 0.0001144
27 *2047:A3 *2047:A1 4.55265e-05
28 *2047:A3 *331:72 0.000614526
29 *2065:A1 *2065:C 2.08238e-05
30 *2067:B1 *2069:A1 0.000177937
31 *2069:A2 *2069:A1 0.00191507
32 *2070:A2 *331:87 0.000277953
33 *2072:A2 *331:87 0
34 *2072:A3 *331:87 0
35 *2072:A3 *331:98 0
36 *2072:A3 *331:111 0
37 *2117:A2 *2117:A1 3.4984e-05
38 *2118:A2 *331:27 0.000136579
39 *2119:A1 *331:23 0.000575253
40 *2119:A1 *331:27 4.4742e-05
41 *2120:A3 *2120:A1 0.000792766
42 *2120:A3 *331:23 4.30876e-05
43 *2165:A2 *2120:A1 0.00033007
44 *2177:A1 *2065:C 2.69068e-06
45 *2178:A3 *2179:A1 0
46 *2184:A1 *331:87 8.37099e-06
47 *2187:A2 *331:72 0.000267065
48 *2187:A2 *331:87 0.000296738
49 *2187:A3 *331:72 3.3484e-05
50 *2246:A3 *331:27 0
51 *2247:A2 *2117:A1 0
52 *2247:A2 *331:27 0.000296458
53 *2247:A3 *331:27 3.3484e-05
54 *2252:D *331:53 0.000563803
55 *2256:D *2117:A1 2.78813e-05
56 *2256:D *331:27 9.29377e-06
57 *2256:D *331:36 5.83066e-05
58 *2271:D *2187:A1 4.55265e-05
59 *2273:D *2179:A1 8.46903e-05
60 *2273:CLK *2179:A1 1.89736e-05
61 *2280:CLK *331:6 7.98965e-05
62 *2306:D *2065:C 1.85875e-05
63 *2348:I *331:6 0.00138692
64 *179:12 *2187:A1 4.1855e-06
65 *186:14 *331:87 0.000699514
66 *186:14 *331:98 0
67 *231:10 *2117:A1 4.64689e-05
68 *231:10 *331:36 0
69 *271:14 *2069:A1 2.85999e-05
70 *271:21 *2069:A1 4.54858e-05
71 *284:12 *331:27 0.000581644
72 *285:10 *331:53 0.000402676
73 *292:38 *331:53 0
74 *292:38 *331:72 0.00052476
75 *292:42 *331:72 0.000163259
76 *300:26 *331:6 0.000150692
77 *302:18 *331:6 0.000213757
78 *302:18 *331:23 0.000198243
79 *302:18 *331:27 0.00161839
80 *307:30 *331:36 7.63238e-05
81 *307:30 *331:53 0.000656385
82 *310:18 *331:72 0.00154753
83 *310:18 *331:87 0.000121605
84 *310:29 *331:87 0.000138977
85 *321:24 *331:27 0
86 *321:41 *331:53 0
87 *326:14 *331:6 0.000431448
88 *326:14 *331:23 2.32344e-06
89 *326:14 *331:27 0.000122118
*RES
1 *2365:Z *331:6 8.72222 
2 *331:6 *2120:A1 15.1121 
3 *331:6 *331:23 1.53535 
4 *331:23 *331:27 7.8303 
5 *331:27 *2247:A1 4.65354 
6 *331:27 *331:36 1.15151 
7 *331:36 *2117:A1 6.49596 
8 *331:36 *331:53 10.1808 
9 *331:53 *2047:A1 9.15353 
10 *331:53 *331:72 17.9818 
11 *331:72 *2187:A1 9.15353 
12 *331:72 *331:87 8.49191 
13 *331:87 *2065:C 8.47546 
14 *331:87 *331:98 6.26565 
15 *331:98 *2072:A1 9.38384 
16 *331:98 *331:111 1.15151 
17 *331:111 *2179:A1 14.0557 
18 *331:111 *2069:A1 15.1414 
19 *331:23 *2364:I 4.65354 
*END

*D_NET *332 0.0376585
*CONN
*I *2149:C I *D gf180mcu_fd_sc_mcu7t5v0__aoi211_1
*I *2365:I I *D gf180mcu_fd_sc_mcu7t5v0__buf_4
*I *2061:C I *D gf180mcu_fd_sc_mcu7t5v0__aoi211_1
*I *2154:A1 I *D gf180mcu_fd_sc_mcu7t5v0__nor2_1
*I *2060:C I *D gf180mcu_fd_sc_mcu7t5v0__aoi211_1
*I *2164:A1 I *D gf180mcu_fd_sc_mcu7t5v0__nor2_1
*I *2062:C I *D gf180mcu_fd_sc_mcu7t5v0__aoi211_1
*I *2159:A1 I *D gf180mcu_fd_sc_mcu7t5v0__nor2_1
*I *2135:A1 I *D gf180mcu_fd_sc_mcu7t5v0__nor3_1
*I *2066:I I *D gf180mcu_fd_sc_mcu7t5v0__clkinv_1
*I *2366:Z O *D gf180mcu_fd_sc_mcu7t5v0__buf_4
*CAP
1 *2149:C 0
2 *2365:I 0
3 *2061:C 0.000102336
4 *2154:A1 0.000634372
5 *2060:C 0.000576363
6 *2164:A1 0.000566063
7 *2062:C 0.000140459
8 *2159:A1 1.36904e-05
9 *2135:A1 0.000132261
10 *2066:I 0.00014925
11 *2366:Z 0.000341088
12 *332:109 0.00190492
13 *332:77 0.00154577
14 *332:71 0.00258553
15 *332:60 0.00171587
16 *332:54 0.00105752
17 *332:39 0.000734369
18 *332:26 0.00120678
19 *332:16 0.0014187
20 *332:8 0.000999272
21 *2061:C *2156:A2 6.32397e-05
22 *2062:C *357:17 5.59134e-05
23 *2154:A1 *358:10 0
24 *332:39 *369:560 0.00135228
25 *332:60 *358:10 0
26 *332:71 *358:10 0
27 *332:77 *2162:A2 0.000134226
28 *332:77 *357:17 0.000442678
29 *332:109 *358:10 0
30 *2060:B *2060:C 0.000162988
31 *2061:B *2061:C 1.46335e-05
32 *2061:B *332:60 0.000227592
33 *2062:A2 *2062:C 3.4984e-05
34 *2062:B *332:77 2.8894e-05
35 *2136:A1 *2066:I 0.000386935
36 *2136:A1 *332:26 0.000456977
37 *2136:A1 *332:39 8.70433e-05
38 *2149:B *332:8 2.69068e-05
39 *2149:B *332:16 2.72585e-05
40 *2153:A3 *2060:C 0.000511006
41 *2154:A2 *2060:C 0
42 *2155:A2 *332:26 0.00265793
43 *2155:A2 *332:39 0.00265793
44 *2155:A2 *332:54 0.000729129
45 *2157:A1 *332:60 0.00124638
46 *2159:A2 *332:60 0.000228971
47 *2160:A2 *332:26 0.000277953
48 *2160:A2 *332:39 5.21162e-05
49 *2160:A2 *332:54 0.000938092
50 *2162:A1 *332:77 9.99542e-06
51 *2163:A1 *2062:C 0.000367378
52 *2163:A3 *2062:C 0.000618188
53 *2163:A3 *2164:A1 0.000186521
54 *2164:A2 *2164:A1 1.52648e-05
55 *2276:D *2164:A1 0.000113816
56 *2276:CLK *2164:A1 2.33227e-05
57 *2277:D *2159:A1 8.30924e-05
58 *2277:D *332:60 8.96892e-06
59 *2278:D *2060:C 0
60 *2278:D *2154:A1 0.000532108
61 *2279:CLK *332:54 0.00144554
62 *2281:CLK *332:16 0
63 *2309:D *2062:C 9.36696e-05
64 *2311:CLK *2060:C 0.000177419
65 *2336:I *332:8 0
66 *2347:I *332:8 0.00021695
67 *2347:I *332:16 2.72585e-05
68 *2359:I *332:26 0.000176908
69 *167:12 *2062:C 1.52648e-05
70 *275:10 *2164:A1 0.000697015
71 *275:12 *2062:C 0.000373055
72 *275:12 *2164:A1 0.0004197
73 *279:10 *332:39 0.000435216
74 *294:65 *332:16 0
75 *295:80 *2060:C 2.44272e-05
76 *295:80 *2164:A1 0.000151597
77 *296:12 *332:26 0
78 *300:26 *332:26 0.000876382
79 *310:18 *2066:I 0.000386935
80 *321:24 *332:16 0.00155579
*RES
1 *2366:Z *332:8 6.12857 
2 *332:8 *332:16 12.5916 
3 *332:16 *332:26 10.3796 
4 *332:26 *2066:I 10.4586 
5 *332:26 *332:39 4.37575 
6 *332:39 *2135:A1 9.38384 
7 *332:39 *332:54 8.72222 
8 *332:54 *332:60 8.33838 
9 *332:60 *2159:A1 9.14257 
10 *332:60 *332:71 4.22222 
11 *332:71 *332:77 13.5293 
12 *332:77 *2062:C 10.5957 
13 *332:77 *2164:A1 13.0687 
14 *332:71 *332:109 2.8404 
15 *332:109 *2060:C 12.3613 
16 *332:109 *2154:A1 11.983 
17 *332:54 *2061:C 4.94416 
18 *332:16 *2365:I 4.5 
19 *332:8 *2149:C 4.5 
*END

*D_NET *333 0.0381795
*CONN
*I *2112:A1 I *D gf180mcu_fd_sc_mcu7t5v0__aoi22_1
*I *2237:A1 I *D gf180mcu_fd_sc_mcu7t5v0__aoi21_1
*I *2109:A1 I *D gf180mcu_fd_sc_mcu7t5v0__aoi22_1
*I *2238:A1 I *D gf180mcu_fd_sc_mcu7t5v0__and3_1
*I *2106:A1 I *D gf180mcu_fd_sc_mcu7t5v0__aoi22_1
*I *2233:A1 I *D gf180mcu_fd_sc_mcu7t5v0__aoi21_1
*I *2234:A1 I *D gf180mcu_fd_sc_mcu7t5v0__and3_1
*I *2230:A1 I *D gf180mcu_fd_sc_mcu7t5v0__and3_1
*I *2103:A1 I *D gf180mcu_fd_sc_mcu7t5v0__aoi22_1
*I *2221:A1 I *D gf180mcu_fd_sc_mcu7t5v0__aoi21_1
*I *2225:A1 I *D gf180mcu_fd_sc_mcu7t5v0__aoi21_1
*I *2222:A1 I *D gf180mcu_fd_sc_mcu7t5v0__and3_1
*I *2097:A1 I *D gf180mcu_fd_sc_mcu7t5v0__aoi22_1
*I *2226:A1 I *D gf180mcu_fd_sc_mcu7t5v0__and3_1
*I *2100:A1 I *D gf180mcu_fd_sc_mcu7t5v0__aoi22_1
*I *2229:A1 I *D gf180mcu_fd_sc_mcu7t5v0__aoi21_1
*I *2367:Z O *D gf180mcu_fd_sc_mcu7t5v0__buf_2
*CAP
1 *2112:A1 0.000286507
2 *2237:A1 0.000233022
3 *2109:A1 0.000736563
4 *2238:A1 0.000191636
5 *2106:A1 0.000344244
6 *2233:A1 0.000307094
7 *2234:A1 0.000598018
8 *2230:A1 4.83263e-05
9 *2103:A1 0.000564851
10 *2221:A1 0.000534444
11 *2225:A1 0
12 *2222:A1 0.000130553
13 *2097:A1 0.000593066
14 *2226:A1 3.17148e-06
15 *2100:A1 0.00014741
16 *2229:A1 0
17 *2367:Z 0.000230764
18 *333:179 0.000969585
19 *333:81 0.000860046
20 *333:61 0.000549085
21 *333:57 0.000628451
22 *333:49 0.000549971
23 *333:43 0.00162794
24 *333:39 0.00123916
25 *333:32 0.000111048
26 *333:26 0.000892733
27 *333:20 0.0018135
28 *333:18 0.0010883
29 *333:16 0.00128486
30 *333:14 0.000969274
31 *333:12 0.000947715
32 *333:10 0.00129161
33 *2097:A1 *2099:A1 0.000295922
34 *2103:A1 *2103:B2 9.29377e-06
35 *2103:A1 *335:43 0.000300299
36 *2109:A1 *2110:A2 3.4984e-05
37 *2109:A1 *338:6 0.000125314
38 *2112:A1 *367:8 0.000425227
39 *2112:A1 *367:16 1.02976e-05
40 *2234:A1 *339:10 0.000128275
41 *333:10 *367:8 1.6742e-05
42 *333:18 *339:25 0
43 *333:20 *339:10 0
44 *333:49 *335:54 0.000214499
45 *333:61 *2099:A1 0.000157994
46 *333:61 *2224:A2 1.25565e-05
47 *333:81 *2099:A1 3.76695e-05
48 *2097:A2 *2097:A1 0.000892441
49 *2097:A2 *2221:A1 8.72272e-06
50 *2097:B1 *2097:A1 2.33227e-05
51 *2099:A2 *2097:A1 0.000428237
52 *2100:A2 *2100:A1 4.55265e-05
53 *2100:A2 *2226:A1 2.27632e-05
54 *2102:A2 *2100:A1 7.98965e-05
55 *2102:A2 *333:61 5.5746e-05
56 *2103:B1 *2103:A1 0
57 *2109:A2 *2109:A1 0.0015068
58 *2109:A2 *2237:A1 0.0010289
59 *2109:B1 *2109:A1 6.82897e-05
60 *2111:A2 *2109:A1 8.78861e-05
61 *2112:A2 *2112:A1 2.69418e-05
62 *2114:A2 *2112:A1 1.16613e-05
63 *2221:B *2221:A1 1.30076e-05
64 *2222:A3 *2221:A1 8.37099e-06
65 *2223:A3 *2221:A1 0.000116613
66 *2225:A2 *2226:A1 0.000134226
67 *2225:A2 *333:49 3.53164e-05
68 *2225:A2 *333:57 8.35545e-05
69 *2225:A2 *333:61 0.00178558
70 *2225:B *333:49 8.61751e-05
71 *2225:B *333:57 2.27632e-05
72 *2227:A2 *2221:A1 0
73 *2227:A2 *2222:A1 4.64689e-05
74 *2227:A2 *333:57 9.53346e-05
75 *2227:A2 *333:81 1.70755e-05
76 *2229:A2 *333:26 0.000233152
77 *2229:A2 *333:32 0.000606242
78 *2229:A2 *333:43 0.000118695
79 *2229:B *2103:A1 1.52648e-05
80 *2229:B *2230:A1 3.38005e-05
81 *2229:B *333:32 3.38005e-05
82 *2229:B *333:39 5.7788e-05
83 *2230:A3 *2230:A1 3.27102e-06
84 *2231:A2 *2103:A1 0
85 *2231:A2 *333:26 0.000881823
86 *2231:A2 *333:32 0.000188556
87 *2231:A2 *333:39 3.51545e-05
88 *2231:A2 *333:43 0.000139891
89 *2232:A1 *2106:A1 0.000159343
90 *2233:B *2233:A1 4.06487e-05
91 *2234:A2 *2234:A1 9.16247e-06
92 *2234:A3 *2234:A1 0.000228971
93 *2236:A1 *2109:A1 7.31676e-05
94 *2237:A2 *2237:A1 0.000325187
95 *2237:B *2237:A1 0.000304757
96 *2237:B *2238:A1 1.19937e-05
97 *2238:A2 *2237:A1 6.82897e-05
98 *2239:A2 *2237:A1 3.49578e-05
99 *2258:CLK *2109:A1 0.000134226
100 *2258:CLK *2237:A1 3.51545e-05
101 *2258:CLK *2238:A1 2.72585e-05
102 *2258:CLK *333:12 0.000890215
103 *2258:CLK *333:14 8.90215e-05
104 *2260:CLK *333:26 8.57998e-05
105 *2260:CLK *333:32 0.0001859
106 *216:12 *333:61 4.03982e-05
107 *219:10 *2103:A1 2.33227e-05
108 *222:10 *2106:A1 0.000894839
109 *222:10 *2233:A1 0
110 *225:18 *2237:A1 0.00022363
111 *225:18 *2238:A1 7.63238e-05
112 *225:18 *333:12 0.000214499
113 *225:18 *333:14 4.28999e-05
114 *257:25 *2106:A1 2.27632e-05
115 *259:27 *2100:A1 4.90653e-05
116 *260:6 *2097:A1 0
117 *290:70 *2222:A1 8.94841e-05
118 *290:70 *333:43 0
119 *290:70 *333:49 0
120 *290:74 *2103:A1 0.000318685
121 *290:74 *333:39 4.55265e-05
122 *297:33 *2233:A1 0.00124319
123 *297:33 *2234:A1 0
124 *298:12 *333:10 0
125 *298:12 *333:12 0
126 *298:12 *333:14 0
127 *298:12 *333:16 0
128 *298:12 *333:18 0
129 *298:12 *333:20 0
130 *298:12 *333:26 0
131 *298:22 *2230:A1 7.99511e-05
132 *299:25 *2226:A1 4.4742e-05
133 *300:45 *2221:A1 2.72585e-05
134 *305:26 *2112:A1 3.4984e-05
135 *305:26 *333:10 0.000581644
136 *313:24 *2112:A1 0.00035603
137 *313:24 *333:10 0.000178043
138 *313:24 *333:12 0.000267065
*RES
1 *2367:Z *333:10 10.5354 
2 *333:10 *333:12 3.76161 
3 *333:12 *333:14 0.690908 
4 *333:14 *333:16 2.8404 
5 *333:16 *333:18 1.30505 
6 *333:18 *333:20 1.61212 
7 *333:20 *333:26 4.22222 
8 *333:26 *333:32 5.8215 
9 *333:32 *2229:A1 4.5 
10 *333:32 *333:39 0.29062 
11 *333:39 *333:43 7.3404 
12 *333:43 *333:49 6.70981 
13 *333:49 *333:57 1.16796 
14 *333:57 *333:61 3.53131 
15 *333:61 *2100:A1 5.72828 
16 *333:61 *2226:A1 4.80707 
17 *333:57 *333:81 0.844444 
18 *333:81 *2097:A1 8.95252 
19 *333:81 *2222:A1 5.65151 
20 *333:49 *2225:A1 4.5 
21 *333:43 *2221:A1 11.4401 
22 *333:39 *2103:A1 16.4172 
23 *333:26 *2230:A1 9.32352 
24 *333:20 *2234:A1 12.2078 
25 *333:18 *2233:A1 11.133 
26 *333:16 *2106:A1 11.2263 
27 *333:14 *2238:A1 10.2118 
28 *333:12 *333:179 4.5 
29 *333:179 *2109:A1 9.48989 
30 *333:179 *2237:A1 7.24718 
31 *333:10 *2112:A1 11.3798 
*END

*D_NET *334 0.0733383
*CONN
*I *2194:A1 I *D gf180mcu_fd_sc_mcu7t5v0__and3_1
*I *2076:A1 I *D gf180mcu_fd_sc_mcu7t5v0__aoi22_1
*I *2082:A1 I *D gf180mcu_fd_sc_mcu7t5v0__aoi22_1
*I *2202:A1 I *D gf180mcu_fd_sc_mcu7t5v0__and3_1
*I *2201:A1 I *D gf180mcu_fd_sc_mcu7t5v0__aoi21_1
*I *2197:A1 I *D gf180mcu_fd_sc_mcu7t5v0__aoi21_1
*I *2198:A1 I *D gf180mcu_fd_sc_mcu7t5v0__and3_1
*I *2205:A1 I *D gf180mcu_fd_sc_mcu7t5v0__aoi21_1
*I *2054:A1 I *D gf180mcu_fd_sc_mcu7t5v0__and3_1
*I *2058:A1 I *D gf180mcu_fd_sc_mcu7t5v0__and3_1
*I *2057:A1 I *D gf180mcu_fd_sc_mcu7t5v0__aoi21_1
*I *2146:A1 I *D gf180mcu_fd_sc_mcu7t5v0__aoi22_1
*I *2053:A1 I *D gf180mcu_fd_sc_mcu7t5v0__aoi21_1
*I *2143:A1 I *D gf180mcu_fd_sc_mcu7t5v0__aoi22_1
*I *2217:A1 I *D gf180mcu_fd_sc_mcu7t5v0__aoi21_1
*I *2218:A1 I *D gf180mcu_fd_sc_mcu7t5v0__and3_1
*I *2094:A1 I *D gf180mcu_fd_sc_mcu7t5v0__aoi22_1
*I *2088:A1 I *D gf180mcu_fd_sc_mcu7t5v0__aoi22_1
*I *2209:A1 I *D gf180mcu_fd_sc_mcu7t5v0__aoi21_1
*I *2091:A1 I *D gf180mcu_fd_sc_mcu7t5v0__aoi22_1
*I *2214:A1 I *D gf180mcu_fd_sc_mcu7t5v0__and3_1
*I *2213:A1 I *D gf180mcu_fd_sc_mcu7t5v0__aoi21_1
*I *2210:A1 I *D gf180mcu_fd_sc_mcu7t5v0__and3_1
*I *2206:A1 I *D gf180mcu_fd_sc_mcu7t5v0__and3_1
*I *2085:A1 I *D gf180mcu_fd_sc_mcu7t5v0__aoi22_1
*I *2193:A1 I *D gf180mcu_fd_sc_mcu7t5v0__aoi21_1
*I *2368:Z O *D gf180mcu_fd_sc_mcu7t5v0__buf_4
*CAP
1 *2194:A1 3.19407e-05
2 *2076:A1 0.000629922
3 *2082:A1 6.78777e-05
4 *2202:A1 8.50166e-05
5 *2201:A1 7.9848e-05
6 *2197:A1 0
7 *2198:A1 0.000106112
8 *2205:A1 2.37452e-05
9 *2054:A1 6.03466e-05
10 *2058:A1 2.55879e-05
11 *2057:A1 0.000369714
12 *2146:A1 0.000177843
13 *2053:A1 6.1784e-05
14 *2143:A1 0.000126314
15 *2217:A1 1.86214e-05
16 *2218:A1 2.98903e-05
17 *2094:A1 0.000243122
18 *2088:A1 0.000198707
19 *2209:A1 8.64009e-05
20 *2091:A1 9.47974e-05
21 *2214:A1 0.000277334
22 *2213:A1 0.000847463
23 *2210:A1 0
24 *2206:A1 0
25 *2085:A1 0.000546533
26 *2193:A1 4.11112e-05
27 *2368:Z 0.000914014
28 *334:328 0.000152894
29 *334:269 0.00117579
30 *334:248 0.00132486
31 *334:233 0.000583543
32 *334:187 0.000432783
33 *334:183 0.00115042
34 *334:177 0.00122214
35 *334:175 0.000279019
36 *334:173 0.00064058
37 *334:125 0.000828263
38 *334:102 0.00221552
39 *334:95 0.0012193
40 *334:89 0.000564968
41 *334:87 0.000671078
42 *334:85 0.00174045
43 *334:63 0.00076042
44 *334:59 0.00118202
45 *334:57 0.000990204
46 *334:51 0.00119458
47 *334:43 0.000940289
48 *334:37 0.0010491
49 *334:33 0.00126409
50 *334:29 0.00183773
51 *334:25 0.00089016
52 *334:10 0.00160956
53 *2076:A1 *2077:A2 0
54 *2076:A1 *350:22 1.52648e-05
55 *2085:A1 *2085:B2 0
56 *2085:A1 *2204:A2 7.63238e-05
57 *2094:A1 *2094:B2 2.08238e-05
58 *2094:A1 *2095:A2 1.32768e-05
59 *2094:A1 *2216:A2 0
60 *2143:A1 *359:10 0.000104952
61 *2201:A1 *2200:A2 6.99471e-05
62 *2214:A1 *2091:B2 0.000974734
63 *334:10 *369:316 0.000250623
64 *334:43 *2200:A2 6.70479e-05
65 *334:43 *347:8 0.000230336
66 *334:183 *2144:A2 8.90215e-05
67 *334:183 *359:8 0.000447418
68 *334:183 *359:10 0.00022371
69 *334:248 *348:6 0.001387
70 *334:269 *2056:A2 0.000237507
71 *334:269 *348:6 7.98965e-05
72 *2053:A2 *2053:A1 8.72272e-06
73 *2053:B *2053:A1 4.06487e-05
74 *2053:B *334:233 0.000839402
75 *2053:B *334:248 0.000233167
76 *2055:A3 *2053:A1 9.29377e-06
77 *2055:A3 *334:173 0
78 *2057:B *2057:A1 2.27632e-05
79 *2058:A2 *2057:A1 0.000402597
80 *2058:A2 *2058:A1 4.4742e-05
81 *2059:A3 *2057:A1 4.84438e-05
82 *2076:A2 *2076:A1 0.00064183
83 *2076:A2 *334:29 0
84 *2078:A1 *2076:A1 2.33227e-05
85 *2078:A2 *2076:A1 4.1855e-06
86 *2082:B1 *2082:A1 7.31676e-05
87 *2084:A2 *2082:A1 0.000214122
88 *2084:A2 *2202:A1 0.000348268
89 *2084:A2 *334:43 4.1855e-06
90 *2085:A2 *2085:A1 7.5506e-05
91 *2088:A2 *2088:A1 4.4742e-05
92 *2091:A2 *2091:A1 0.000348348
93 *2091:B1 *2091:A1 0.000186158
94 *2091:B1 *2214:A1 9.68732e-05
95 *2093:A2 *2091:A1 7.98965e-05
96 *2093:A2 *2214:A1 0.000267065
97 *2094:A2 *2094:A1 0.00049957
98 *2094:B1 *2094:A1 5.93477e-05
99 *2095:A1 *2218:A1 6.34119e-05
100 *2095:A1 *334:187 0.000295922
101 *2096:A2 *2094:A1 7.98965e-05
102 *2096:A3 *2094:A1 7.31676e-05
103 *2143:A2 *2054:A1 2.27632e-05
104 *2143:A2 *2143:A1 0.000204869
105 *2143:A2 *334:177 5.93477e-05
106 *2143:B1 *334:183 8.68604e-05
107 *2144:A1 *334:183 3.71751e-05
108 *2145:A1 *334:173 0.000718107
109 *2145:A2 *334:173 0
110 *2146:A2 *334:269 6.69679e-05
111 *2146:B1 *2146:A1 1.85875e-05
112 *2148:A1 *334:248 0.000705661
113 *2148:A1 *334:269 0.000273159
114 *2148:A2 *2146:A1 5.87542e-05
115 *2148:A3 *334:269 1.52683e-05
116 *2192:A1 *2076:A1 0.000626222
117 *2193:A2 *2193:A1 4.06487e-05
118 *2194:A2 *2076:A1 0
119 *2194:A2 *2193:A1 2.33227e-05
120 *2194:A3 *2076:A1 1.73721e-05
121 *2194:A3 *334:25 0.000413455
122 *2195:A1 *334:10 0
123 *2195:A2 *2193:A1 6.8631e-05
124 *2195:A2 *334:10 0.000134226
125 *2195:A3 *2076:A1 0.000300263
126 *2195:A3 *2194:A1 0.000134226
127 *2195:A3 *334:25 0.000261142
128 *2195:A3 *334:29 6.82897e-05
129 *2197:A2 *334:51 0.000118847
130 *2197:B *334:51 0.000132237
131 *2199:A2 *334:43 4.55265e-05
132 *2199:A2 *334:51 0.000143
133 *2199:A2 *334:57 4.28999e-05
134 *2199:A3 *2198:A1 5.82858e-05
135 *2199:A3 *334:43 8.37099e-06
136 *2199:A3 *334:51 0.000186414
137 *2199:A3 *334:57 0.000267065
138 *2201:A2 *334:33 0.000186521
139 *2201:A2 *334:37 0.00079274
140 *2201:B *2201:A1 4.06487e-05
141 *2201:B *2202:A1 1.19937e-05
142 *2201:B *334:33 4.35216e-05
143 *2202:A2 *2202:A1 0.000113776
144 *2203:A3 *334:33 5.71999e-05
145 *2205:A2 *2085:A1 2.76411e-05
146 *2205:A2 *2205:A1 8.72272e-06
147 *2205:A2 *334:63 0.000331693
148 *2206:A2 *334:59 0
149 *2206:A3 *2085:A1 3.05295e-05
150 *2207:A1 *2085:A1 0.000114609
151 *2207:A2 *2085:A1 9.26788e-06
152 *2207:A2 *334:63 3.2886e-06
153 *2207:A3 *334:59 0
154 *2209:A2 *2209:A1 5.77608e-05
155 *2209:B *2209:A1 4.06487e-05
156 *2209:B *334:89 0.000148369
157 *2209:B *334:95 5.93477e-05
158 *2210:A2 *334:95 0.000440188
159 *2211:A2 *2209:A1 8.94841e-05
160 *2211:A2 *334:95 0.0010725
161 *2212:A1 *2213:A1 0.000178968
162 *2213:A2 *2213:A1 3.4984e-05
163 *2213:B *2213:A1 0.00221978
164 *2214:A2 *2214:A1 0.000400155
165 *2214:A2 *334:125 5.21162e-05
166 *2215:A2 *2213:A1 0.00150045
167 *2217:A2 *2217:A1 8.72272e-06
168 *2217:A2 *334:187 0.000169381
169 *2217:B *2217:A1 4.79916e-05
170 *2218:A2 *334:187 0
171 *2219:A2 *2217:A1 0.000112938
172 *2219:A2 *334:183 0.000110257
173 *2250:CLK *334:173 7.95169e-05
174 *2251:D *2146:A1 0.0001287
175 *2251:D *334:183 0
176 *2263:D *2213:A1 0
177 *2265:D *334:95 5.7788e-05
178 *2265:D *334:102 0.00041542
179 *2266:D *2085:A1 0
180 *2266:D *334:63 0
181 *2269:D *334:10 0
182 *2282:D *334:269 0
183 *2282:CLK *2053:A1 2.33227e-05
184 *2283:D *334:87 0
185 *2283:CLK *334:87 0.000512934
186 *2297:D *2214:A1 2.85999e-05
187 *2297:D *334:102 3.4984e-05
188 *2297:D *334:125 0.000343199
189 *2297:CLK *2091:A1 0
190 *2297:CLK *2213:A1 0
191 *2302:D *2076:A1 0
192 *2302:CLK *334:25 0
193 *2302:CLK *334:29 0
194 *2322:I *334:85 0.000145806
195 *2322:I *334:87 0.00102587
196 *207:6 *2213:A1 2.27632e-05
197 *210:6 *2218:A1 1.19937e-05
198 *249:12 *2054:A1 8.94841e-05
199 *249:12 *334:173 0.00111855
200 *249:12 *334:177 0.000139891
201 *249:12 *334:233 0.000419711
202 *261:18 *334:187 0
203 *262:12 *334:125 0
204 *268:16 *2076:A1 4.4742e-05
205 *287:13 *2214:A1 0.000148369
206 *289:10 *334:57 0.00121663
207 *289:34 *2198:A1 0
208 *289:38 *334:57 0
209 *290:37 *2213:A1 2.76376e-05
210 *293:16 *334:87 0
211 *293:16 *334:89 0
212 *293:16 *334:177 0.0001144
213 *293:16 *334:183 8.57998e-05
214 *293:16 *334:233 0.000371799
215 *293:16 *334:248 0.000571999
216 *301:18 *2057:A1 0.000699489
217 *301:18 *334:269 0.000257399
218 *301:27 *2218:A1 0.000134226
219 *301:27 *334:187 0.000357934
220 *302:34 *2213:A1 0.000444738
221 *302:34 *334:125 0.000382155
222 *303:18 *334:87 0.000979237
223 *303:18 *334:173 0.000783389
224 *303:20 *334:87 4.35216e-05
225 *303:20 *334:89 0.000348173
226 *303:20 *334:95 0.000152326
227 *304:18 *334:10 0.0027291
228 *304:20 *334:25 0
229 *304:35 *2085:A1 0.000113776
230 *305:26 *2057:A1 0.000297545
231 *305:26 *2058:A1 4.1855e-06
232 *305:34 *2082:A1 2.27632e-05
233 *305:34 *334:33 0.000573279
234 *305:36 *2082:A1 0.000182106
235 *305:36 *2202:A1 4.55265e-05
236 *307:36 *334:10 4.4307e-05
237 *307:48 *334:10 0.000410958
238 *307:48 *334:51 0.000326413
239 *308:26 *2193:A1 0.000258785
240 *308:26 *334:10 0.000383325
241 *317:14 *334:248 0.00106826
242 *328:32 *334:10 0
243 *328:45 *334:25 0
244 *328:152 *2198:A1 0.000357856
245 *328:161 *334:43 9.20734e-05
246 *328:161 *334:51 1.12853e-05
247 *328:173 *2201:A1 0.000154424
248 *328:173 *334:43 0.000145194
*RES
1 *2368:Z *334:10 11.0252 
2 *334:10 *2193:A1 4.94416 
3 *334:10 *334:25 11.6101 
4 *334:25 *334:29 5.34444 
5 *334:29 *334:33 4.91313 
6 *334:33 *334:37 5.80505 
7 *334:37 *334:43 4.14545 
8 *334:43 *334:51 6.34242 
9 *334:51 *334:57 9.25959 
10 *334:57 *334:59 0.690908 
11 *334:59 *334:63 1.59567 
12 *334:63 *2085:A1 7.43362 
13 *334:63 *2206:A1 4.5 
14 *334:59 *334:85 8.26161 
15 *334:85 *334:87 3.60808 
16 *334:87 *334:89 1.30505 
17 *334:89 *334:95 6.86335 
18 *334:95 *2210:A1 4.5 
19 *334:95 *334:102 4.92958 
20 *334:102 *2213:A1 11.4091 
21 *334:102 *334:125 7.03333 
22 *334:125 *2214:A1 11.5169 
23 *334:125 *2091:A1 9.84444 
24 *334:89 *2209:A1 9.44416 
25 *334:87 *2088:A1 9.69091 
26 *334:85 *334:173 9.7202 
27 *334:173 *334:175 4.5 
28 *334:175 *334:177 0.690908 
29 *334:177 *334:183 9.7202 
30 *334:183 *334:187 1.68889 
31 *334:187 *2094:A1 14.8818 
32 *334:187 *2218:A1 4.79062 
33 *334:183 *2217:A1 5.09769 
34 *334:177 *2143:A1 9.84444 
35 *334:175 *334:233 2.07273 
36 *334:233 *2053:A1 9.29062 
37 *334:233 *334:248 10.0273 
38 *334:248 *2146:A1 14.3444 
39 *334:248 *334:269 13.7596 
40 *334:269 *2057:A1 15.8195 
41 *334:269 *2058:A1 4.65354 
42 *334:173 *2054:A1 4.80707 
43 *334:57 *2205:A1 4.79062 
44 *334:51 *2198:A1 9.61414 
45 *334:43 *2197:A1 4.5 
46 *334:37 *2201:A1 5.09769 
47 *334:33 *334:328 4.5 
48 *334:328 *2202:A1 5.09769 
49 *334:328 *2082:A1 5.34444 
50 *334:29 *2076:A1 13.2222 
51 *334:25 *2194:A1 4.88384 
*END

*D_NET *335 0.0314447
*CONN
*I *2366:I I *D gf180mcu_fd_sc_mcu7t5v0__buf_4
*I *2363:I I *D gf180mcu_fd_sc_mcu7t5v0__buf_4
*I *2141:A1 I *D gf180mcu_fd_sc_mcu7t5v0__nor2_1
*I *2239:A1 I *D gf180mcu_fd_sc_mcu7t5v0__nor3_1
*I *2108:A1 I *D gf180mcu_fd_sc_mcu7t5v0__nor3_1
*I *2231:A1 I *D gf180mcu_fd_sc_mcu7t5v0__nor3_1
*I *2099:A1 I *D gf180mcu_fd_sc_mcu7t5v0__nor3_1
*I *2102:A1 I *D gf180mcu_fd_sc_mcu7t5v0__nor3_1
*I *2227:A1 I *D gf180mcu_fd_sc_mcu7t5v0__nor3_1
*I *2105:A1 I *D gf180mcu_fd_sc_mcu7t5v0__nor3_1
*I *2361:Z O *D gf180mcu_fd_sc_mcu7t5v0__clkbuf_2
*CAP
1 *2366:I 0.000124788
2 *2363:I 8.84288e-05
3 *2141:A1 0.000384757
4 *2239:A1 0.000721694
5 *2108:A1 0.000184792
6 *2231:A1 0.000757372
7 *2099:A1 0.000499711
8 *2102:A1 0.000604109
9 *2227:A1 1.4098e-05
10 *2105:A1 2.42427e-05
11 *2361:Z 0
12 *335:54 0.0018225
13 *335:43 0.0013866
14 *335:35 0.00189126
15 *335:22 0.00216897
16 *335:16 0.00301767
17 *335:14 0.00224765
18 *335:12 0.000828876
19 *335:10 0.000472167
20 *335:6 0.000422142
21 *2102:A1 *2101:A2 2.33227e-05
22 *2102:A1 *341:22 0
23 *2366:I *2137:A2 8.90215e-05
24 *335:43 *340:12 0.000886039
25 *335:43 *341:16 0.00100891
26 *2097:A1 *2099:A1 0.000295922
27 *2102:A2 *2102:A1 1.52648e-05
28 *2102:A3 *2102:A1 0.000149494
29 *2103:A1 *335:43 0.000300299
30 *2104:A1 *335:43 3.91695e-05
31 *2105:A2 *335:35 0.000473208
32 *2227:A3 *335:43 3.71751e-05
33 *2231:A3 *2231:A1 1.16613e-05
34 *2237:B *2239:A1 2.00306e-05
35 *2239:A2 *2239:A1 0.000250396
36 *2261:D *2227:A1 4.55265e-05
37 *2261:D *335:43 0.000273159
38 *2261:CLK *335:43 0.00191203
39 *2261:CLK *335:54 9.13954e-05
40 *2292:D *2108:A1 0
41 *2292:CLK *2239:A1 5.35146e-05
42 *2294:D *2102:A1 0.000272375
43 *2294:CLK *2102:A1 0
44 *2295:D *2099:A1 0
45 *2331:I *2363:I 0.000437672
46 *2336:I *2366:I 8.61751e-05
47 *2350:I *2239:A1 0.000186581
48 *2354:I *2366:I 8.61751e-05
49 *2356:I *335:14 0
50 *2356:I *335:16 0
51 *1:14 *2102:A1 0
52 *216:12 *2102:A1 0
53 *216:12 *335:54 0
54 *219:10 *2231:A1 0
55 *258:8 *2231:A1 0.000137093
56 *258:8 *335:43 5.22259e-05
57 *259:18 *2102:A1 0
58 *259:18 *335:54 8.90215e-05
59 *291:90 *2239:A1 6.78648e-05
60 *297:16 *2363:I 0.000437672
61 *298:12 *2231:A1 0.000124037
62 *298:22 *2231:A1 0
63 *299:10 *2239:A1 0.000195153
64 *299:10 *335:16 0
65 *299:10 *335:22 0
66 *305:26 *2141:A1 0.000411291
67 *311:12 *2366:I 0.000512946
68 *311:12 *335:10 0.00116581
69 *311:12 *335:12 0.000296738
70 *311:12 *335:14 0.000623151
71 *313:24 *2141:A1 0.000100437
72 *323:18 *2239:A1 0.000223629
73 *323:18 *2366:I 0.000152326
74 *323:18 *335:10 0.000522182
75 *323:18 *335:12 0.000296738
76 *323:18 *335:14 0.000919889
77 *333:49 *335:54 0.000214499
78 *333:61 *2099:A1 0.000157994
79 *333:81 *2099:A1 3.76695e-05
*RES
1 *2361:Z *335:6 9 
2 *335:6 *335:10 2.14949 
3 *335:10 *335:12 0.844444 
4 *335:12 *335:14 2.53333 
5 *335:14 *335:16 4.83636 
6 *335:16 *335:22 11.2555 
7 *335:22 *2105:A1 4.65354 
8 *335:22 *335:35 7.26363 
9 *335:35 *335:43 11.0252 
10 *335:43 *2227:A1 4.65354 
11 *335:43 *335:54 7.18687 
12 *335:54 *2102:A1 12.3778 
13 *335:54 *2099:A1 12.1475 
14 *335:35 *2231:A1 12.6848 
15 *335:16 *2108:A1 9.69091 
16 *335:14 *2239:A1 13.2222 
17 *335:12 *2141:A1 10.8424 
18 *335:10 *2363:I 9.75123 
19 *335:6 *2366:I 10.1351 
*END

*D_NET *336 0.00436607
*CONN
*I *2137:A2 I *D gf180mcu_fd_sc_mcu7t5v0__nand2_1
*I *2362:Z O *D gf180mcu_fd_sc_mcu7t5v0__buf_1
*CAP
1 *2137:A2 0.000396492
2 *2362:Z 0.000396492
3 *2137:A2 *2137:A1 5.04875e-05
4 *2329:I *2137:A2 2.96738e-05
5 *2336:I *2137:A2 0.000128088
6 *2354:I *2137:A2 0.00017994
7 *2362:I *2137:A2 0.00022363
8 *2366:I *2137:A2 8.90215e-05
9 *308:26 *2137:A2 6.82897e-05
10 *311:12 *2137:A2 0.000761629
11 *320:20 *2137:A2 0.00022363
12 *323:18 *2137:A2 0.0018187
*RES
1 *2362:Z *2137:A2 22.2222 
*END

*D_NET *2 0.00700032
*CONN
*P p O
*I *2248:Q O *D gf180mcu_fd_sc_mcu7t5v0__dffq_1
*CAP
1 p 0.000879936
2 *2248:Q 0.000879936
3 p *2281:CLK 7.98965e-05
4 p *2337:I 0.00059571
5 p *2358:I 0.0022351
6 p *2361:I 0.00214656
7 p *308:26 0.000183177
*RES
1 *2248:Q p 14.1727 
*END

*D_NET *3 0.00685009
*CONN
*P rst I
*I *2361:I I *D gf180mcu_fd_sc_mcu7t5v0__clkbuf_2
*CAP
1 rst 0.000501769
2 *2361:I 0.000501769
3 *2361:I *2337:I 0.00365446
4 *2361:I *2358:I 4.55265e-05
5 p *2361:I 0.00214656
*RES
1 rst *2361:I 20.4612 
*END

*D_NET *337 0.00913356
*CONN
*I *2139:A2 I *D gf180mcu_fd_sc_mcu7t5v0__nor2_1
*I *2140:A2 I *D gf180mcu_fd_sc_mcu7t5v0__xor3_1
*I *2138:A2 I *D gf180mcu_fd_sc_mcu7t5v0__nand2_1
*I *2249:Q O *D gf180mcu_fd_sc_mcu7t5v0__dffq_1
*CAP
1 *2139:A2 2.42427e-05
2 *2140:A2 0.000186205
3 *2138:A2 7.59227e-05
4 *2249:Q 0.00130917
5 *337:31 0.000574047
6 *337:14 0.00174869
7 *337:14 *2242:A1 0.000447418
8 *337:14 *2367:I 0
9 *2138:A1 *2140:A2 4.66453e-05
10 *2138:A1 *337:31 0.000454687
11 *2140:A1 *2140:A2 0.000178968
12 *2149:A2 *2140:A2 0.000274738
13 *2149:B *2140:A2 0.000137356
14 *228:10 *337:14 7.84519e-05
15 *255:23 *2140:A2 2.33227e-05
16 *286:10 *337:14 0.000492079
17 *303:18 *337:31 0.000295922
18 *304:18 *337:14 0.00141281
19 *308:26 *337:14 0.00137289
*RES
1 *2249:Q *337:14 18.8263 
2 *337:14 *2138:A2 9.38384 
3 *337:14 *337:31 6.34242 
4 *337:31 *2140:A2 5.95858 
5 *337:31 *2139:A2 4.65354 
*END

*D_NET *338 0.0016051
*CONN
*I *2236:A2 I *D gf180mcu_fd_sc_mcu7t5v0__xor2_1
*I *2109:B2 I *D gf180mcu_fd_sc_mcu7t5v0__aoi22_1
*I *2110:A2 I *D gf180mcu_fd_sc_mcu7t5v0__nor2_1
*I *2259:Q O *D gf180mcu_fd_sc_mcu7t5v0__dffq_1
*CAP
1 *2236:A2 0.000168549
2 *2109:B2 0
3 *2110:A2 0.000177654
4 *2259:Q 0.0003349
5 *338:6 0.000344005
6 *2109:A1 *2110:A2 3.4984e-05
7 *2109:A1 *338:6 0.000125314
8 *2109:B1 *2110:A2 0.00012311
9 *2111:A2 *2110:A2 0.000169028
10 *2111:A2 *2236:A2 3.26412e-05
11 *2111:A2 *338:6 3.91468e-05
12 *256:15 *2110:A2 5.57626e-05
*RES
1 *2259:Q *338:6 5.40476 
2 *338:6 *2110:A2 5.89827 
3 *338:6 *2109:B2 4.5 
4 *2259:Q *2236:A2 18.5374 
*END

*D_NET *339 0.00416923
*CONN
*I *2106:B2 I *D gf180mcu_fd_sc_mcu7t5v0__aoi22_1
*I *2232:A2 I *D gf180mcu_fd_sc_mcu7t5v0__xor2_1
*I *2107:A2 I *D gf180mcu_fd_sc_mcu7t5v0__nor2_1
*I *2260:Q O *D gf180mcu_fd_sc_mcu7t5v0__dffq_1
*CAP
1 *2106:B2 0.000193565
2 *2232:A2 0
3 *2107:A2 0.000188168
4 *2260:Q 0.000417426
5 *339:25 0.00031964
6 *339:10 0.000731669
7 *2107:A1 *2106:B2 2.27632e-05
8 *2108:A3 *2106:B2 4.55265e-05
9 *2232:A1 *2106:B2 0.000183177
10 *2234:A1 *339:10 0.000128275
11 *222:10 *2106:B2 1.16613e-05
12 *257:25 *2106:B2 3.05295e-05
13 *297:33 *2106:B2 0.000163259
14 *297:33 *2107:A2 0.000671128
15 *297:33 *339:10 0.000223051
16 *298:12 *339:10 0.000419697
17 *298:12 *339:25 0.000419697
18 *333:18 *339:25 0
19 *333:20 *339:10 0
*RES
1 *2260:Q *339:10 11.6101 
2 *339:10 *2107:A2 10.305 
3 *339:10 *339:25 5.19091 
4 *339:25 *2232:A2 4.5 
5 *339:25 *2106:B2 6.03535 
*END

*D_NET *340 0.0037561
*CONN
*I *2104:A2 I *D gf180mcu_fd_sc_mcu7t5v0__nor2_1
*I *2103:B2 I *D gf180mcu_fd_sc_mcu7t5v0__aoi22_1
*I *2228:A2 I *D gf180mcu_fd_sc_mcu7t5v0__xor2_1
*I *2261:Q O *D gf180mcu_fd_sc_mcu7t5v0__dffq_1
*CAP
1 *2104:A2 0.000530096
2 *2103:B2 0.000263601
3 *2228:A2 0
4 *2261:Q 0
5 *340:12 0.000489128
6 *340:4 0.000755623
7 *2104:A2 *341:16 4.4742e-05
8 *340:12 *341:16 0.000274117
9 *2103:A1 *2103:B2 9.29377e-06
10 *2103:B1 *2103:B2 0.000273159
11 *2104:A1 *2104:A2 0
12 *2104:A1 *340:12 4.28999e-05
13 *2229:B *2103:B2 0
14 *2293:D *2103:B2 0
15 *2293:CLK *2104:A2 0.000164641
16 *258:23 *2103:B2 2.27632e-05
17 *290:74 *2103:B2 0
18 *299:10 *340:12 0
19 *335:43 *340:12 0.000886039
*RES
1 *2261:Q *340:4 4.5 
2 *340:4 *340:12 10.6889 
3 *340:12 *2228:A2 4.5 
4 *340:12 *2103:B2 5.88182 
5 *340:4 *2104:A2 7.18687 
*END

*D_NET *341 0.0118939
*CONN
*I *2224:A2 I *D gf180mcu_fd_sc_mcu7t5v0__xor2_1
*I *2100:B2 I *D gf180mcu_fd_sc_mcu7t5v0__aoi22_1
*I *2101:A2 I *D gf180mcu_fd_sc_mcu7t5v0__nor2_1
*I *2262:Q O *D gf180mcu_fd_sc_mcu7t5v0__dffq_1
*CAP
1 *2224:A2 8.04347e-05
2 *2100:B2 3.84562e-05
3 *2101:A2 0.000148319
4 *2262:Q 0.00226521
5 *341:22 0.000343119
6 *341:16 0.00250199
7 *341:16 *342:12 0.000939498
8 *2100:A2 *341:16 0
9 *2101:A1 *2100:B2 1.19937e-05
10 *2101:A1 *2101:A2 0.000207717
11 *2102:A1 *2101:A2 2.33227e-05
12 *2102:A1 *341:22 0
13 *2102:A2 *2101:A2 0.000282891
14 *2102:A2 *341:16 0.000139894
15 *2102:A2 *341:22 0.000233152
16 *2102:A3 *2100:B2 8.29801e-06
17 *2102:A3 *341:22 8.36274e-05
18 *2104:A2 *341:16 4.4742e-05
19 *2224:A1 *2224:A2 4.4742e-05
20 *2229:A2 *341:16 7.98965e-05
21 *2261:CLK *341:16 0.000282891
22 *2293:CLK *341:16 0.000136579
23 *259:18 *341:16 0.00111934
24 *259:18 *341:22 0.000139891
25 *259:27 *2100:B2 0.000169381
26 *259:27 *2224:A2 0.000134226
27 *259:27 *341:22 0.000402597
28 *290:74 *341:16 0.000736099
29 *299:10 *341:16 0
30 *333:61 *2224:A2 1.25565e-05
31 *335:43 *341:16 0.00100891
32 *340:12 *341:16 0.000274117
*RES
1 *2262:Q *341:16 22.4343 
2 *341:16 *341:22 5.57475 
3 *341:22 *2101:A2 14.6515 
4 *341:22 *2100:B2 4.79062 
5 *341:16 *2224:A2 9.46061 
*END

*D_NET *342 0.0110962
*CONN
*I *2220:A2 I *D gf180mcu_fd_sc_mcu7t5v0__xor2_1
*I *2097:B2 I *D gf180mcu_fd_sc_mcu7t5v0__aoi22_1
*I *2098:A2 I *D gf180mcu_fd_sc_mcu7t5v0__nor2_1
*I *2263:Q O *D gf180mcu_fd_sc_mcu7t5v0__dffq_1
*CAP
1 *2220:A2 3.92117e-05
2 *2097:B2 1.23852e-05
3 *2098:A2 0.000375286
4 *2263:Q 0.00164592
5 *342:18 0.0014172
6 *342:12 0.00271466
7 *2097:A2 *342:12 0.000326412
8 *2097:A2 *342:18 0
9 *2097:B1 *2097:B2 7.98965e-05
10 *2098:A1 *2097:B2 7.98965e-05
11 *2221:B *342:12 0.000885977
12 *2222:A2 *2220:A2 4.4742e-05
13 *2222:A3 *2220:A2 6.82897e-05
14 *2223:A1 *342:12 0.000113008
15 *2223:A3 *2220:A2 1.78876e-05
16 *2223:A3 *342:18 0.000291471
17 *213:6 *2220:A2 6.55151e-05
18 *290:37 *342:18 9.90717e-05
19 *290:44 *2220:A2 0.000178968
20 *290:44 *342:18 0.00106405
21 *290:70 *2220:A2 0.000134226
22 *291:8 *342:12 0.000110968
23 *300:28 *342:12 0.000391695
24 *341:16 *342:12 0.000939498
*RES
1 *2263:Q *342:12 22.405 
2 *342:12 *342:18 9.10606 
3 *342:18 *2098:A2 10.1515 
4 *342:18 *2097:B2 9.13708 
5 *342:12 *2220:A2 5.03737 
*END

*D_NET *343 0.00236003
*CONN
*I *2216:A2 I *D gf180mcu_fd_sc_mcu7t5v0__xor2_1
*I *2094:B2 I *D gf180mcu_fd_sc_mcu7t5v0__aoi22_1
*I *2095:A2 I *D gf180mcu_fd_sc_mcu7t5v0__nor2_1
*I *2264:Q O *D gf180mcu_fd_sc_mcu7t5v0__dffq_1
*CAP
1 *2216:A2 0.000417058
2 *2094:B2 1.52949e-05
3 *2095:A2 0.000215597
4 *2264:Q 0.000214082
5 *343:19 0.00044863
6 *343:8 0.000445957
7 *2094:A1 *2094:B2 2.08238e-05
8 *2094:A1 *2095:A2 1.32768e-05
9 *2094:A1 *2216:A2 0
10 *2094:B1 *2095:A2 8.37099e-06
11 *2094:B1 *2216:A2 0
12 *2096:A2 *2095:A2 4.41256e-05
13 *2096:A2 *2216:A2 0
14 *2096:A2 *343:8 0.000402598
15 *2096:A3 *2094:B2 8.37099e-06
16 *2096:A3 *2095:A2 0
17 *2096:A3 *2216:A2 1.2549e-05
18 *2296:D *2216:A2 5.83066e-05
19 *2296:D *343:8 3.4984e-05
20 *261:18 *2216:A2 0
*RES
1 *2264:Q *343:8 6.34242 
2 *343:8 *2095:A2 6.26565 
3 *343:8 *343:19 0.230303 
4 *343:19 *2094:B2 4.79062 
5 *343:19 *2216:A2 6.34242 
*END

*D_NET *344 0.0120893
*CONN
*I *2212:A2 I *D gf180mcu_fd_sc_mcu7t5v0__xor2_1
*I *2091:B2 I *D gf180mcu_fd_sc_mcu7t5v0__aoi22_1
*I *2092:A2 I *D gf180mcu_fd_sc_mcu7t5v0__nor2_1
*I *2265:Q O *D gf180mcu_fd_sc_mcu7t5v0__dffq_1
*CAP
1 *2212:A2 0
2 *2091:B2 0.000250111
3 *2092:A2 0.000225135
4 *2265:Q 0.000921511
5 *344:12 0.000885332
6 *344:10 0.0013316
7 *2091:B1 *2091:B2 9.32906e-05
8 *2092:A1 *2092:A2 0.000148369
9 *2092:A1 *344:12 0.000207717
10 *2093:A3 *2092:A2 3.05295e-05
11 *2214:A1 *2091:B2 0.000974734
12 *2214:A3 *344:12 0.00181869
13 *2215:A2 *344:10 2.6113e-05
14 *2215:A3 *344:10 0.000801194
15 *2215:A3 *344:12 0.000979184
16 *2264:D *344:10 4.4742e-05
17 *262:10 *344:10 0.00185993
18 *262:10 *344:12 5.93477e-05
19 *287:13 *2092:A2 0
20 *329:83 *2091:B2 0.00120803
21 *329:96 *2091:B2 0.00022371
*RES
1 *2265:Q *344:10 15.602 
2 *344:10 *344:12 3.76161 
3 *344:12 *2092:A2 9.99798 
4 *344:12 *2091:B2 11.6869 
5 *344:10 *2212:A2 9 
*END

*D_NET *345 0.00658999
*CONN
*I *2088:B2 I *D gf180mcu_fd_sc_mcu7t5v0__aoi22_1
*I *2208:A2 I *D gf180mcu_fd_sc_mcu7t5v0__xor2_1
*I *2089:A2 I *D gf180mcu_fd_sc_mcu7t5v0__nor2_1
*I *2266:Q O *D gf180mcu_fd_sc_mcu7t5v0__dffq_1
*CAP
1 *2088:B2 0.000558986
2 *2208:A2 4.05377e-05
3 *2089:A2 0.000368736
4 *2266:Q 0.000646615
5 *345:14 0.000477695
6 *345:12 0.00127402
7 *2088:B1 *2088:B2 0.00018315
8 *2089:A1 *2089:A2 0.000699514
9 *2090:A3 *2089:A2 0
10 *204:10 *2088:B2 0
11 *204:10 *2208:A2 0.000134226
12 *263:10 *2088:B2 0.000660134
13 *263:10 *2089:A2 0.000233152
14 *263:10 *345:12 0.00025482
15 *263:10 *345:14 0.000652899
16 *288:29 *2089:A2 2.33227e-05
17 *289:10 *345:12 0.000156349
18 *289:10 *345:14 0.000225837
*RES
1 *2266:Q *345:12 12.301 
2 *345:12 *345:14 1.15151 
3 *345:14 *2089:A2 11.0727 
4 *345:14 *2208:A2 9.2303 
5 *345:12 *2088:B2 12.4545 
*END

*D_NET *346 0.00771751
*CONN
*I *2204:A2 I *D gf180mcu_fd_sc_mcu7t5v0__xor2_1
*I *2085:B2 I *D gf180mcu_fd_sc_mcu7t5v0__aoi22_1
*I *2086:A2 I *D gf180mcu_fd_sc_mcu7t5v0__nor2_1
*I *2267:Q O *D gf180mcu_fd_sc_mcu7t5v0__dffq_1
*CAP
1 *2204:A2 0.000104087
2 *2085:B2 0.000426209
3 *2086:A2 0.000170946
4 *2267:Q 0.00109311
5 *346:33 0.00102272
6 *346:14 0.00175648
7 *2085:A1 *2085:B2 0
8 *2085:A1 *2204:A2 7.63238e-05
9 *2086:A1 *346:33 0.000274738
10 *2087:A3 *2086:A2 0.000239369
11 *2087:A3 *346:14 0
12 *2087:A3 *346:33 7.95095e-05
13 *2204:A1 *2204:A2 2.27632e-05
14 *2266:D *2085:B2 4.35216e-05
15 *2267:D *346:14 0.000163206
16 *2267:CLK *2085:B2 5.87542e-05
17 *2299:D *2085:B2 0.00129991
18 *2299:D *346:33 0.000512934
19 *2300:CLK *346:14 0
20 *264:10 *346:33 0.000152326
21 *264:19 *2204:A2 0.000113776
22 *264:19 *346:33 0.000106826
*RES
1 *2267:Q *346:14 18.4899 
2 *346:14 *2086:A2 14.6515 
3 *346:14 *346:33 7.26363 
4 *346:33 *2085:B2 11.7636 
5 *346:33 *2204:A2 9.53737 
*END

*D_NET *347 0.0034432
*CONN
*I *2083:A2 I *D gf180mcu_fd_sc_mcu7t5v0__nor2_1
*I *2082:B2 I *D gf180mcu_fd_sc_mcu7t5v0__aoi22_1
*I *2200:A2 I *D gf180mcu_fd_sc_mcu7t5v0__xor2_1
*I *2268:Q O *D gf180mcu_fd_sc_mcu7t5v0__dffq_1
*CAP
1 *2083:A2 0.000163119
2 *2082:B2 0
3 *2200:A2 0.000493389
4 *2268:Q 0.00044526
5 *347:8 0.000775531
6 *2082:B1 *2200:A2 0.000642167
7 *2082:B1 *347:8 4.06487e-05
8 *2084:A2 *2200:A2 0.000128275
9 *2201:A1 *2200:A2 6.99471e-05
10 *2201:B *2200:A2 4.06487e-05
11 *2203:A2 *2200:A2 4.97881e-06
12 *265:12 *2083:A2 0.000280925
13 *265:12 *2200:A2 4.55265e-05
14 *328:173 *2200:A2 1.53966e-05
15 *334:43 *2200:A2 6.70479e-05
16 *334:43 *347:8 0.000230336
*RES
1 *2268:Q *347:8 7.17042 
2 *347:8 *2200:A2 7.04978 
3 *347:8 *2082:B2 4.5 
4 *2200:A2 *2083:A2 10.2283 
*END

*D_NET *348 0.0047626
*CONN
*I *2147:A2 I *D gf180mcu_fd_sc_mcu7t5v0__nor2_1
*I *2056:A2 I *D gf180mcu_fd_sc_mcu7t5v0__xor2_1
*I *2146:B2 I *D gf180mcu_fd_sc_mcu7t5v0__aoi22_1
*I *2250:Q O *D gf180mcu_fd_sc_mcu7t5v0__dffq_1
*CAP
1 *2147:A2 9.96897e-05
2 *2056:A2 0.00027582
3 *2146:B2 0
4 *2250:Q 0.000524923
5 *348:6 0.000701053
6 *2056:A1 *2056:A2 1.79378e-06
7 *2056:A1 *2147:A2 0.000250396
8 *2056:A1 *348:6 1.34534e-05
9 *2146:A2 *2056:A2 5.63676e-05
10 *2146:A2 *348:6 5.31073e-06
11 *2146:B1 *2056:A2 3.05295e-05
12 *2146:B1 *348:6 0.000196929
13 *2148:A1 *348:6 0.000213707
14 *2148:A2 *2056:A2 0.000437831
15 *2148:A3 *2147:A2 0.000250396
16 *266:6 *2147:A2 0
17 *334:248 *348:6 0.001387
18 *334:269 *2056:A2 0.000237507
19 *334:269 *348:6 7.98965e-05
*RES
1 *2250:Q *348:6 8.01486 
2 *348:6 *2146:B2 4.5 
3 *348:6 *2056:A2 6.0518 
4 *2056:A2 *2147:A2 9.99798 
*END

*D_NET *349 0.0101552
*CONN
*I *2079:B2 I *D gf180mcu_fd_sc_mcu7t5v0__aoi22_1
*I *2080:A2 I *D gf180mcu_fd_sc_mcu7t5v0__nor2_1
*I *2196:A2 I *D gf180mcu_fd_sc_mcu7t5v0__xor2_1
*I *2269:Q O *D gf180mcu_fd_sc_mcu7t5v0__dffq_1
*CAP
1 *2079:B2 0.000491305
2 *2080:A2 0.000349529
3 *2196:A2 9.10612e-05
4 *2269:Q 7.78499e-05
5 *349:10 0.00104001
6 *349:6 0.00116857
7 *2079:B2 *369:316 4.26819e-05
8 *349:10 *369:303 7.18107e-05
9 *2079:B1 *2079:B2 6.82897e-05
10 *2079:B1 *349:10 3.91695e-05
11 *2081:A2 *2079:B2 2.99843e-05
12 *2081:A2 *2080:A2 1.90809e-05
13 *2081:A2 *349:10 0
14 *2081:A3 *2080:A2 0.000756447
15 *2196:A1 *349:10 3.91695e-05
16 *2301:D *2196:A2 0.000356086
17 *2301:D *349:10 0.000148369
18 *195:10 *2196:A2 0.000139906
19 *267:8 *349:10 2.6113e-05
20 *289:71 *2080:A2 0.00017492
21 *292:12 *2079:B2 0.000391617
22 *304:18 *2079:B2 0.000894759
23 *304:18 *349:6 0.00049216
24 *305:26 *2080:A2 5.02185e-05
25 *307:48 *2196:A2 0.000445108
26 *307:48 *349:10 0.00120392
27 *308:26 *2079:B2 0.000244867
28 *308:26 *349:6 0.000128275
29 *313:24 *2079:B2 0.000886054
30 *328:32 *2079:B2 0.000258204
31 *328:118 *2079:B2 2.96738e-05
*RES
1 *2269:Q *349:6 5.34444 
2 *349:6 *349:10 7.64747 
3 *349:10 *2196:A2 10.1515 
4 *349:10 *2080:A2 11.2263 
5 *349:6 *2079:B2 17.3219 
*END

*D_NET *350 0.00512768
*CONN
*I *2077:A2 I *D gf180mcu_fd_sc_mcu7t5v0__nor2_1
*I *2076:B2 I *D gf180mcu_fd_sc_mcu7t5v0__aoi22_1
*I *2192:A2 I *D gf180mcu_fd_sc_mcu7t5v0__xor2_1
*I *2270:Q O *D gf180mcu_fd_sc_mcu7t5v0__dffq_1
*CAP
1 *2077:A2 0.000369031
2 *2076:B2 0
3 *2192:A2 0.00167711
4 *2270:Q 0.00144705
5 *350:22 0.000599086
6 *2076:A1 *2077:A2 0
7 *2076:A1 *350:22 1.52648e-05
8 *2078:A1 *2077:A2 1.85875e-05
9 *2173:A3 *2192:A2 0
10 *2192:A1 *350:22 0.000295841
11 *2194:A3 *2192:A2 5.87542e-05
12 *2270:CLK *2192:A2 0
13 *268:10 *2192:A2 0
14 *268:16 *2077:A2 0.000606305
15 *268:16 *2192:A2 0
16 *268:16 *350:22 4.06487e-05
17 *292:78 *2192:A2 0
*RES
1 *2270:Q *2192:A2 24.0646 
2 *2192:A2 *350:22 5.71183 
3 *350:22 *2076:B2 4.5 
4 *350:22 *2077:A2 14.9586 
*END

*D_NET *351 0.00736311
*CONN
*I *2188:A2 I *D gf180mcu_fd_sc_mcu7t5v0__xor2_1
*I *2074:A2 I *D gf180mcu_fd_sc_mcu7t5v0__nor2_1
*I *2073:B2 I *D gf180mcu_fd_sc_mcu7t5v0__aoi22_1
*I *2271:Q O *D gf180mcu_fd_sc_mcu7t5v0__dffq_1
*CAP
1 *2188:A2 0
2 *2074:A2 0.00031051
3 *2073:B2 0
4 *2271:Q 0.00131319
5 *351:14 0.000781952
6 *351:8 0.00178463
7 *2074:A2 *2073:A1 0
8 *2074:A2 *369:291 0.000125389
9 *351:14 *369:291 4.25233e-05
10 *2073:B1 *2074:A2 0
11 *2073:B1 *351:14 0.000626308
12 *2075:A2 *2074:A2 4.66453e-05
13 *2075:A3 *2074:A2 0
14 *2075:A3 *351:8 0
15 *2188:A1 *351:14 0.000492161
16 *2189:B *351:14 3.25796e-05
17 *2191:A2 *351:14 0
18 *2303:CLK *351:8 0.000761629
19 *2303:CLK *351:14 0.000271173
20 *292:55 *351:8 0.000304651
21 *292:70 *351:8 0.000348173
22 *331:98 *351:8 0.000121605
*RES
1 *2271:Q *351:8 16.7535 
2 *351:8 *351:14 7.17042 
3 *351:14 *2073:B2 4.5 
4 *351:14 *2074:A2 6.35887 
5 *351:8 *2188:A2 9 
*END

*D_NET *352 0.00960276
*CONN
*I *2071:A2 I *D gf180mcu_fd_sc_mcu7t5v0__nor2_1
*I *2184:A2 I *D gf180mcu_fd_sc_mcu7t5v0__xor2_1
*I *2070:B2 I *D gf180mcu_fd_sc_mcu7t5v0__aoi22_1
*I *2272:Q O *D gf180mcu_fd_sc_mcu7t5v0__dffq_1
*CAP
1 *2071:A2 0.000134727
2 *2184:A2 6.03246e-05
3 *2070:B2 0.000274556
4 *2272:Q 0.00215389
5 *352:12 0.00055617
6 *352:10 0.00250991
7 *352:10 *2181:A1 0
8 *352:10 *369:230 0
9 *352:10 *369:435 0
10 *2070:A2 *2070:B2 7.10073e-05
11 *2070:B1 *2070:B2 0.000626386
12 *2071:A1 *2071:A2 0.000106826
13 *2072:A2 *2071:A2 2.9291e-05
14 *2072:A3 *2071:A2 2.33227e-05
15 *2072:A3 *352:12 0
16 *2184:A1 *2070:B2 0.000134146
17 *2184:A1 *2184:A2 0.000204829
18 *2275:CLK *352:10 6.82491e-05
19 *2304:D *2184:A2 0.000402597
20 *2304:CLK *2070:B2 0.000169922
21 *186:14 *2070:B2 7.14998e-05
22 *270:8 *352:10 0.000652825
23 *270:12 *2070:B2 0.000233152
24 *270:12 *352:10 0.000326413
25 *270:12 *352:12 0.000792716
*RES
1 *2272:Q *352:10 17.1374 
2 *352:10 *352:12 1.30505 
3 *352:12 *2070:B2 11.0563 
4 *352:12 *2184:A2 9.69091 
5 *352:10 *2071:A2 9.69091 
*END

*D_NET *353 0.00553523
*CONN
*I *2067:B2 I *D gf180mcu_fd_sc_mcu7t5v0__aoi22_1
*I *2068:A2 I *D gf180mcu_fd_sc_mcu7t5v0__nor2_1
*I *2180:A2 I *D gf180mcu_fd_sc_mcu7t5v0__xor2_1
*I *2273:Q O *D gf180mcu_fd_sc_mcu7t5v0__dffq_1
*CAP
1 *2067:B2 0.000127218
2 *2068:A2 0.000191507
3 *2180:A2 0.00113138
4 *2273:Q 0.00102762
5 *353:20 0.000422488
6 *2067:B1 *2067:B2 0.000740173
7 *2069:A1 *2067:B2 0.000885996
8 *2069:A1 *2180:A2 0.000381592
9 *2069:A2 *2067:B2 2.08238e-05
10 *2069:A2 *2068:A2 4.64523e-05
11 *2069:A2 *353:20 7.30225e-06
12 *2069:A3 *2068:A2 9.62006e-05
13 *2180:A1 *2180:A2 1.16613e-05
14 *2182:A3 *353:20 1.25565e-05
15 *2305:D *2180:A2 5.0211e-05
16 *271:14 *2180:A2 0
17 *271:21 *2068:A2 0.000138991
18 *271:21 *2180:A2 2.78813e-05
19 *271:21 *353:20 4.57943e-05
20 *293:53 *2067:B2 0.000169381
21 *293:53 *2068:A2 0
*RES
1 *2273:Q *2180:A2 14.1434 
2 *2180:A2 *353:20 5.11414 
3 *353:20 *2068:A2 5.49798 
4 *353:20 *2067:B2 15.2492 
*END

*D_NET *354 0.00282049
*CONN
*I *2177:A2 I *D gf180mcu_fd_sc_mcu7t5v0__nor2_1
*I *2178:A2 I *D gf180mcu_fd_sc_mcu7t5v0__xor3_1
*I *2176:A2 I *D gf180mcu_fd_sc_mcu7t5v0__nand2_1
*I *2274:Q O *D gf180mcu_fd_sc_mcu7t5v0__dffq_1
*CAP
1 *2177:A2 0.000485954
2 *2178:A2 0
3 *2176:A2 0.000460241
4 *2274:Q 0.000124669
5 *354:21 0.000575277
6 *354:6 0.000674233
7 *2065:A2 *2176:A2 0.000122759
8 *2065:A2 *2177:A2 0
9 *2065:A2 *354:21 4.1855e-06
10 *2065:B *2177:A2 5.71878e-05
11 *2176:A1 *2176:A2 2.71648e-05
12 *2177:A1 *2177:A2 8.36274e-05
13 *2178:A1 *2177:A2 8.94841e-05
14 *2178:A3 *2177:A2 0
15 *272:16 *2177:A2 0.000111525
16 *292:76 *2176:A2 4.1855e-06
*RES
1 *2274:Q *354:6 5.03737 
2 *354:6 *2176:A2 6.49596 
3 *354:6 *354:21 0.767676 
4 *354:21 *2178:A2 4.5 
5 *354:21 *2177:A2 7.03333 
*END

*D_NET *355 0.016512
*CONN
*I *2171:A2 I *D gf180mcu_fd_sc_mcu7t5v0__nand2_1
*I *2173:A2 I *D gf180mcu_fd_sc_mcu7t5v0__xor3_1
*I *2172:A2 I *D gf180mcu_fd_sc_mcu7t5v0__nor2_1
*I *2275:Q O *D gf180mcu_fd_sc_mcu7t5v0__dffq_1
*CAP
1 *2171:A2 0.000423061
2 *2173:A2 9.54704e-05
3 *2172:A2 0.000108702
4 *2275:Q 0.00548489
5 *355:14 0.000350911
6 *355:10 0.00605469
7 *2064:A1 *2172:A2 0
8 *2064:A1 *2173:A2 0
9 *2064:B *2172:A2 4.57943e-05
10 *2065:B *355:10 0.000282891
11 *2171:A1 *2171:A2 0.000353617
12 *2173:A1 *2171:A2 0.000133287
13 *2173:A1 *2172:A2 0.000217238
14 *2173:A1 *2173:A2 0.000402597
15 *2173:A3 *355:10 0.0001573
16 *2173:A3 *355:14 0.0001001
17 *2174:A1 *355:10 0
18 *2176:A1 *355:10 0
19 *2178:A3 *355:10 0.0001859
20 *2273:D *355:10 0.000682498
21 *179:12 *355:10 0.000300299
22 *272:10 *355:10 0.000326412
23 *272:16 *355:10 0
24 *273:23 *2171:A2 0.00041299
25 *273:23 *2172:A2 6.39172e-06
26 *292:76 *355:10 0
27 *328:83 *2171:A2 0.000386934
*RES
1 *2275:Q *355:10 36.3293 
2 *355:10 *355:14 5.03737 
3 *355:14 *2172:A2 5.19091 
4 *355:14 *2173:A2 5.19091 
5 *355:10 *2171:A2 11.8404 
*END

*D_NET *356 0.00382184
*CONN
*I *2167:A2 I *D gf180mcu_fd_sc_mcu7t5v0__nor2_1
*I *2168:A2 I *D gf180mcu_fd_sc_mcu7t5v0__xor3_1
*I *2166:A2 I *D gf180mcu_fd_sc_mcu7t5v0__nand2_1
*I *2276:Q O *D gf180mcu_fd_sc_mcu7t5v0__dffq_1
*CAP
1 *2167:A2 0.000275503
2 *2168:A2 0.000184734
3 *2166:A2 0.000191743
4 *2276:Q 0.000485245
5 *356:19 0.000619465
6 *356:6 0.000836217
7 *2166:A1 *2166:A2 4.4742e-05
8 *2167:A1 *2167:A2 2.27632e-05
9 *2168:A1 *2167:A2 0
10 *2168:A3 *2168:A2 0.000792787
11 *2169:A2 *2168:A2 5.93477e-05
12 *2169:A2 *356:19 0.000296738
13 *2308:D *2167:A2 1.25565e-05
14 *274:12 *356:19 0
*RES
1 *2276:Q *356:6 6.8798 
2 *356:6 *2166:A2 5.65151 
3 *356:6 *356:19 5.49798 
4 *356:19 *2168:A2 10.4586 
5 *356:19 *2167:A2 10.305 
*END

*D_NET *357 0.00480089
*CONN
*I *2162:A2 I *D gf180mcu_fd_sc_mcu7t5v0__nor2_1
*I *2163:A2 I *D gf180mcu_fd_sc_mcu7t5v0__xor3_1
*I *2161:A2 I *D gf180mcu_fd_sc_mcu7t5v0__nand2_1
*I *2277:Q O *D gf180mcu_fd_sc_mcu7t5v0__dffq_1
*CAP
1 *2162:A2 0.000317721
2 *2163:A2 0.00039811
3 *2161:A2 0.000119359
4 *2277:Q 0
5 *357:17 0.00101891
6 *357:4 0.000422442
7 *2062:A2 *2161:A2 1.85875e-05
8 *2062:C *357:17 5.59134e-05
9 *2161:A1 *2161:A2 4.4742e-05
10 *2161:A1 *357:17 0.000795596
11 *2162:A1 *2162:A2 1.52648e-05
12 *2163:A1 *2163:A2 0.000314856
13 *2163:A3 *2162:A2 0.000134145
14 *2163:A3 *2163:A2 0.000315988
15 *2276:CLK *2163:A2 0
16 *2309:D *2163:A2 0.000159343
17 *2309:D *357:17 9.10123e-05
18 *167:12 *357:17 1.99152e-06
19 *332:77 *2162:A2 0.000134226
20 *332:77 *357:17 0.000442678
*RES
1 *2277:Q *357:4 4.5 
2 *357:4 *2161:A2 5.34444 
3 *357:4 *357:17 3.0707 
4 *357:17 *2163:A2 7.87777 
5 *357:17 *2162:A2 5.88182 
*END

*D_NET *358 0.0111649
*CONN
*I *2156:A2 I *D gf180mcu_fd_sc_mcu7t5v0__nand2_1
*I *2157:A2 I *D gf180mcu_fd_sc_mcu7t5v0__nor2_1
*I *2158:A2 I *D gf180mcu_fd_sc_mcu7t5v0__xor3_1
*I *2278:Q O *D gf180mcu_fd_sc_mcu7t5v0__dffq_1
*CAP
1 *2156:A2 0.000622636
2 *2157:A2 0.000167128
3 *2158:A2 0.000258913
4 *2278:Q 0.00304788
5 *358:10 0.00409656
6 *2156:A2 *2150:A1 0
7 *2061:A2 *2156:A2 4.55265e-05
8 *2061:B *2156:A2 0.000878778
9 *2061:B *2157:A2 0.000402676
10 *2061:C *2156:A2 6.32397e-05
11 *2150:A2 *2156:A2 0
12 *2154:A1 *358:10 0
13 *2156:A1 *2156:A2 0.000378395
14 *2158:A3 *2156:A2 0.00106414
15 *2158:A3 *2157:A2 8.37099e-06
16 *2160:A2 *2158:A2 0
17 *2279:D *2156:A2 3.47442e-05
18 *2310:D *2156:A2 9.59308e-05
19 *2311:CLK *358:10 0
20 *276:8 *358:10 0
21 *276:12 *2158:A2 0
22 *276:12 *358:10 0
23 *278:10 *358:10 0
24 *322:16 *2158:A2 0
25 *322:16 *358:10 0
26 *332:60 *358:10 0
27 *332:71 *358:10 0
28 *332:109 *358:10 0
*RES
1 *2278:Q *358:10 21.2828 
2 *358:10 *2158:A2 10.305 
3 *358:10 *2157:A2 10.0747 
4 *358:10 *2156:A2 21.7616 
*END

*D_NET *359 0.00381943
*CONN
*I *2144:A2 I *D gf180mcu_fd_sc_mcu7t5v0__nor2_1
*I *2143:B2 I *D gf180mcu_fd_sc_mcu7t5v0__aoi22_1
*I *2052:A2 I *D gf180mcu_fd_sc_mcu7t5v0__xor2_1
*I *2251:Q O *D gf180mcu_fd_sc_mcu7t5v0__dffq_1
*CAP
1 *2144:A2 0.000367236
2 *2143:B2 0
3 *2052:A2 0.000272612
4 *2251:Q 0.000183284
5 *359:10 0.000483957
6 *359:8 0.000761865
7 *2052:A1 *2052:A2 0.000635974
8 *2052:A1 *359:10 0.000124639
9 *2143:A1 *359:10 0.000104952
10 *2143:A2 *2052:A2 5.08239e-06
11 *2143:A2 *359:8 4.1855e-06
12 *2143:A2 *359:10 2.84016e-05
13 *2143:B1 *2052:A2 0
14 *2144:A1 *359:10 2.92985e-05
15 *2145:A2 *2052:A2 2.72585e-05
16 *2145:A3 *2144:A2 3.05295e-05
17 *2251:D *2144:A2 0
18 *249:12 *2052:A2 0
19 *293:16 *2144:A2 0
20 *334:183 *2144:A2 8.90215e-05
21 *334:183 *359:8 0.000447418
22 *334:183 *359:10 0.00022371
*RES
1 *2251:Q *359:8 5.72828 
2 *359:8 *359:10 1.21183 
3 *359:10 *2052:A2 6.12857 
4 *359:10 *2143:B2 4.5 
5 *359:8 *2144:A2 15.1121 
*END

*D_NET *360 0.00291443
*CONN
*I *2151:A2 I *D gf180mcu_fd_sc_mcu7t5v0__nand2_1
*I *2153:A2 I *D gf180mcu_fd_sc_mcu7t5v0__xor3_1
*I *2152:A2 I *D gf180mcu_fd_sc_mcu7t5v0__nor2_1
*I *2279:Q O *D gf180mcu_fd_sc_mcu7t5v0__dffq_1
*CAP
1 *2151:A2 0.000408989
2 *2153:A2 0.000637381
3 *2152:A2 2.42427e-05
4 *2279:Q 9.95775e-05
5 *360:6 0.000352212
6 *2060:A2 *2151:A2 2.22387e-05
7 *2060:B *2153:A2 8.46903e-05
8 *2060:B *360:6 0.000223709
9 *2151:A1 *2151:A2 0.000355269
10 *2151:A1 *2153:A2 1.63551e-06
11 *2151:A1 *360:6 6.1059e-05
12 *2153:A1 *2151:A2 0.000295922
13 *2153:A1 *2153:A2 0.000198442
14 *2311:D *2151:A2 0
15 *2311:CLK *2151:A2 8.82675e-05
16 *278:12 *2151:A2 4.55265e-05
17 *278:12 *2153:A2 1.52648e-05
*RES
1 *2279:Q *360:6 5.19091 
2 *360:6 *2152:A2 4.65354 
3 *360:6 *2153:A2 6.03535 
4 *2153:A2 *2151:A2 11.5333 
*END

*D_NET *361 0.0112479
*CONN
*I *2131:A2 I *D gf180mcu_fd_sc_mcu7t5v0__nor2_1
*I *2130:B2 I *D gf180mcu_fd_sc_mcu7t5v0__aoi22_1
*I *2048:A2 I *D gf180mcu_fd_sc_mcu7t5v0__xor2_1
*I *2252:Q O *D gf180mcu_fd_sc_mcu7t5v0__dffq_1
*CAP
1 *2131:A2 0.00027119
2 *2130:B2 0.000305171
3 *2048:A2 0.00013941
4 *2252:Q 0.00102871
5 *361:12 0.000702936
6 *361:10 0.00155825
7 *2130:B2 *2130:A1 1.02976e-05
8 *361:10 *369:277 0.000300299
9 *2046:A3 *361:10 0.000296738
10 *2130:B1 *2130:B2 0.000626386
11 *2131:A1 *2131:A2 0.000523514
12 *2132:A2 *2130:B2 6.10318e-05
13 *2132:A2 *2131:A2 9.62589e-05
14 *280:16 *2130:B2 8.94841e-05
15 *292:23 *2048:A2 0.000326413
16 *292:23 *361:10 0.00172532
17 *292:23 *361:12 0.000885977
18 *292:38 *361:10 0.00186521
19 *303:18 *2048:A2 0.00022371
20 *303:18 *2130:B2 9.16247e-06
21 *310:18 *361:10 6.82491e-05
22 *331:72 *361:10 0.000134146
*RES
1 *2252:Q *361:10 15.9091 
2 *361:10 *361:12 1.45858 
3 *361:12 *2048:A2 9.92121 
4 *361:12 *2130:B2 10.9795 
5 *361:10 *2131:A2 10.9192 
*END

*D_NET *362 0.00824304
*CONN
*I *2128:A2 I *D gf180mcu_fd_sc_mcu7t5v0__nor2_1
*I *2127:B2 I *D gf180mcu_fd_sc_mcu7t5v0__aoi22_1
*I *2044:A2 I *D gf180mcu_fd_sc_mcu7t5v0__xor2_1
*I *2253:Q O *D gf180mcu_fd_sc_mcu7t5v0__dffq_1
*CAP
1 *2128:A2 7.62317e-05
2 *2127:B2 9.11621e-05
3 *2044:A2 0.000283392
4 *2253:Q 0.000866548
5 *362:14 0.000648918
6 *362:12 0.00121714
7 *362:12 *369:212 7.14998e-05
8 *2042:A2 *362:12 2.6113e-05
9 *2042:A3 *362:12 8.68604e-05
10 *2044:A1 *2044:A2 0.000295325
11 *2044:A1 *362:14 5.21162e-05
12 *2127:A2 *2044:A2 0
13 *2127:A2 *2127:B2 6.50564e-05
14 *2127:A2 *2128:A2 5.83066e-05
15 *2127:A2 *362:14 0
16 *2127:B1 *2127:B2 2.37087e-05
17 *2129:A3 *2128:A2 3.05295e-05
18 *2175:A2 *2044:A2 0.000313193
19 *2285:D *2127:B2 0.000118847
20 *240:10 *362:12 5.21162e-05
21 *243:10 *2044:A2 0.000313194
22 *281:8 *2128:A2 0.000113816
23 *281:19 *362:12 8.68604e-05
24 *281:19 *362:14 0.000277953
25 *330:54 *362:12 0.00279436
26 *330:67 *362:12 0.000279794
*RES
1 *2253:Q *362:12 15.0646 
2 *362:12 *362:14 1.45858 
3 *362:14 *2044:A2 10.8424 
4 *362:14 *2127:B2 9.59769 
5 *362:12 *2128:A2 9.53737 
*END

*D_NET *363 0.00534681
*CONN
*I *2125:A2 I *D gf180mcu_fd_sc_mcu7t5v0__nor2_1
*I *2124:B2 I *D gf180mcu_fd_sc_mcu7t5v0__aoi22_1
*I *2040:A2 I *D gf180mcu_fd_sc_mcu7t5v0__xor2_1
*I *2254:Q O *D gf180mcu_fd_sc_mcu7t5v0__dffq_1
*CAP
1 *2125:A2 0.000168904
2 *2124:B2 0
3 *2040:A2 0.000567948
4 *2254:Q 0.00117322
5 *363:12 0.00157226
6 *2040:A2 *2124:A1 1.2549e-05
7 *2043:A1 *2040:A2 2.98728e-05
8 *2043:A1 *363:12 7.30225e-06
9 *2043:A3 *2040:A2 7.63238e-05
10 *2124:A2 *2040:A2 7.30225e-06
11 *2124:A2 *363:12 7.2674e-05
12 *2124:B1 *2040:A2 8.37099e-06
13 *2125:A1 *2125:A2 4.55265e-05
14 *2126:A2 *2040:A2 2.49886e-06
15 *2126:A2 *363:12 2.29062e-05
16 *2126:A3 *2125:A2 0.000139311
17 *2253:D *2040:A2 9.32698e-05
18 *2286:D *2125:A2 1.90854e-05
19 *240:10 *2125:A2 4.55265e-05
20 *282:16 *2125:A2 0.000152112
21 *295:46 *363:12 0.000682498
22 *311:30 *2125:A2 0.000447339
23 *311:30 *363:12 0
24 *322:16 *363:12 0
25 *322:22 *363:12 0
*RES
1 *2254:Q *363:12 19.3947 
2 *363:12 *2040:A2 6.2821 
3 *363:12 *2124:B2 4.5 
4 *2040:A2 *2125:A2 10.5354 
*END

*D_NET *364 0.00361877
*CONN
*I *2036:A2 I *D gf180mcu_fd_sc_mcu7t5v0__xor2_1
*I *2121:B2 I *D gf180mcu_fd_sc_mcu7t5v0__aoi22_1
*I *2122:A2 I *D gf180mcu_fd_sc_mcu7t5v0__nor2_1
*I *2255:Q O *D gf180mcu_fd_sc_mcu7t5v0__dffq_1
*CAP
1 *2036:A2 0
2 *2121:B2 0.000275927
3 *2122:A2 0.000128296
4 *2255:Q 0.000231268
5 *364:10 0.000635491
6 *2122:A2 *369:174 0.00049216
7 *364:10 *369:170 0.000105774
8 *364:10 *369:174 0.000357856
9 *2121:A2 *2121:B2 6.30649e-06
10 *2121:B1 *2121:B2 0.000746106
11 *2123:A3 *2121:B2 8.48671e-05
12 *2165:A2 *2122:A2 0.000139085
13 *2165:A2 *364:10 0.00034572
14 *330:27 *2121:B2 6.52824e-05
15 *330:31 *2121:B2 4.63394e-06
*RES
1 *2255:Q *364:10 5.95858 
2 *364:10 *2122:A2 5.65151 
3 *364:10 *2121:B2 15.0957 
4 *364:10 *2036:A2 4.5 
*END

*D_NET *365 0.0118343
*CONN
*I *2032:A2 I *D gf180mcu_fd_sc_mcu7t5v0__xor2_1
*I *2119:A2 I *D gf180mcu_fd_sc_mcu7t5v0__nor2_1
*I *2118:B2 I *D gf180mcu_fd_sc_mcu7t5v0__aoi22_1
*I *2256:Q O *D gf180mcu_fd_sc_mcu7t5v0__dffq_1
*CAP
1 *2032:A2 8.39826e-05
2 *2119:A2 0.000229787
3 *2118:B2 0
4 *2256:Q 0.000659643
5 *365:26 0.000753809
6 *365:20 0.00126765
7 *2032:A2 *369:16 0.000134226
8 *2119:A2 *2118:A1 2.58215e-05
9 *365:20 *2033:A1 0.000562605
10 *365:26 *2118:A1 2.33227e-05
11 *365:26 *369:29 8.57998e-05
12 *365:26 *369:31 0.0001287
13 *2032:A1 *2032:A2 0.000104232
14 *2032:A1 *365:26 0.000295325
15 *2033:B *365:20 5.60951e-05
16 *2035:A2 *365:20 0.000158194
17 *2118:A2 *365:20 0.000233152
18 *2118:B1 *2119:A2 3.26412e-05
19 *2118:B1 *365:26 0.00038576
20 *2120:A2 *2119:A2 0.000194506
21 *2120:A2 *365:26 8.50465e-05
22 *2120:A3 *2119:A2 0.000466312
23 *284:12 *365:26 0.000191093
24 *300:26 *2119:A2 0.000185316
25 *300:26 *365:26 4.35216e-05
26 *306:20 *2032:A2 0.000134226
27 *306:20 *365:20 0.00272917
28 *307:30 *365:20 0.000760532
29 *310:18 *365:20 0.000620528
30 *321:24 *365:20 0.000227632
31 *324:14 *365:20 0.000152608
32 *326:14 *2119:A2 7.69984e-05
33 *330:12 *2032:A2 0.000326413
34 *330:12 *365:26 0.000419688
*RES
1 *2256:Q *365:20 24.9859 
2 *365:20 *365:26 7.93809 
3 *365:26 *2118:B2 4.5 
4 *365:26 *2119:A2 15.3589 
5 *365:20 *2032:A2 9.76768 
*END

*D_NET *366 0.0049019
*CONN
*I *2116:A2 I *D gf180mcu_fd_sc_mcu7t5v0__nor2_1
*I *2115:B2 I *D gf180mcu_fd_sc_mcu7t5v0__aoi22_1
*I *2244:A2 I *D gf180mcu_fd_sc_mcu7t5v0__xor2_1
*I *2257:Q O *D gf180mcu_fd_sc_mcu7t5v0__dffq_1
*CAP
1 *2116:A2 0.000312282
2 *2115:B2 6.53391e-05
3 *2244:A2 5.85736e-05
4 *2257:Q 0.000390408
5 *366:21 0.00061409
6 *366:6 0.00068545
7 *2115:B2 *2115:A1 1.19937e-05
8 *366:6 *369:97 4.57943e-05
9 *366:6 *369:107 0.000213679
10 *366:21 *2115:A1 0.00022363
11 *2115:A2 *2116:A2 0.000192007
12 *2115:A2 *366:21 0.000349176
13 *2115:B1 *2115:B2 4.55265e-05
14 *2115:B1 *2116:A2 0.000114246
15 *2117:A2 *366:21 0.000191093
16 *2256:CLK *366:6 7.30225e-06
17 *2289:CLK *2115:B2 7.98965e-05
18 *2289:CLK *2116:A2 0.000159343
19 *2289:CLK *366:21 4.57943e-05
20 *231:10 *2244:A2 0
21 *231:10 *366:6 0
22 *295:16 *366:21 0.000413455
23 *301:18 *2244:A2 9.10123e-05
24 *301:18 *366:6 0.000591804
*RES
1 *2257:Q *366:6 6.57273 
2 *366:6 *2244:A2 4.80707 
3 *366:6 *366:21 10.8424 
4 *366:21 *2115:B2 5.02092 
5 *366:21 *2116:A2 15.2657 
*END

*D_NET *367 0.00576339
*CONN
*I *2112:B2 I *D gf180mcu_fd_sc_mcu7t5v0__aoi22_1
*I *2240:A2 I *D gf180mcu_fd_sc_mcu7t5v0__xor2_1
*I *2113:A2 I *D gf180mcu_fd_sc_mcu7t5v0__nor2_1
*I *2258:Q O *D gf180mcu_fd_sc_mcu7t5v0__dffq_1
*CAP
1 *2112:B2 0
2 *2240:A2 0.000439272
3 *2113:A2 0.000344993
4 *2258:Q 0.000434325
5 *367:16 0.000864155
6 *367:8 0.000514214
7 *2112:A1 *367:8 0.000425227
8 *2112:A1 *367:16 1.02976e-05
9 *2112:A2 *2240:A2 0.000195847
10 *2112:A2 *367:8 1.99152e-06
11 *2112:A2 *367:16 1.34793e-05
12 *2112:B1 *367:16 0.000178888
13 *2113:A1 *2113:A2 0.000100049
14 *2113:A1 *2240:A2 2.85999e-05
15 *2114:A3 *2113:A2 1.30565e-05
16 *225:18 *2113:A2 0
17 *286:12 *2240:A2 0.000142974
18 *291:69 *2113:A2 0.000402596
19 *291:69 *367:8 9.29778e-05
20 *291:69 *367:16 4.97409e-05
21 *300:26 *2113:A2 0.000225837
22 *300:26 *2240:A2 0.000364814
23 *305:26 *2240:A2 0.000250355
24 *313:24 *367:8 0.000402598
25 *329:14 *2240:A2 0.000250355
26 *333:10 *367:8 1.6742e-05
*RES
1 *2258:Q *367:8 7.51039 
2 *367:8 *367:16 5.25123 
3 *367:16 *2113:A2 10.8424 
4 *367:16 *2240:A2 11.4566 
5 *367:8 *2112:B2 4.5 
*END

*D_NET *4 0.00653728
*CONN
*P x[0] I
*I *2362:I I *D gf180mcu_fd_sc_mcu7t5v0__buf_1
*CAP
1 x[0] 0.000556419
2 *2362:I 0.000556419
3 *2362:I *2137:A2 0.00022363
4 *2362:I *2329:I 0.00382583
5 *2362:I *2347:I 0.00114223
6 *2362:I *2349:I 4.55265e-05
7 *2362:I *320:20 0.000187224
*RES
1 x[0] *2362:I 12.4071 
*END

*D_NET *5 0.0094523
*CONN
*P x[10] I
*I *2329:I I *D gf180mcu_fd_sc_mcu7t5v0__buf_1
*CAP
1 x[10] 0.000500697
2 *2329:I 0.000500697
3 *2329:I *2137:A2 2.96738e-05
4 *2329:I *2334:I 0.000430479
5 *2329:I *2353:I 0.00336887
6 *2329:I *311:12 0.000326427
7 *2329:I *320:20 0.000339055
8 *2329:I *323:18 0.000130565
9 *2362:I *2329:I 0.00382583
*RES
1 x[10] *2329:I 22.0212 
*END

*D_NET *6 0.00700471
*CONN
*P x[11] I
*I *2330:I I *D gf180mcu_fd_sc_mcu7t5v0__buf_1
*CAP
1 x[11] 0.00173455
2 *2330:I 0.00173455
3 *2330:I *2331:I 0.00102435
4 *2330:I *2334:I 0.00105264
5 *2330:I *2342:I 7.43502e-05
6 *2330:I *2347:I 0.000819477
7 *2330:I *2356:I 0.000564796
8 *1:12 *2330:I 0
*RES
1 x[11] *2330:I 23.9404 
*END

*D_NET *7 0.00885343
*CONN
*P x[12] I
*I *2331:I I *D gf180mcu_fd_sc_mcu7t5v0__buf_1
*CAP
1 x[12] 0.0013459
2 *2331:I 0.0013459
3 *2331:I *2332:I 0.00135583
4 *2331:I *2344:I 4.55265e-05
5 *2331:I *2346:I 0
6 *2331:I *2350:I 0.000519002
7 *2331:I *2356:I 0.000433038
8 *2331:I *2358:I 0.000134226
9 *2331:I *2363:I 0.000437672
10 *2331:I *297:16 0.000346326
11 *2331:I *305:26 0.00155395
12 *2331:I *325:14 0.000204869
13 *2331:I *329:14 0.000106853
14 *2330:I *2331:I 0.00102435
*RES
1 x[12] *2331:I 16.399 
*END

*D_NET *8 0.00553286
*CONN
*P x[13] I
*I *2332:I I *D gf180mcu_fd_sc_mcu7t5v0__buf_1
*CAP
1 x[13] 0.00163718
2 *2332:I 0.00163718
3 *2332:I *2344:I 4.55265e-05
4 *2332:I *2350:I 0.000819477
5 *2332:I *2356:I 3.76695e-05
6 *2331:I *2332:I 0.00135583
7 *1:12 *2332:I 0
*RES
1 x[13] *2332:I 23.9404 
*END

*D_NET *9 0.00536264
*CONN
*P x[14] I
*I *2333:I I *D gf180mcu_fd_sc_mcu7t5v0__buf_1
*CAP
1 x[14] 0.000759895
2 *2333:I 0.000759895
3 *2333:I *2335:I 0.000819477
4 *2333:I *2340:I 0.000186581
5 *2333:I *2348:I 0
6 *2333:I *2349:I 0.00156597
7 *2333:I *2351:I 0.00022371
8 *2333:I *2352:I 2.27632e-05
9 *2333:I *2359:I 0.00102435
10 *1:12 *2333:I 0
*RES
1 x[14] *2333:I 20.7162 
*END

*D_NET *10 0.011017
*CONN
*P x[15] I
*I *2334:I I *D gf180mcu_fd_sc_mcu7t5v0__buf_1
*CAP
1 x[15] 0.00129367
2 *2334:I 0.00129367
3 *2334:I *2338:I 0.000865003
4 *2334:I *2347:I 2.33227e-05
5 *2334:I *2349:I 0.00242077
6 *2334:I *2352:I 0.00192391
7 *2334:I *294:52 0.000111525
8 *2334:I *296:12 0.00121732
9 *2334:I *309:18 0.000134226
10 *2334:I *320:20 0.000250437
11 *2329:I *2334:I 0.000430479
12 *2330:I *2334:I 0.00105264
13 *1:12 *2334:I 0
*RES
1 x[15] *2334:I 25.7828 
*END

*D_NET *11 0.00539249
*CONN
*P x[16] I
*I *2335:I I *D gf180mcu_fd_sc_mcu7t5v0__buf_1
*CAP
1 x[16] 0.000639558
2 *2335:I 0.000639558
3 *2335:I *2349:I 0.000671649
4 *2335:I *2359:I 0.00182106
5 *2335:I *311:12 0.000801194
6 *2333:I *2335:I 0.000819477
*RES
1 x[16] *2335:I 21.7141 
*END

*D_NET *12 0.00931168
*CONN
*P x[17] I
*I *2336:I I *D gf180mcu_fd_sc_mcu7t5v0__buf_1
*CAP
1 x[17] 0.00114663
2 *2336:I 0.00114663
3 *2336:I *2137:A1 0.000801029
4 *2336:I *2137:A2 0.000128088
5 *2336:I *2140:A3 9.16247e-06
6 *2336:I *2149:A2 0.0017289
7 *2336:I *2281:D 6.82897e-05
8 *2336:I *2338:I 9.29377e-05
9 *2336:I *2342:I 3.05295e-05
10 *2336:I *2346:I 0.00302048
11 *2336:I *2354:I 0.00101592
12 *2336:I *2366:I 8.61751e-05
13 *2336:I *151:12 1.41602e-05
14 *2336:I *332:8 0
15 *2336:I *369:67 2.27632e-05
*RES
1 x[17] *2336:I 15.9384 
*END

*D_NET *13 0.0116861
*CONN
*P x[18] I
*I *2337:I I *D gf180mcu_fd_sc_mcu7t5v0__buf_1
*CAP
1 x[18] 0.00089552
2 *2337:I 0.00089552
3 *2337:I *2281:CLK 4.06487e-05
4 *2337:I *2341:I 2.27632e-05
5 *2337:I *2344:I 0.00433989
6 *2337:I *304:18 7.63238e-05
7 *2337:I *308:26 5.8582e-05
8 *2337:I *309:18 0.00049216
9 *2337:I *329:14 0.000614526
10 p *2337:I 0.00059571
11 *2361:I *2337:I 0.00365446
*RES
1 x[18] *2337:I 15.3242 
*END

*D_NET *14 0.00720662
*CONN
*P x[19] I
*I *2338:I I *D gf180mcu_fd_sc_mcu7t5v0__buf_1
*CAP
1 x[19] 0.000953574
2 *2338:I 0.000953574
3 *2338:I *2342:I 0.00206533
4 *2338:I *2346:I 1.95847e-05
5 *2338:I *2347:I 0.000175791
6 *2338:I *2356:I 0.00033007
7 *2338:I *311:12 0.00175076
8 *2334:I *2338:I 0.000865003
9 *2336:I *2338:I 9.29377e-05
*RES
1 x[19] *2338:I 24.1707 
*END

*D_NET *15 0.00770152
*CONN
*P x[1] I
*I *2339:I I *D gf180mcu_fd_sc_mcu7t5v0__buf_1
*CAP
1 x[1] 0.00106023
2 *2339:I 0.00106023
3 *2339:I *2340:I 0.00111101
4 *2339:I *2343:I 0.00223785
5 *2339:I *2351:I 0.00194482
6 *2339:I *2360:I 2.78813e-05
7 *1:12 *2339:I 0.000259501
*RES
1 x[1] *2339:I 22.7121 
*END

*D_NET *16 0.00715749
*CONN
*P x[20] I
*I *2340:I I *D gf180mcu_fd_sc_mcu7t5v0__buf_1
*CAP
1 x[20] 0.00103035
2 *2340:I 0.00103035
3 *2340:I *2343:I 7.53315e-05
4 *2340:I *2345:I 0.000260581
5 *2340:I *2348:I 0.00111931
6 *2340:I *2351:I 6.1059e-05
7 *2340:I *2355:I 0.000228944
8 *2340:I *2360:I 0.00111855
9 *2340:I *321:24 0.000134226
10 *2333:I *2340:I 0.000186581
11 *2339:I *2340:I 0.00111101
12 *1:12 *2340:I 0.000801194
*RES
1 x[20] *2340:I 23.403 
*END

*D_NET *17 0.00977662
*CONN
*P x[21] I
*I *2341:I I *D gf180mcu_fd_sc_mcu7t5v0__buf_1
*CAP
1 x[21] 0.00107673
2 *2341:I 0.00107673
3 *2341:I *2344:I 0.00290823
4 *2341:I *2346:I 0.0022138
5 *2341:I *2350:I 0.000226636
6 *2341:I *2356:I 0.00150237
7 *2341:I *311:12 0.000167858
8 *2341:I *313:24 0.000581486
9 *2337:I *2341:I 2.27632e-05
10 *1:12 *2341:I 0
*RES
1 x[21] *2341:I 23.9404 
*END

*D_NET *18 0.00919369
*CONN
*P x[22] I
*I *2342:I I *D gf180mcu_fd_sc_mcu7t5v0__buf_1
*CAP
1 x[22] 0.00106108
2 *2342:I 0.00106108
3 *2342:I *2344:I 0.00109727
4 *2342:I *2346:I 0.00290022
5 *2342:I *2356:I 6.82897e-05
6 *2342:I *297:16 0.000253984
7 *2342:I *329:14 0.000581563
8 *2330:I *2342:I 7.43502e-05
9 *2336:I *2342:I 3.05295e-05
10 *2338:I *2342:I 0.00206533
11 *1:12 *2342:I 0
*RES
1 x[22] *2342:I 24.9384 
*END

*D_NET *19 0.00783252
*CONN
*P x[23] I
*I *2343:I I *D gf180mcu_fd_sc_mcu7t5v0__buf_1
*CAP
1 x[23] 0.0011575
2 *2343:I 0.0011575
3 *2343:I *2345:I 0.000865003
4 *2343:I *2348:I 0.000865003
5 *2343:I *2351:I 0.00069947
6 *2343:I *2357:I 0.000474781
7 *2343:I *306:20 0.000300067
8 *2339:I *2343:I 0.00223785
9 *2340:I *2343:I 7.53315e-05
*RES
1 x[23] *2343:I 23.7101 
*END

*D_NET *20 0.0143402
*CONN
*P x[24] I
*I *2344:I I *D gf180mcu_fd_sc_mcu7t5v0__buf_1
*CAP
1 x[24] 0.00118875
2 *2344:I 0.00118875
3 *2344:I *2354:I 0.00125902
4 *2344:I *2356:I 4.57943e-05
5 *2344:I *297:16 0.000156678
6 *2344:I *308:26 0.00153884
7 *2344:I *323:18 0.000391695
8 *2344:I *329:14 0.000134226
9 *2331:I *2344:I 4.55265e-05
10 *2332:I *2344:I 4.55265e-05
11 *2337:I *2344:I 0.00433989
12 *2341:I *2344:I 0.00290823
13 *2342:I *2344:I 0.00109727
*RES
1 x[24] *2344:I 35.1667 
*END

*D_NET *21 0.00580818
*CONN
*P x[25] I
*I *2345:I I *D gf180mcu_fd_sc_mcu7t5v0__buf_1
*CAP
1 x[25] 0.00141781
2 *2345:I 0.00141781
3 *2345:I *2348:I 0.000558539
4 *2345:I *2355:I 0.000256549
5 *2345:I *2357:I 0.00101884
6 *2345:I *2360:I 0
7 *2345:I *311:12 0
8 *2340:I *2345:I 0.000260581
9 *2343:I *2345:I 0.000865003
10 *1:12 *2345:I 1.30565e-05
*RES
1 x[25] *2345:I 23.403 
*END

*D_NET *22 0.0111979
*CONN
*P x[26] I
*I *2346:I I *D gf180mcu_fd_sc_mcu7t5v0__buf_1
*CAP
1 x[26] 0.000934744
2 *2346:I 0.000934744
3 *2346:I *2350:I 0.000699514
4 *2346:I *2356:I 0.000474781
5 *2331:I *2346:I 0
6 *2336:I *2346:I 0.00302048
7 *2338:I *2346:I 1.95847e-05
8 *2341:I *2346:I 0.0022138
9 *2342:I *2346:I 0.00290022
10 *1:12 *2346:I 0
*RES
1 x[26] *2346:I 24.5545 
*END

*D_NET *23 0.00685608
*CONN
*P x[27] I
*I *2347:I I *D gf180mcu_fd_sc_mcu7t5v0__buf_1
*CAP
1 x[27] 0.00133371
2 *2347:I 0.00133371
3 *2347:I *2149:B 1.6742e-05
4 *2347:I *2349:I 4.55265e-05
5 *2347:I *255:23 0
6 *2347:I *320:20 0.00137996
7 *2347:I *325:14 0.000341408
8 *2347:I *332:8 0.00021695
9 *2347:I *332:16 2.72585e-05
10 *2330:I *2347:I 0.000819477
11 *2334:I *2347:I 2.33227e-05
12 *2338:I *2347:I 0.000175791
13 *2362:I *2347:I 0.00114223
*RES
1 x[27] *2347:I 15.401 
*END

*D_NET *24 0.00709365
*CONN
*P x[28] I
*I *2348:I I *D gf180mcu_fd_sc_mcu7t5v0__buf_1
*CAP
1 x[28] 0.00106156
2 *2348:I 0.00106156
3 *2348:I *2355:I 8.78954e-05
4 *2348:I *300:26 4.18475e-05
5 *2348:I *302:18 0.000911008
6 *2348:I *331:6 0.00138692
7 *2333:I *2348:I 0
8 *2340:I *2348:I 0.00111931
9 *2343:I *2348:I 0.000865003
10 *2345:I *2348:I 0.000558539
*RES
1 x[28] *2348:I 14.6333 
*END

*D_NET *25 0.00853212
*CONN
*P x[29] I
*I *2349:I I *D gf180mcu_fd_sc_mcu7t5v0__buf_1
*CAP
1 x[29] 0.00118881
2 *2349:I 0.00118881
3 *2349:I *2352:I 0.000841456
4 *2349:I *2359:I 0.000209727
5 *2349:I *296:12 0.000216531
6 *2349:I *301:18 0
7 *2349:I *319:14 0.000137356
8 *2333:I *2349:I 0.00156597
9 *2334:I *2349:I 0.00242077
10 *2335:I *2349:I 0.000671649
11 *2347:I *2349:I 4.55265e-05
12 *2362:I *2349:I 4.55265e-05
*RES
1 x[29] *2349:I 23.8636 
*END

*D_NET *26 0.00675808
*CONN
*P x[2] I
*I *2350:I I *D gf180mcu_fd_sc_mcu7t5v0__buf_1
*CAP
1 x[2] 0.00130555
2 *2350:I 0.00130555
3 *2350:I *2239:A1 0.000186581
4 *2350:I *2356:I 0.0012968
5 *2350:I *311:12 0.000250314
6 *2350:I *313:24 4.1855e-05
7 *2350:I *323:18 0.000106799
8 *2331:I *2350:I 0.000519002
9 *2332:I *2350:I 0.000819477
10 *2341:I *2350:I 0.000226636
11 *2346:I *2350:I 0.000699514
12 *1:12 *2350:I 0
*RES
1 x[2] *2350:I 23.9404 
*END

*D_NET *27 0.00889288
*CONN
*P x[30] I
*I *2351:I I *D gf180mcu_fd_sc_mcu7t5v0__buf_1
*CAP
1 x[30] 0.000637838
2 *2351:I 0.000637838
3 *2351:I *2355:I 0.00183442
4 *2351:I *2357:I 0.000326413
5 *2351:I *2359:I 0.000549264
6 *2351:I *2360:I 0.00183442
7 *2333:I *2351:I 0.00022371
8 *2339:I *2351:I 0.00194482
9 *2340:I *2351:I 6.1059e-05
10 *2343:I *2351:I 0.00069947
11 *1:12 *2351:I 0.000143621
*RES
1 x[30] *2351:I 22.2515 
*END

*D_NET *28 0.00524467
*CONN
*P x[31] I
*I *2352:I I *D gf180mcu_fd_sc_mcu7t5v0__buf_1
*CAP
1 x[31] 0.000457845
2 *2352:I 0.000457845
3 *2352:I *2353:I 0.00133314
4 *2352:I *311:12 0.000207717
5 *2333:I *2352:I 2.27632e-05
6 *2334:I *2352:I 0.00192391
7 *2349:I *2352:I 0.000841456
*RES
1 x[31] *2352:I 20.4859 
*END

*D_NET *29 0.00537717
*CONN
*P x[3] I
*I *2353:I I *D gf180mcu_fd_sc_mcu7t5v0__buf_1
*CAP
1 x[3] 0.000337583
2 *2353:I 0.000337583
3 *2329:I *2353:I 0.00336887
4 *2352:I *2353:I 0.00133314
*RES
1 x[3] *2353:I 11.2555 
*END

*D_NET *30 0.010316
*CONN
*P x[4] I
*I *2354:I I *D gf180mcu_fd_sc_mcu7t5v0__buf_1
*CAP
1 x[4] 0.00109855
2 *2354:I 0.00109855
3 *2354:I *2137:A1 0
4 *2354:I *2137:A2 0.00017994
5 *2354:I *2281:CLK 1.30565e-05
6 *2354:I *2358:I 0.00477046
7 *2354:I *2366:I 8.61751e-05
8 *2354:I *297:16 0.000214499
9 *2354:I *308:26 0.000579796
10 *2336:I *2354:I 0.00101592
11 *2344:I *2354:I 0.00125902
*RES
1 x[4] *2354:I 24.9384 
*END

*D_NET *31 0.0079142
*CONN
*P x[5] I
*I *2355:I I *D gf180mcu_fd_sc_mcu7t5v0__buf_1
*CAP
1 x[5] 0.00104601
2 *2355:I 0.00104601
3 *2355:I *2357:I 0.000956056
4 *2355:I *2360:I 0.000887766
5 *2355:I *302:18 0.000739011
6 *2355:I *321:24 0.000831527
7 *2340:I *2355:I 0.000228944
8 *2345:I *2355:I 0.000256549
9 *2348:I *2355:I 8.78954e-05
10 *2351:I *2355:I 0.00183442
*RES
1 x[5] *2355:I 15.3242 
*END

*D_NET *32 0.00710651
*CONN
*P x[6] I
*I *2356:I I *D gf180mcu_fd_sc_mcu7t5v0__buf_1
*CAP
1 x[6] 0.00111117
2 *2356:I 0.00111117
3 *2356:I *311:12 0.000130565
4 *2356:I *335:14 0
5 *2356:I *335:16 0
6 *2330:I *2356:I 0.000564796
7 *2331:I *2356:I 0.000433038
8 *2332:I *2356:I 3.76695e-05
9 *2338:I *2356:I 0.00033007
10 *2341:I *2356:I 0.00150237
11 *2342:I *2356:I 6.82897e-05
12 *2344:I *2356:I 4.57943e-05
13 *2346:I *2356:I 0.000474781
14 *2350:I *2356:I 0.0012968
15 *1:12 *2356:I 0
*RES
1 x[6] *2356:I 23.9404 
*END

*D_NET *33 0.0060037
*CONN
*P x[7] I
*I *2357:I I *D gf180mcu_fd_sc_mcu7t5v0__buf_1
*CAP
1 x[7] 0.00152085
2 *2357:I 0.00152085
3 *2343:I *2357:I 0.000474781
4 *2345:I *2357:I 0.00101884
5 *2351:I *2357:I 0.000326413
6 *2355:I *2357:I 0.000956056
7 *1:12 *2357:I 0.0001859
*RES
1 x[7] *2357:I 23.9404 
*END

*D_NET *34 0.0107599
*CONN
*P x[8] I
*I *2358:I I *D gf180mcu_fd_sc_mcu7t5v0__buf_1
*CAP
1 x[8] 0.00120957
2 *2358:I 0.00120957
3 *2358:I *2141:A2 0
4 *2358:I *2281:CLK 0.000233155
5 *2358:I *297:16 0.000326425
6 *2358:I *305:26 0.000134226
7 *2358:I *308:26 0.000227632
8 *2358:I *325:14 0.000234059
9 p *2358:I 0.0022351
10 *2331:I *2358:I 0.000134226
11 *2354:I *2358:I 0.00477046
12 *2361:I *2358:I 4.55265e-05
*RES
1 x[8] *2358:I 25.1687 
*END

*D_NET *35 0.00570137
*CONN
*P x[9] I
*I *2359:I I *D gf180mcu_fd_sc_mcu7t5v0__buf_1
*CAP
1 x[9] 0.000692211
2 *2359:I 0.000692211
3 *2359:I *300:26 0.000133043
4 *2359:I *319:14 0.000402597
5 *2359:I *332:26 0.000176908
6 *2333:I *2359:I 0.00102435
7 *2335:I *2359:I 0.00182106
8 *2349:I *2359:I 0.000209727
9 *2351:I *2359:I 0.000549264
*RES
1 x[9] *2359:I 13.1747 
*END

*D_NET *36 0.00870799
*CONN
*P y I
*I *2360:I I *D gf180mcu_fd_sc_mcu7t5v0__buf_1
*CAP
1 y 0.000952461
2 *2360:I 0.000952461
3 *2360:I *311:12 0.00175076
4 *2339:I *2360:I 2.78813e-05
5 *2340:I *2360:I 0.00111855
6 *2345:I *2360:I 0
7 *2351:I *2360:I 0.00183442
8 *2355:I *2360:I 0.000887766
9 *1:12 *2360:I 0.00118369
*RES
1 y *2360:I 24.1707 
*END

*D_NET *369 0.120179
*CONN
*I *2150:A1 I *D gf180mcu_fd_sc_mcu7t5v0__nand2_1
*I *2155:A1 I *D gf180mcu_fd_sc_mcu7t5v0__nand2_1
*I *2134:A1 I *D gf180mcu_fd_sc_mcu7t5v0__aoi21_1
*I *2133:A1 I *D gf180mcu_fd_sc_mcu7t5v0__and3_1
*I *2038:A1 I *D gf180mcu_fd_sc_mcu7t5v0__and3_1
*I *2160:A1 I *D gf180mcu_fd_sc_mcu7t5v0__nand2_1
*I *2037:A1 I *D gf180mcu_fd_sc_mcu7t5v0__aoi21_1
*I *2121:A1 I *D gf180mcu_fd_sc_mcu7t5v0__aoi22_1
*I *2124:A1 I *D gf180mcu_fd_sc_mcu7t5v0__aoi22_1
*I *2042:A1 I *D gf180mcu_fd_sc_mcu7t5v0__and3_1
*I *2041:A1 I *D gf180mcu_fd_sc_mcu7t5v0__aoi21_1
*I *2181:A1 I *D gf180mcu_fd_sc_mcu7t5v0__aoi21_1
*I *2182:A1 I *D gf180mcu_fd_sc_mcu7t5v0__and3_1
*I *2067:A1 I *D gf180mcu_fd_sc_mcu7t5v0__aoi22_1
*I *2070:A1 I *D gf180mcu_fd_sc_mcu7t5v0__aoi22_1
*I *2045:A1 I *D gf180mcu_fd_sc_mcu7t5v0__aoi21_1
*I *2046:A1 I *D gf180mcu_fd_sc_mcu7t5v0__and3_1
*I *2073:A1 I *D gf180mcu_fd_sc_mcu7t5v0__aoi22_1
*I *2189:A1 I *D gf180mcu_fd_sc_mcu7t5v0__aoi21_1
*I *2190:A1 I *D gf180mcu_fd_sc_mcu7t5v0__and3_1
*I *2170:A1 I *D gf180mcu_fd_sc_mcu7t5v0__nand2_1
*I *2130:A1 I *D gf180mcu_fd_sc_mcu7t5v0__aoi22_1
*I *2050:A1 I *D gf180mcu_fd_sc_mcu7t5v0__and3_1
*I *2049:A1 I *D gf180mcu_fd_sc_mcu7t5v0__aoi21_1
*I *2368:I I *D gf180mcu_fd_sc_mcu7t5v0__buf_4
*I *2079:A1 I *D gf180mcu_fd_sc_mcu7t5v0__aoi22_1
*I *2186:A1 I *D gf180mcu_fd_sc_mcu7t5v0__and3_1
*I *2185:A1 I *D gf180mcu_fd_sc_mcu7t5v0__aoi21_1
*I *2175:A1 I *D gf180mcu_fd_sc_mcu7t5v0__nand2_1
*I *2165:A1 I *D gf180mcu_fd_sc_mcu7t5v0__nand2_1
*I *2127:A1 I *D gf180mcu_fd_sc_mcu7t5v0__aoi22_1
*I *2033:A1 I *D gf180mcu_fd_sc_mcu7t5v0__aoi21_1
*I *2118:A1 I *D gf180mcu_fd_sc_mcu7t5v0__aoi22_1
*I *2246:A1 I *D gf180mcu_fd_sc_mcu7t5v0__and3_1
*I *2245:A1 I *D gf180mcu_fd_sc_mcu7t5v0__aoi21_1
*I *2115:A1 I *D gf180mcu_fd_sc_mcu7t5v0__aoi22_1
*I *2137:A1 I *D gf180mcu_fd_sc_mcu7t5v0__nand2_1
*I *2367:I I *D gf180mcu_fd_sc_mcu7t5v0__buf_2
*I *2242:A1 I *D gf180mcu_fd_sc_mcu7t5v0__and3_1
*I *2241:A1 I *D gf180mcu_fd_sc_mcu7t5v0__aoi21_1
*I *2034:A1 I *D gf180mcu_fd_sc_mcu7t5v0__and3_1
*I *2280:Q O *D gf180mcu_fd_sc_mcu7t5v0__dffq_2
*CAP
1 *2150:A1 0.000406667
2 *2155:A1 0.00028376
3 *2134:A1 0
4 *2133:A1 8.98769e-05
5 *2038:A1 0
6 *2160:A1 0.000982351
7 *2037:A1 2.68849e-05
8 *2121:A1 0.000177863
9 *2124:A1 0.000511743
10 *2042:A1 0
11 *2041:A1 0
12 *2181:A1 0.000229943
13 *2182:A1 0
14 *2067:A1 0.000179681
15 *2070:A1 2.47512e-05
16 *2045:A1 0.000115839
17 *2046:A1 0
18 *2073:A1 2.23381e-05
19 *2189:A1 6.94461e-05
20 *2190:A1 5.43819e-05
21 *2170:A1 4.04668e-05
22 *2130:A1 0.000699923
23 *2050:A1 0
24 *2049:A1 0
25 *2368:I 0.000129747
26 *2079:A1 4.699e-05
27 *2186:A1 0
28 *2185:A1 0.000206312
29 *2175:A1 2.11271e-05
30 *2165:A1 0.000104494
31 *2127:A1 0.000269104
32 *2033:A1 0.000424189
33 *2118:A1 0.000164819
34 *2246:A1 0
35 *2245:A1 1.03807e-05
36 *2115:A1 0.000186132
37 *2137:A1 0.000350957
38 *2367:I 0.000529078
39 *2242:A1 0.000184151
40 *2241:A1 0.000179479
41 *2034:A1 1.38714e-05
42 *2280:Q 5.38984e-05
43 *369:575 0.000934186
44 *369:560 0.000547275
45 *369:518 0.00133684
46 *369:510 0.000658971
47 *369:439 0.000499205
48 *369:435 0.000657296
49 *369:350 0.00118684
50 *369:329 0.000964791
51 *369:316 0.000893124
52 *369:303 0.000853384
53 *369:299 0.000691322
54 *369:297 0.000395519
55 *369:295 0.000447071
56 *369:291 0.00146075
57 *369:277 0.00183867
58 *369:273 0.00127454
59 *369:251 0.000338498
60 *369:236 0.000298348
61 *369:234 0.00147464
62 *369:230 0.00153277
63 *369:226 0.00134302
64 *369:222 0.000599622
65 *369:212 0.000527277
66 *369:200 0.00107398
67 *369:189 0.000468194
68 *369:174 0.00122493
69 *369:170 0.00124572
70 *369:166 0.00139949
71 *369:160 0.00105974
72 *369:107 0.000528102
73 *369:97 0.00100249
74 *369:67 0.00131902
75 *369:48 0.000789189
76 *369:37 0.000841774
77 *369:31 0.00134786
78 *369:29 0.000552304
79 *369:27 0.000687855
80 *369:16 0.000410033
81 *369:10 0.000978163
82 *369:6 0.000788632
83 *2032:A1 *369:27 0.000326413
84 *2032:A1 *369:29 0.000652881
85 *2032:A2 *369:16 0.000134226
86 *2033:B *2033:A1 6.26274e-05
87 *2035:A2 *2033:A1 1.73721e-05
88 *2037:A2 *369:518 0.000326412
89 *2037:B *2037:A1 1.30076e-05
90 *2037:B *2160:A1 0.000233167
91 *2037:B *369:518 0.000699479
92 *2039:A1 *2121:A1 0.000233152
93 *2039:A1 *2160:A1 0.000104232
94 *2039:A1 *369:518 0.000104232
95 *2039:A3 *2037:A1 4.06487e-05
96 *2040:A2 *2124:A1 1.2549e-05
97 *2041:A2 *369:222 0.000686393
98 *2041:A2 *369:226 1.19937e-05
99 *2041:B *369:222 6.59146e-05
100 *2041:B *369:226 2.27632e-05
101 *2042:A2 *369:212 0.000139891
102 *2043:A2 *369:212 8.94841e-05
103 *2043:A2 *369:222 0.000635348
104 *2043:A3 *2124:A1 0.000282891
105 *2045:A2 *2045:A1 8.72272e-06
106 *2046:A3 *369:273 0
107 *2046:A3 *369:277 0
108 *2049:A2 *369:329 2.15813e-05
109 *2049:A2 *369:350 0.000214043
110 *2051:A2 *369:329 6.8631e-05
111 *2051:A2 *369:350 1.43e-05
112 *2051:A3 *369:350 0.000233248
113 *2061:A2 *2155:A1 0.000402597
114 *2067:A2 *2067:A1 0.000581644
115 *2067:A2 *369:439 8.94841e-05
116 *2070:A2 *369:234 0
117 *2072:A2 *2070:A1 3.05295e-05
118 *2073:A2 *369:291 4.30876e-05
119 *2073:A2 *369:295 0.00107255
120 *2073:A2 *369:297 0.000279791
121 *2073:B1 *369:291 2.27632e-05
122 *2074:A2 *2073:A1 0
123 *2074:A2 *369:291 0.000125389
124 *2075:A2 *369:291 0.000130597
125 *2075:A3 *369:291 4.66453e-05
126 *2079:B1 *369:316 1.31061e-05
127 *2079:B2 *369:316 4.26819e-05
128 *2081:A2 *369:316 8.78861e-05
129 *2112:A2 *2242:A1 0.000152326
130 *2115:A2 *2115:A1 0.000165206
131 *2115:A2 *2245:A1 1.19937e-05
132 *2115:B1 *2115:A1 4.55265e-05
133 *2115:B2 *2115:A1 1.19937e-05
134 *2117:A2 *2115:A1 0.000100068
135 *2118:A2 *2033:A1 2.85999e-05
136 *2118:A2 *369:27 0.000178043
137 *2118:A2 *369:29 0.000801194
138 *2119:A2 *2118:A1 2.58215e-05
139 *2120:A2 *2118:A1 0.000258863
140 *2121:A2 *2121:A1 0.00022363
141 *2121:A2 *369:170 3.05023e-05
142 *2121:A2 *369:174 3.05295e-05
143 *2122:A2 *369:174 0.00049216
144 *2123:A2 *2121:A1 0
145 *2123:A3 *369:174 2.20732e-05
146 *2124:B1 *2124:A1 0.000553909
147 *2127:A2 *369:273 0
148 *2129:A1 *2127:A1 0
149 *2129:A2 *2127:A1 5.41653e-05
150 *2129:A3 *2127:A1 0.000121605
151 *2129:A3 *369:174 0.000137383
152 *2130:A2 *2130:A1 3.55704e-05
153 *2130:B2 *2130:A1 1.02976e-05
154 *2132:A2 *2130:A1 2.33227e-05
155 *2134:B *369:560 0.000348268
156 *2134:B *369:575 0.000233155
157 *2135:A3 *369:575 0.000178043
158 *2137:A2 *2137:A1 5.04875e-05
159 *2138:A1 *369:67 5.604e-05
160 *2142:A2 *369:560 0.000124639
161 *2149:A2 *369:67 0.000281729
162 *2150:A2 *2150:A1 1.38205e-05
163 *2155:A2 *2155:A1 9.26789e-06
164 *2155:A2 *369:575 0.00231481
165 *2156:A1 *2155:A1 0.000429763
166 *2156:A2 *2150:A1 0
167 *2160:A2 *2160:A1 2.71648e-05
168 *2160:A2 *369:560 0.000565781
169 *2165:A2 *2165:A1 2.71648e-05
170 *2165:A2 *369:170 0.000209883
171 *2165:A2 *369:174 0.000372747
172 *2165:A2 *369:510 2.27632e-05
173 *2165:A2 *369:518 0.000318645
174 *2175:A2 *2045:A1 0.000706283
175 *2175:A2 *2175:A1 1.52648e-05
176 *2175:A2 *369:6 0.000113776
177 *2175:A2 *369:10 0.000933252
178 *2175:A2 *369:236 0.000152648
179 *2175:A2 *369:273 0.000427413
180 *2183:A2 *2181:A1 7.98965e-05
181 *2185:A2 *2185:A1 0.000216822
182 *2186:A2 *2185:A1 0.000113776
183 *2186:A3 *2185:A1 0.000134494
184 *2187:A3 *369:234 0
185 *2187:A3 *369:251 0.000239369
186 *2189:B *2189:A1 8.61751e-05
187 *2190:A2 *369:297 0.000699508
188 *2190:A3 *2190:A1 3.4984e-05
189 *2190:A3 *369:295 0.000118695
190 *2190:A3 *369:297 0.000563803
191 *2241:B *2241:A1 4.06487e-05
192 *2243:A2 *2241:A1 0.000214123
193 *2245:B *2115:A1 2.27632e-05
194 *2245:B *2245:A1 4.06487e-05
195 *2245:B *369:107 0.000886003
196 *2247:A2 *369:107 0.00107251
197 *2253:D *2124:A1 5.21162e-05
198 *2253:D *369:200 0.000456977
199 *2256:CLK *369:107 9.1053e-05
200 *2272:CLK *2181:A1 4.06487e-05
201 *2279:D *2150:A1 0.00125907
202 *2279:D *369:575 0.00181875
203 *2279:CLK *2150:A1 0.000534129
204 *2279:CLK *369:575 0.000148369
205 *2281:D *2137:A1 4.55265e-05
206 *2287:D *2121:A1 0
207 *2289:CLK *2115:A1 1.41602e-05
208 *2303:D *2073:A1 4.1855e-06
209 *2312:CLK *369:6 0.000178888
210 *2312:CLK *369:10 0.000348347
211 *2336:I *2137:A1 0.000801029
212 *2336:I *369:67 2.27632e-05
213 *2354:I *2137:A1 0
214 *149:8 *369:560 0.00022363
215 *163:10 *2150:A1 0.000373063
216 *163:10 *369:575 0.000233158
217 *167:12 *2160:A1 4.66304e-05
218 *171:10 *2124:A1 0.00077152
219 *171:10 *369:189 2.17608e-05
220 *171:10 *369:200 0.000739868
221 *175:16 *2170:A1 0.000116649
222 *175:16 *2190:A1 9.1053e-05
223 *179:12 *2185:A1 4.66453e-05
224 *186:14 *2185:A1 1.30076e-05
225 *189:10 *369:295 0.000504455
226 *270:8 *369:230 0
227 *270:12 *369:230 0
228 *279:10 *369:560 8.90215e-05
229 *281:19 *2127:A1 8.70433e-05
230 *284:12 *369:29 0.000512949
231 *292:38 *369:291 0.000390339
232 *292:42 *369:291 7.43502e-05
233 *293:16 *369:234 0.000215432
234 *293:16 *369:273 0
235 *293:16 *369:277 0
236 *293:27 *369:230 4.56977e-05
237 *293:27 *369:234 0.000104452
238 *293:49 *369:230 0.00022196
239 *293:53 *2067:A1 0
240 *293:53 *369:226 0.000128275
241 *293:53 *369:439 0
242 *293:79 *2181:A1 7.14998e-05
243 *293:79 *369:230 4.56977e-05
244 *293:79 *369:435 0.0001001
245 *294:37 *369:97 0.000984322
246 *294:37 *369:107 0.000447339
247 *295:16 *369:107 0.000118695
248 *295:119 *369:510 8.94841e-05
249 *295:119 *369:518 0.000626304
250 *296:12 *2367:I 0.00133532
251 *298:12 *2367:I 0.00135235
252 *300:26 *2118:A1 0
253 *300:26 *2242:A1 0.000156349
254 *300:26 *369:31 4.66362e-05
255 *300:26 *369:37 0.00200523
256 *300:26 *369:48 0.000312697
257 *301:18 *369:97 0.00048326
258 *303:18 *2241:A1 5.82858e-05
259 *303:18 *369:37 6.9968e-05
260 *303:18 *369:67 0.000278797
261 *304:18 *2130:A1 0.000715707
262 *304:18 *369:316 4.57943e-05
263 *304:18 *369:329 0.00179918
264 *304:18 *369:350 0.000324067
265 *305:26 *2367:I 3.4984e-05
266 *306:20 *2034:A1 8.94841e-05
267 *306:20 *369:16 0.000476183
268 *307:30 *2033:A1 0.000182106
269 *307:30 *2034:A1 8.94841e-05
270 *307:30 *369:16 0.00098432
271 *307:30 *369:291 0.000138121
272 *307:36 *369:291 0.000282891
273 *307:36 *369:297 0.000178043
274 *307:36 *369:299 0.000207717
275 *307:36 *369:303 0.00121663
276 *307:36 *369:316 4.23449e-05
277 *307:48 *369:316 0.000181364
278 *308:26 *2137:A1 0.00144895
279 *308:26 *2242:A1 0.000447339
280 *308:26 *369:67 0.00109997
281 *309:18 *2189:A1 1.52648e-05
282 *309:22 *2189:A1 3.38005e-05
283 *310:18 *2045:A1 0.000177419
284 *310:18 *2175:A1 0
285 *310:18 *369:10 0.000139011
286 *311:30 *2150:A1 0
287 *311:30 *2160:A1 5.9347e-05
288 *311:30 *369:226 0.000468952
289 *311:30 *369:439 3.51545e-05
290 *311:32 *369:439 0.00121754
291 *313:24 *2367:I 3.4984e-05
292 *313:24 *369:303 4.35216e-05
293 *320:20 *2115:A1 0.000104931
294 *320:28 *2130:A1 0.00191199
295 *320:28 *369:350 6.52824e-06
296 *321:24 *2033:A1 0.000671128
297 *322:16 *369:16 0.0010725
298 *322:16 *369:160 0.000885977
299 *322:22 *369:212 0.000984322
300 *322:22 *369:222 8.94841e-05
301 *323:18 *2121:A1 0.000139891
302 *323:18 *2133:A1 0.000850097
303 *323:18 *369:166 0.00165537
304 *323:29 *2121:A1 0.000279782
305 *323:29 *369:166 0
306 *323:29 *369:510 0
307 *323:29 *369:518 0.000148369
308 *324:12 *2033:A1 1.43e-05
309 *324:12 *2133:A1 0.000894759
310 *324:12 *369:166 0.00125083
311 *324:14 *369:27 2.96738e-05
312 *325:14 *2241:A1 0
313 *325:14 *369:37 0
314 *326:14 *2118:A1 0.000701658
315 *326:14 *369:29 1.30565e-05
316 *326:14 *369:31 0.000104452
317 *326:14 *369:37 0.000274186
318 *326:14 *369:48 0.000152326
319 *326:14 *369:97 0
320 *326:16 *2242:A1 6.52824e-05
321 *326:16 *369:48 0.00026113
322 *328:8 *2130:A1 0.000186581
323 *328:18 *369:329 0.000145697
324 *328:20 *2368:I 0.000160592
325 *328:20 *369:316 5.02694e-05
326 *328:20 *369:329 0
327 *328:32 *369:316 1.25565e-05
328 *330:12 *369:16 0.000328899
329 *330:12 *369:160 0.0001144
330 *330:27 *2121:A1 0.000233152
331 *330:31 *369:174 0.000386935
332 *330:37 *369:174 0.00114208
333 *330:54 *2127:A1 0.000380881
334 *330:54 *369:174 2.33227e-05
335 *330:54 *369:189 0.00032716
336 *330:54 *369:200 0.000225837
337 *330:67 *2124:A1 0.000257399
338 *332:39 *369:560 0.00135228
339 *334:10 *369:316 0.000250623
340 *337:14 *2242:A1 0.000447418
341 *337:14 *2367:I 0
342 *349:10 *369:303 7.18107e-05
343 *351:14 *369:291 4.25233e-05
344 *352:10 *2181:A1 0
345 *352:10 *369:230 0
346 *352:10 *369:435 0
347 *361:10 *369:277 0.000300299
348 *362:12 *369:212 7.14998e-05
349 *364:10 *369:170 0.000105774
350 *364:10 *369:174 0.000357856
351 *365:20 *2033:A1 0.000562605
352 *365:26 *2118:A1 2.33227e-05
353 *365:26 *369:29 8.57998e-05
354 *365:26 *369:31 0.0001287
355 *366:6 *369:97 4.57943e-05
356 *366:6 *369:107 0.000213679
357 *366:21 *2115:A1 0.00022363
*RES
1 *2280:Q *369:6 4.88384 
2 *369:6 *369:10 7.64747 
3 *369:10 *369:16 8.03131 
4 *369:16 *2034:A1 4.65354 
5 *369:16 *369:27 5.03737 
6 *369:27 *369:29 2.3798 
7 *369:29 *369:31 1.30505 
8 *369:31 *369:37 8.33838 
9 *369:37 *2241:A1 5.25123 
10 *369:37 *369:48 5.95858 
11 *369:48 *2242:A1 10.4586 
12 *369:48 *369:67 8.72222 
13 *369:67 *2367:I 17.1848 
14 *369:67 *2137:A1 7.92438 
15 *369:31 *369:97 9.02929 
16 *369:97 *369:107 12.0707 
17 *369:107 *2115:A1 5.80505 
18 *369:107 *2245:A1 4.63708 
19 *369:97 *2246:A1 4.5 
20 *369:29 *2118:A1 10.305 
21 *369:27 *2033:A1 20.2866 
22 *369:10 *369:160 5.95858 
23 *369:160 *369:166 9.25959 
24 *369:166 *369:170 6.26565 
25 *369:170 *369:174 11.0252 
26 *369:174 *2127:A1 10.6889 
27 *369:174 *369:189 1.30505 
28 *369:189 *2165:A1 9.50721 
29 *369:189 *369:200 2.68687 
30 *369:200 *369:212 15.6495 
31 *369:212 *369:222 2.05627 
32 *369:222 *369:226 7.74069 
33 *369:226 *369:230 3.99192 
34 *369:230 *369:234 8.26161 
35 *369:234 *369:236 0.844444 
36 *369:236 *2175:A1 4.70014 
37 *369:236 *369:251 10.1515 
38 *369:251 *2185:A1 5.94213 
39 *369:251 *2186:A1 4.5 
40 *369:234 *369:273 7.41717 
41 *369:273 *369:277 7.03333 
42 *369:277 *369:291 15.602 
43 *369:291 *369:295 6.26565 
44 *369:295 *369:297 2.07273 
45 *369:297 *369:299 0.537373 
46 *369:299 *369:303 7.80101 
47 *369:303 *2079:A1 4.80707 
48 *369:303 *369:316 1.91919 
49 *369:316 *2368:I 5.46645 
50 *369:316 *369:329 3.47099 
51 *369:329 *2049:A1 4.5 
52 *369:329 *369:350 19.9027 
53 *369:350 *2050:A1 4.5 
54 *369:350 *2130:A1 18.6434 
55 *369:299 *2170:A1 9.20014 
56 *369:297 *2190:A1 9.30707 
57 *369:295 *2189:A1 9.32352 
58 *369:291 *2073:A1 4.65354 
59 *369:277 *2046:A1 4.5 
60 *369:273 *2045:A1 10.2118 
61 *369:230 *2070:A1 9.15353 
62 *369:226 *369:435 0.537373 
63 *369:435 *369:439 6.80303 
64 *369:439 *2067:A1 5.88182 
65 *369:439 *2182:A1 4.5 
66 *369:435 *2181:A1 9.82799 
67 *369:222 *2041:A1 4.5 
68 *369:212 *2042:A1 4.5 
69 *369:200 *2124:A1 12.6081 
70 *369:170 *2121:A1 14.7283 
71 *369:166 *369:510 5.65151 
72 *369:510 *369:518 7.41717 
73 *369:518 *2037:A1 9.13708 
74 *369:518 *2160:A1 13.3456 
75 *369:510 *2038:A1 4.5 
76 *369:160 *2133:A1 6.03535 
77 *369:6 *369:560 11.824 
78 *369:560 *2134:A1 4.5 
79 *369:560 *369:575 9.33636 
80 *369:575 *2155:A1 10.7355 
81 *369:575 *2150:A1 12.0405 
*END
