*SPEF "ieee 1481-1999"
*DESIGN "spm"
*DATE "13:01:50 Friday July 24, 2026"
*VENDOR "The OpenROAD Project"
*PROGRAM "OpenROAD"
*VERSION "26Q3-155-g1bade74e72"
*DESIGN_FLOW "NAME_SCOPE LOCAL" "PIN_CAP NONE"
*DIVIDER /
*DELIMITER :
*BUS_DELIMITER []
*T_UNIT 1 NS
*C_UNIT 1 PF
*R_UNIT 1 OHM
*L_UNIT 1 HENRY

*NAME_MAP
*39 _000_
*40 _001_
*41 _002_
*42 _003_
*43 _004_
*44 _005_
*45 _006_
*46 _007_
*47 _008_
*48 _009_
*49 _010_
*50 _011_
*51 _012_
*52 _013_
*53 _014_
*54 _015_
*55 _016_
*56 _017_
*57 _018_
*58 _019_
*59 _020_
*60 _021_
*61 _022_
*62 _023_
*63 _024_
*64 _025_
*65 _026_
*66 _027_
*67 _028_
*68 _029_
*69 _030_
*70 _031_
*71 _032_
*72 _033_
*73 _034_
*74 _035_
*75 _036_
*76 _037_
*77 _038_
*78 _039_
*79 _040_
*80 _041_
*81 _042_
*82 _043_
*83 _044_
*84 _045_
*85 _046_
*86 _047_
*87 _048_
*88 _049_
*89 _050_
*90 _051_
*91 _052_
*92 _053_
*93 _054_
*94 _055_
*95 _056_
*96 _057_
*97 _058_
*98 _059_
*99 _060_
*100 _061_
*101 _062_
*102 _063_
*103 _064_
*104 _065_
*105 _066_
*106 _067_
*107 _068_
*108 _069_
*109 _070_
*110 _071_
*111 _072_
*112 _073_
*113 _074_
*114 _075_
*115 _076_
*116 _077_
*117 _078_
*118 _079_
*119 _080_
*120 _081_
*121 _082_
*122 _083_
*123 _084_
*124 _085_
*125 _086_
*126 _087_
*127 _088_
*128 _089_
*129 _090_
*130 _091_
*131 _092_
*132 _093_
*133 _094_
*134 _095_
*135 _096_
*136 _097_
*137 _098_
*138 _099_
*139 _100_
*140 _101_
*141 _102_
*142 _103_
*143 _104_
*144 _105_
*145 _106_
*146 _107_
*147 _108_
*148 _109_
*149 _110_
*150 _111_
*151 _112_
*152 _113_
*153 _114_
*154 _115_
*155 _116_
*156 _117_
*157 _118_
*158 _119_
*159 _120_
*160 _121_
*161 _122_
*162 _123_
*163 _124_
*164 _125_
*165 _126_
*166 _127_
*167 _128_
*168 _129_
*169 _130_
*170 _131_
*171 _132_
*172 _133_
*173 _134_
*174 _135_
*175 _136_
*176 _137_
*177 _138_
*178 _139_
*179 _140_
*180 _141_
*181 _142_
*182 _143_
*183 _144_
*184 _145_
*185 _146_
*186 _147_
*187 _148_
*188 _149_
*189 _150_
*190 _151_
*191 _152_
*192 _153_
*193 _154_
*194 _155_
*195 _156_
*196 _157_
*197 _158_
*198 _159_
*199 _160_
*200 _161_
*201 _162_
*202 _163_
*203 _164_
*204 _165_
*205 _166_
*206 _167_
*207 _168_
*208 _169_
*209 _170_
*210 _171_
*211 _172_
*212 _173_
*213 _174_
*214 _175_
*215 _176_
*216 _177_
*217 _178_
*218 _179_
*219 _180_
*220 _181_
*221 _182_
*222 _183_
*223 _184_
*224 _185_
*225 _186_
*226 _187_
*227 _188_
*228 _189_
*229 _190_
*230 _191_
*231 _192_
*232 _193_
*233 _194_
*234 _195_
*235 _196_
*236 _197_
*237 _198_
*238 _199_
*239 _200_
*240 _201_
*241 _202_
*242 _203_
*243 _204_
*244 _205_
*245 _206_
*246 _207_
*247 _208_
*248 _209_
*249 _210_
*250 _211_
*251 _212_
*252 _213_
*253 _214_
*254 _215_
*255 c[0]
*256 c[10]
*257 c[11]
*258 c[12]
*259 c[13]
*260 c[14]
*261 c[15]
*262 c[16]
*263 c[17]
*264 c[18]
*265 c[19]
*266 c[1]
*267 c[20]
*268 c[21]
*269 c[22]
*270 c[23]
*271 c[24]
*272 c[25]
*273 c[26]
*274 c[27]
*275 c[28]
*276 c[29]
*277 c[2]
*278 c[30]
*279 c[31]
*280 c[3]
*281 c[4]
*282 c[5]
*283 c[6]
*284 c[7]
*285 c[8]
*286 c[9]
*1 clk
*287 clknet_0_clk
*288 clknet_3_0__leaf_clk
*289 clknet_3_1__leaf_clk
*290 clknet_3_2__leaf_clk
*291 clknet_3_3__leaf_clk
*292 clknet_3_4__leaf_clk
*293 clknet_3_5__leaf_clk
*294 clknet_3_6__leaf_clk
*295 clknet_3_7__leaf_clk
*296 net10
*297 net11
*298 net12
*299 net13
*300 net14
*301 net15
*302 net16
*303 net17
*304 net18
*305 net19
*306 net20
*307 net21
*308 net22
*309 net23
*310 net24
*311 net25
*312 net26
*313 net27
*314 net28
*315 net29
*316 net30
*317 net31
*318 net32
*319 net33
*320 net34
*321 net35
*322 net36
*323 net37
*324 net38
*325 net39
*326 net40
*327 net41
*328 net42
*329 net43
*330 net44
*331 net45
*332 net46
*333 net6
*334 net7
*335 net8
*336 net9
*2 p_reg
*3 rst
*337 s[0]
*338 s[10]
*339 s[11]
*340 s[12]
*341 s[13]
*342 s[14]
*343 s[15]
*344 s[16]
*345 s[17]
*346 s[18]
*347 s[19]
*348 s[1]
*349 s[20]
*350 s[21]
*351 s[22]
*352 s[23]
*353 s[24]
*354 s[25]
*355 s[26]
*356 s[27]
*357 s[28]
*358 s[29]
*359 s[2]
*360 s[30]
*361 s[3]
*362 s[4]
*363 s[5]
*364 s[6]
*365 s[7]
*366 s[8]
*367 s[9]
*368 spare_tielo
*4 x[0]
*5 x[10]
*6 x[11]
*7 x[12]
*8 x[13]
*9 x[14]
*10 x[15]
*11 x[16]
*12 x[17]
*13 x[18]
*14 x[19]
*15 x[1]
*16 x[20]
*17 x[21]
*18 x[22]
*19 x[23]
*20 x[24]
*21 x[25]
*22 x[26]
*23 x[27]
*24 x[28]
*25 x[29]
*26 x[2]
*27 x[30]
*28 x[31]
*29 x[3]
*30 x[4]
*31 x[5]
*32 x[6]
*33 x[7]
*34 x[8]
*35 x[9]
*36 y
*369 y_rep[0]
*370 FILLER_0_0
*371 FILLER_0_114
*372 FILLER_0_118
*373 FILLER_0_122
*374 FILLER_0_138
*375 FILLER_0_142
*376 FILLER_0_146
*377 FILLER_0_162
*378 FILLER_0_166
*379 FILLER_0_17
*380 FILLER_0_170
*381 FILLER_0_186
*382 FILLER_0_190
*383 FILLER_0_194
*384 FILLER_0_21
*385 FILLER_0_210
*386 FILLER_0_214
*387 FILLER_0_218
*388 FILLER_0_23
*389 FILLER_0_234
*390 FILLER_0_238
*391 FILLER_0_242
*392 FILLER_0_258
*393 FILLER_0_26
*394 FILLER_0_262
*395 FILLER_0_266
*396 FILLER_0_282
*397 FILLER_0_286
*398 FILLER_0_290
*399 FILLER_0_306
*400 FILLER_0_310
*401 FILLER_0_314
*402 FILLER_0_330
*403 FILLER_0_334
*404 FILLER_0_338
*405 FILLER_0_354
*406 FILLER_0_358
*407 FILLER_0_362
*408 FILLER_0_366
*409 FILLER_0_368
*410 FILLER_0_42
*411 FILLER_0_46
*412 FILLER_0_59
*413 FILLER_0_67
*414 FILLER_0_71
*415 FILLER_0_74
*416 FILLER_0_82
*417 FILLER_0_9
*418 FILLER_0_94
*419 FILLER_0_98
*420 FILLER_10_0
*421 FILLER_10_109
*422 FILLER_10_127
*423 FILLER_10_159
*424 FILLER_10_16
*425 FILLER_10_177
*426 FILLER_10_209
*427 FILLER_10_227
*428 FILLER_10_24
*429 FILLER_10_259
*430 FILLER_10_27
*431 FILLER_10_277
*432 FILLER_10_309
*433 FILLER_10_327
*434 FILLER_10_359
*435 FILLER_10_367
*436 FILLER_10_59
*437 FILLER_10_77
*438 FILLER_11_0
*439 FILLER_11_102
*440 FILLER_11_134
*441 FILLER_11_152
*442 FILLER_11_184
*443 FILLER_11_202
*444 FILLER_11_234
*445 FILLER_11_252
*446 FILLER_11_284
*447 FILLER_11_302
*448 FILLER_11_32
*449 FILLER_11_334
*450 FILLER_11_352
*451 FILLER_11_368
*452 FILLER_11_48
*453 FILLER_11_52
*454 FILLER_11_84
*455 FILLER_12_0
*456 FILLER_12_109
*457 FILLER_12_127
*458 FILLER_12_159
*459 FILLER_12_16
*460 FILLER_12_177
*461 FILLER_12_209
*462 FILLER_12_227
*463 FILLER_12_24
*464 FILLER_12_259
*465 FILLER_12_27
*466 FILLER_12_277
*467 FILLER_12_309
*468 FILLER_12_327
*469 FILLER_12_359
*470 FILLER_12_367
*471 FILLER_12_59
*472 FILLER_12_77
*473 FILLER_13_0
*474 FILLER_13_102
*475 FILLER_13_134
*476 FILLER_13_152
*477 FILLER_13_184
*478 FILLER_13_202
*479 FILLER_13_234
*480 FILLER_13_252
*481 FILLER_13_284
*482 FILLER_13_302
*483 FILLER_13_32
*484 FILLER_13_334
*485 FILLER_13_352
*486 FILLER_13_368
*487 FILLER_13_48
*488 FILLER_13_52
*489 FILLER_13_84
*490 FILLER_14_0
*491 FILLER_14_109
*492 FILLER_14_127
*493 FILLER_14_159
*494 FILLER_14_16
*495 FILLER_14_177
*496 FILLER_14_209
*497 FILLER_14_227
*498 FILLER_14_24
*499 FILLER_14_259
*500 FILLER_14_27
*501 FILLER_14_277
*502 FILLER_14_309
*503 FILLER_14_327
*504 FILLER_14_359
*505 FILLER_14_367
*506 FILLER_14_59
*507 FILLER_14_77
*508 FILLER_15_0
*509 FILLER_15_102
*510 FILLER_15_134
*511 FILLER_15_152
*512 FILLER_15_184
*513 FILLER_15_202
*514 FILLER_15_234
*515 FILLER_15_252
*516 FILLER_15_284
*517 FILLER_15_302
*518 FILLER_15_32
*519 FILLER_15_334
*520 FILLER_15_352
*521 FILLER_15_368
*522 FILLER_15_48
*523 FILLER_15_52
*524 FILLER_15_84
*525 FILLER_16_0
*526 FILLER_16_109
*527 FILLER_16_127
*528 FILLER_16_159
*529 FILLER_16_16
*530 FILLER_16_177
*531 FILLER_16_209
*532 FILLER_16_227
*533 FILLER_16_24
*534 FILLER_16_259
*535 FILLER_16_27
*536 FILLER_16_277
*537 FILLER_16_309
*538 FILLER_16_327
*539 FILLER_16_359
*540 FILLER_16_367
*541 FILLER_16_59
*542 FILLER_16_77
*543 FILLER_17_0
*544 FILLER_17_102
*545 FILLER_17_134
*546 FILLER_17_152
*547 FILLER_17_184
*548 FILLER_17_202
*549 FILLER_17_234
*550 FILLER_17_252
*551 FILLER_17_284
*552 FILLER_17_302
*553 FILLER_17_32
*554 FILLER_17_334
*555 FILLER_17_352
*556 FILLER_17_368
*557 FILLER_17_48
*558 FILLER_17_52
*559 FILLER_17_84
*560 FILLER_18_0
*561 FILLER_18_109
*562 FILLER_18_127
*563 FILLER_18_159
*564 FILLER_18_16
*565 FILLER_18_177
*566 FILLER_18_209
*567 FILLER_18_227
*568 FILLER_18_24
*569 FILLER_18_259
*570 FILLER_18_27
*571 FILLER_18_277
*572 FILLER_18_309
*573 FILLER_18_327
*574 FILLER_18_359
*575 FILLER_18_367
*576 FILLER_18_59
*577 FILLER_18_77
*578 FILLER_19_0
*579 FILLER_19_102
*580 FILLER_19_135
*581 FILLER_19_143
*582 FILLER_19_147
*583 FILLER_19_149
*584 FILLER_19_152
*585 FILLER_19_156
*586 FILLER_19_186
*587 FILLER_19_194
*588 FILLER_19_198
*589 FILLER_19_202
*590 FILLER_19_234
*591 FILLER_19_252
*592 FILLER_19_284
*593 FILLER_19_302
*594 FILLER_19_32
*595 FILLER_19_334
*596 FILLER_19_352
*597 FILLER_19_368
*598 FILLER_19_48
*599 FILLER_19_52
*600 FILLER_19_68
*601 FILLER_19_98
*602 FILLER_1_0
*603 FILLER_1_102
*604 FILLER_1_134
*605 FILLER_1_152
*606 FILLER_1_184
*607 FILLER_1_202
*608 FILLER_1_234
*609 FILLER_1_252
*610 FILLER_1_284
*611 FILLER_1_302
*612 FILLER_1_32
*613 FILLER_1_334
*614 FILLER_1_352
*615 FILLER_1_368
*616 FILLER_1_48
*617 FILLER_1_52
*618 FILLER_1_84
*619 FILLER_20_0
*620 FILLER_20_109
*621 FILLER_20_133
*622 FILLER_20_16
*623 FILLER_20_173
*624 FILLER_20_177
*625 FILLER_20_193
*626 FILLER_20_201
*627 FILLER_20_205
*628 FILLER_20_222
*629 FILLER_20_224
*630 FILLER_20_227
*631 FILLER_20_231
*632 FILLER_20_233
*633 FILLER_20_24
*634 FILLER_20_263
*635 FILLER_20_27
*636 FILLER_20_271
*637 FILLER_20_277
*638 FILLER_20_309
*639 FILLER_20_327
*640 FILLER_20_359
*641 FILLER_20_367
*642 FILLER_20_59
*643 FILLER_20_77
*644 FILLER_21_0
*645 FILLER_21_102
*646 FILLER_21_110
*647 FILLER_21_134
*648 FILLER_21_152
*649 FILLER_21_160
*650 FILLER_21_162
*651 FILLER_21_178
*652 FILLER_21_194
*653 FILLER_21_198
*654 FILLER_21_231
*655 FILLER_21_239
*656 FILLER_21_247
*657 FILLER_21_249
*658 FILLER_21_280
*659 FILLER_21_296
*660 FILLER_21_302
*661 FILLER_21_32
*662 FILLER_21_334
*663 FILLER_21_352
*664 FILLER_21_368
*665 FILLER_21_48
*666 FILLER_21_52
*667 FILLER_21_84
*668 FILLER_22_0
*669 FILLER_22_115
*670 FILLER_22_137
*671 FILLER_22_153
*672 FILLER_22_16
*673 FILLER_22_161
*674 FILLER_22_177
*675 FILLER_22_181
*676 FILLER_22_211
*677 FILLER_22_219
*678 FILLER_22_223
*679 FILLER_22_227
*680 FILLER_22_24
*681 FILLER_22_243
*682 FILLER_22_245
*683 FILLER_22_27
*684 FILLER_22_312
*685 FILLER_22_320
*686 FILLER_22_324
*687 FILLER_22_327
*688 FILLER_22_359
*689 FILLER_22_367
*690 FILLER_22_59
*691 FILLER_22_83
*692 FILLER_23_0
*693 FILLER_23_102
*694 FILLER_23_118
*695 FILLER_23_122
*696 FILLER_23_132
*697 FILLER_23_148
*698 FILLER_23_152
*699 FILLER_23_156
*700 FILLER_23_158
*701 FILLER_23_177
*702 FILLER_23_193
*703 FILLER_23_197
*704 FILLER_23_199
*705 FILLER_23_202
*706 FILLER_23_206
*707 FILLER_23_208
*708 FILLER_23_232
*709 FILLER_23_248
*710 FILLER_23_252
*711 FILLER_23_254
*712 FILLER_23_271
*713 FILLER_23_287
*714 FILLER_23_295
*715 FILLER_23_299
*716 FILLER_23_302
*717 FILLER_23_32
*718 FILLER_23_334
*719 FILLER_23_352
*720 FILLER_23_368
*721 FILLER_23_48
*722 FILLER_23_52
*723 FILLER_23_56
*724 FILLER_23_58
*725 FILLER_23_88
*726 FILLER_23_96
*727 FILLER_24_0
*728 FILLER_24_114
*729 FILLER_24_122
*730 FILLER_24_124
*731 FILLER_24_127
*732 FILLER_24_16
*733 FILLER_24_167
*734 FILLER_24_177
*735 FILLER_24_209
*736 FILLER_24_227
*737 FILLER_24_24
*738 FILLER_24_259
*739 FILLER_24_27
*740 FILLER_24_277
*741 FILLER_24_285
*742 FILLER_24_289
*743 FILLER_24_320
*744 FILLER_24_324
*745 FILLER_24_327
*746 FILLER_24_359
*747 FILLER_24_367
*748 FILLER_24_60
*749 FILLER_24_64
*750 FILLER_24_77
*751 FILLER_24_98
*752 FILLER_25_0
*753 FILLER_25_131
*754 FILLER_25_147
*755 FILLER_25_149
*756 FILLER_25_152
*757 FILLER_25_184
*758 FILLER_25_202
*759 FILLER_25_210
*760 FILLER_25_214
*761 FILLER_25_223
*762 FILLER_25_239
*763 FILLER_25_247
*764 FILLER_25_249
*765 FILLER_25_252
*766 FILLER_25_284
*767 FILLER_25_310
*768 FILLER_25_32
*769 FILLER_25_342
*770 FILLER_25_352
*771 FILLER_25_368
*772 FILLER_25_48
*773 FILLER_25_52
*774 FILLER_25_68
*775 FILLER_25_88
*776 FILLER_25_96
*777 FILLER_26_0
*778 FILLER_26_105
*779 FILLER_26_123
*780 FILLER_26_127
*781 FILLER_26_143
*782 FILLER_26_145
*783 FILLER_26_16
*784 FILLER_26_177
*785 FILLER_26_185
*786 FILLER_26_189
*787 FILLER_26_191
*788 FILLER_26_200
*789 FILLER_26_220
*790 FILLER_26_224
*791 FILLER_26_227
*792 FILLER_26_235
*793 FILLER_26_237
*794 FILLER_26_24
*795 FILLER_26_267
*796 FILLER_26_27
*797 FILLER_26_277
*798 FILLER_26_293
*799 FILLER_26_307
*800 FILLER_26_323
*801 FILLER_26_327
*802 FILLER_26_359
*803 FILLER_26_367
*804 FILLER_26_49
*805 FILLER_26_65
*806 FILLER_26_73
*807 FILLER_26_77
*808 FILLER_26_89
*809 FILLER_27_102
*810 FILLER_27_110
*811 FILLER_27_122
*812 FILLER_27_160
*813 FILLER_27_192
*814 FILLER_27_202
*815 FILLER_27_206
*816 FILLER_27_237
*817 FILLER_27_245
*818 FILLER_27_249
*819 FILLER_27_252
*820 FILLER_27_268
*821 FILLER_27_277
*822 FILLER_27_285
*823 FILLER_27_289
*824 FILLER_27_314
*825 FILLER_27_346
*826 FILLER_27_352
*827 FILLER_27_368
*828 FILLER_27_52
*829 FILLER_27_84
*830 FILLER_28_0
*831 FILLER_28_109
*832 FILLER_28_127
*833 FILLER_28_131
*834 FILLER_28_16
*835 FILLER_28_170
*836 FILLER_28_174
*837 FILLER_28_177
*838 FILLER_28_185
*839 FILLER_28_209
*840 FILLER_28_220
*841 FILLER_28_224
*842 FILLER_28_227
*843 FILLER_28_235
*844 FILLER_28_239
*845 FILLER_28_241
*846 FILLER_28_258
*847 FILLER_28_262
*848 FILLER_28_283
*849 FILLER_28_291
*850 FILLER_28_295
*851 FILLER_28_297
*852 FILLER_28_308
*853 FILLER_28_324
*854 FILLER_28_327
*855 FILLER_28_329
*856 FILLER_28_359
*857 FILLER_28_367
*858 FILLER_28_56
*859 FILLER_28_72
*860 FILLER_28_74
*861 FILLER_28_77
*862 FILLER_29_102
*863 FILLER_29_110
*864 FILLER_29_112
*865 FILLER_29_119
*866 FILLER_29_135
*867 FILLER_29_143
*868 FILLER_29_147
*869 FILLER_29_149
*870 FILLER_29_158
*871 FILLER_29_176
*872 FILLER_29_192
*873 FILLER_29_202
*874 FILLER_29_210
*875 FILLER_29_214
*876 FILLER_29_216
*877 FILLER_29_223
*878 FILLER_29_227
*879 FILLER_29_229
*880 FILLER_29_244
*881 FILLER_29_291
*882 FILLER_29_299
*883 FILLER_29_302
*884 FILLER_29_332
*885 FILLER_29_348
*886 FILLER_29_352
*887 FILLER_29_368
*888 FILLER_29_61
*889 FILLER_29_69
*890 FILLER_29_73
*891 FILLER_29_75
*892 FILLER_29_82
*893 FILLER_29_98
*894 FILLER_2_0
*895 FILLER_2_109
*896 FILLER_2_127
*897 FILLER_2_159
*898 FILLER_2_16
*899 FILLER_2_177
*900 FILLER_2_209
*901 FILLER_2_227
*902 FILLER_2_24
*903 FILLER_2_259
*904 FILLER_2_27
*905 FILLER_2_277
*906 FILLER_2_309
*907 FILLER_2_327
*908 FILLER_2_359
*909 FILLER_2_367
*910 FILLER_2_59
*911 FILLER_2_77
*912 FILLER_30_0
*913 FILLER_30_102
*914 FILLER_30_104
*915 FILLER_30_113
*916 FILLER_30_121
*917 FILLER_30_127
*918 FILLER_30_159
*919 FILLER_30_16
*920 FILLER_30_177
*921 FILLER_30_209
*922 FILLER_30_227
*923 FILLER_30_24
*924 FILLER_30_259
*925 FILLER_30_263
*926 FILLER_30_265
*927 FILLER_30_27
*928 FILLER_30_277
*929 FILLER_30_293
*930 FILLER_30_297
*931 FILLER_30_315
*932 FILLER_30_323
*933 FILLER_30_327
*934 FILLER_30_349
*935 FILLER_30_365
*936 FILLER_30_54
*937 FILLER_30_70
*938 FILLER_30_74
*939 FILLER_30_85
*940 FILLER_30_98
*941 FILLER_31_102
*942 FILLER_31_135
*943 FILLER_31_143
*944 FILLER_31_147
*945 FILLER_31_149
*946 FILLER_31_152
*947 FILLER_31_184
*948 FILLER_31_199
*949 FILLER_31_202
*950 FILLER_31_234
*951 FILLER_31_252
*952 FILLER_31_268
*953 FILLER_31_286
*954 FILLER_31_294
*955 FILLER_31_298
*956 FILLER_31_302
*957 FILLER_31_334
*958 FILLER_31_352
*959 FILLER_31_368
*960 FILLER_31_52
*961 FILLER_31_98
*962 FILLER_32_0
*963 FILLER_32_116
*964 FILLER_32_124
*965 FILLER_32_127
*966 FILLER_32_159
*967 FILLER_32_16
*968 FILLER_32_206
*969 FILLER_32_222
*970 FILLER_32_224
*971 FILLER_32_237
*972 FILLER_32_24
*973 FILLER_32_269
*974 FILLER_32_273
*975 FILLER_32_277
*976 FILLER_32_309
*977 FILLER_32_327
*978 FILLER_32_359
*979 FILLER_32_367
*980 FILLER_32_56
*981 FILLER_32_72
*982 FILLER_32_74
*983 FILLER_32_77
*984 FILLER_32_79
*985 FILLER_32_86
*986 FILLER_32_94
*987 FILLER_33_102
*988 FILLER_33_110
*989 FILLER_33_143
*990 FILLER_33_147
*991 FILLER_33_149
*992 FILLER_33_152
*993 FILLER_33_156
*994 FILLER_33_158
*995 FILLER_33_177
*996 FILLER_33_193
*997 FILLER_33_197
*998 FILLER_33_199
*999 FILLER_33_202
*1000 FILLER_33_210
*1001 FILLER_33_248
*1002 FILLER_33_252
*1003 FILLER_33_284
*1004 FILLER_33_302
*1005 FILLER_33_335
*1006 FILLER_33_343
*1007 FILLER_33_347
*1008 FILLER_33_349
*1009 FILLER_33_352
*1010 FILLER_33_368
*1011 FILLER_33_52
*1012 FILLER_33_60
*1013 FILLER_33_64
*1014 FILLER_33_95
*1015 FILLER_33_99
*1016 FILLER_34_0
*1017 FILLER_34_109
*1018 FILLER_34_127
*1019 FILLER_34_146
*1020 FILLER_34_162
*1021 FILLER_34_170
*1022 FILLER_34_174
*1023 FILLER_34_177
*1024 FILLER_34_185
*1025 FILLER_34_195
*1026 FILLER_34_211
*1027 FILLER_34_219
*1028 FILLER_34_223
*1029 FILLER_34_235
*1030 FILLER_34_239
*1031 FILLER_34_241
*1032 FILLER_34_271
*1033 FILLER_34_277
*1034 FILLER_34_285
*1035 FILLER_34_289
*1036 FILLER_34_301
*1037 FILLER_34_305
*1038 FILLER_34_307
*1039 FILLER_34_314
*1040 FILLER_34_322
*1041 FILLER_34_324
*1042 FILLER_34_327
*1043 FILLER_34_335
*1044 FILLER_34_366
*1045 FILLER_34_368
*1046 FILLER_34_56
*1047 FILLER_34_72
*1048 FILLER_34_74
*1049 FILLER_34_77
*1050 FILLER_35_102
*1051 FILLER_35_118
*1052 FILLER_35_122
*1053 FILLER_35_124
*1054 FILLER_35_145
*1055 FILLER_35_149
*1056 FILLER_35_152
*1057 FILLER_35_184
*1058 FILLER_35_202
*1059 FILLER_35_234
*1060 FILLER_35_267
*1061 FILLER_35_322
*1062 FILLER_35_338
*1063 FILLER_35_363
*1064 FILLER_35_367
*1065 FILLER_35_52
*1066 FILLER_35_84
*1067 FILLER_36_0
*1068 FILLER_36_111
*1069 FILLER_36_119
*1070 FILLER_36_123
*1071 FILLER_36_127
*1072 FILLER_36_143
*1073 FILLER_36_160
*1074 FILLER_36_168
*1075 FILLER_36_172
*1076 FILLER_36_174
*1077 FILLER_36_177
*1078 FILLER_36_185
*1079 FILLER_36_189
*1080 FILLER_36_219
*1081 FILLER_36_223
*1082 FILLER_36_227
*1083 FILLER_36_243
*1084 FILLER_36_247
*1085 FILLER_36_257
*1086 FILLER_36_265
*1087 FILLER_36_269
*1088 FILLER_36_27
*1089 FILLER_36_277
*1090 FILLER_36_285
*1091 FILLER_36_289
*1092 FILLER_36_308
*1093 FILLER_36_31
*1094 FILLER_36_324
*1095 FILLER_36_327
*1096 FILLER_36_335
*1097 FILLER_36_337
*1098 FILLER_36_361
*1099 FILLER_36_44
*1100 FILLER_36_74
*1101 FILLER_36_77
*1102 FILLER_36_8
*1103 FILLER_36_85
*1104 FILLER_36_95
*1105 FILLER_37_102
*1106 FILLER_37_134
*1107 FILLER_37_138
*1108 FILLER_37_152
*1109 FILLER_37_156
*1110 FILLER_37_172
*1111 FILLER_37_188
*1112 FILLER_37_192
*1113 FILLER_37_210
*1114 FILLER_37_242
*1115 FILLER_37_252
*1116 FILLER_37_284
*1117 FILLER_37_302
*1118 FILLER_37_334
*1119 FILLER_37_352
*1120 FILLER_37_368
*1121 FILLER_37_60
*1122 FILLER_37_95
*1123 FILLER_37_99
*1124 FILLER_38_0
*1125 FILLER_38_101
*1126 FILLER_38_117
*1127 FILLER_38_127
*1128 FILLER_38_143
*1129 FILLER_38_145
*1130 FILLER_38_16
*1131 FILLER_38_177
*1132 FILLER_38_185
*1133 FILLER_38_189
*1134 FILLER_38_220
*1135 FILLER_38_224
*1136 FILLER_38_227
*1137 FILLER_38_24
*1138 FILLER_38_243
*1139 FILLER_38_274
*1140 FILLER_38_277
*1141 FILLER_38_309
*1142 FILLER_38_327
*1143 FILLER_38_331
*1144 FILLER_38_362
*1145 FILLER_38_366
*1146 FILLER_38_368
*1147 FILLER_38_56
*1148 FILLER_38_64
*1149 FILLER_38_66
*1150 FILLER_38_77
*1151 FILLER_39_102
*1152 FILLER_39_106
*1153 FILLER_39_108
*1154 FILLER_39_138
*1155 FILLER_39_146
*1156 FILLER_39_152
*1157 FILLER_39_184
*1158 FILLER_39_202
*1159 FILLER_39_206
*1160 FILLER_39_236
*1161 FILLER_39_244
*1162 FILLER_39_248
*1163 FILLER_39_252
*1164 FILLER_39_284
*1165 FILLER_39_302
*1166 FILLER_39_310
*1167 FILLER_39_337
*1168 FILLER_39_345
*1169 FILLER_39_349
*1170 FILLER_39_352
*1171 FILLER_39_368
*1172 FILLER_39_52
*1173 FILLER_39_60
*1174 FILLER_39_64
*1175 FILLER_39_95
*1176 FILLER_39_99
*1177 FILLER_3_0
*1178 FILLER_3_102
*1179 FILLER_3_134
*1180 FILLER_3_152
*1181 FILLER_3_184
*1182 FILLER_3_202
*1183 FILLER_3_234
*1184 FILLER_3_252
*1185 FILLER_3_284
*1186 FILLER_3_302
*1187 FILLER_3_32
*1188 FILLER_3_334
*1189 FILLER_3_352
*1190 FILLER_3_368
*1191 FILLER_3_48
*1192 FILLER_3_52
*1193 FILLER_3_84
*1194 FILLER_40_0
*1195 FILLER_40_109
*1196 FILLER_40_127
*1197 FILLER_40_159
*1198 FILLER_40_16
*1199 FILLER_40_216
*1200 FILLER_40_224
*1201 FILLER_40_227
*1202 FILLER_40_24
*1203 FILLER_40_243
*1204 FILLER_40_251
*1205 FILLER_40_255
*1206 FILLER_40_257
*1207 FILLER_40_27
*1208 FILLER_40_272
*1209 FILLER_40_274
*1210 FILLER_40_277
*1211 FILLER_40_281
*1212 FILLER_40_283
*1213 FILLER_40_31
*1214 FILLER_40_313
*1215 FILLER_40_321
*1216 FILLER_40_327
*1217 FILLER_40_33
*1218 FILLER_40_341
*1219 FILLER_40_357
*1220 FILLER_40_365
*1221 FILLER_40_50
*1222 FILLER_40_66
*1223 FILLER_40_74
*1224 FILLER_40_77
*1225 FILLER_41_102
*1226 FILLER_41_110
*1227 FILLER_41_117
*1228 FILLER_41_135
*1229 FILLER_41_143
*1230 FILLER_41_147
*1231 FILLER_41_149
*1232 FILLER_41_152
*1233 FILLER_41_184
*1234 FILLER_41_202
*1235 FILLER_41_218
*1236 FILLER_41_222
*1237 FILLER_41_224
*1238 FILLER_41_229
*1239 FILLER_41_245
*1240 FILLER_41_249
*1241 FILLER_41_252
*1242 FILLER_41_254
*1243 FILLER_41_276
*1244 FILLER_41_288
*1245 FILLER_41_296
*1246 FILLER_41_302
*1247 FILLER_41_310
*1248 FILLER_41_312
*1249 FILLER_41_342
*1250 FILLER_41_352
*1251 FILLER_41_368
*1252 FILLER_41_52
*1253 FILLER_41_84
*1254 FILLER_42_0
*1255 FILLER_42_107
*1256 FILLER_42_123
*1257 FILLER_42_136
*1258 FILLER_42_173
*1259 FILLER_42_185
*1260 FILLER_42_217
*1261 FILLER_42_227
*1262 FILLER_42_235
*1263 FILLER_42_239
*1264 FILLER_42_27
*1265 FILLER_42_273
*1266 FILLER_42_285
*1267 FILLER_42_301
*1268 FILLER_42_308
*1269 FILLER_42_31
*1270 FILLER_42_312
*1271 FILLER_42_314
*1272 FILLER_42_333
*1273 FILLER_42_365
*1274 FILLER_42_61
*1275 FILLER_42_69
*1276 FILLER_42_73
*1277 FILLER_42_77
*1278 FILLER_42_8
*1279 FILLER_42_93
*1280 FILLER_42_97
*1281 FILLER_43_143
*1282 FILLER_43_190
*1283 FILLER_43_198
*1284 FILLER_43_202
*1285 FILLER_43_218
*1286 FILLER_43_226
*1287 FILLER_43_230
*1288 FILLER_43_240
*1289 FILLER_43_248
*1290 FILLER_43_252
*1291 FILLER_43_268
*1292 FILLER_43_280
*1293 FILLER_43_296
*1294 FILLER_43_302
*1295 FILLER_43_318
*1296 FILLER_43_324
*1297 FILLER_43_340
*1298 FILLER_43_348
*1299 FILLER_43_352
*1300 FILLER_43_368
*1301 FILLER_43_52
*1302 FILLER_43_84
*1303 FILLER_43_88
*1304 FILLER_44_0
*1305 FILLER_44_106
*1306 FILLER_44_12
*1307 FILLER_44_122
*1308 FILLER_44_124
*1309 FILLER_44_127
*1310 FILLER_44_14
*1311 FILLER_44_143
*1312 FILLER_44_160
*1313 FILLER_44_168
*1314 FILLER_44_172
*1315 FILLER_44_174
*1316 FILLER_44_177
*1317 FILLER_44_193
*1318 FILLER_44_224
*1319 FILLER_44_227
*1320 FILLER_44_23
*1321 FILLER_44_231
*1322 FILLER_44_250
*1323 FILLER_44_266
*1324 FILLER_44_274
*1325 FILLER_44_277
*1326 FILLER_44_322
*1327 FILLER_44_324
*1328 FILLER_44_327
*1329 FILLER_44_359
*1330 FILLER_44_367
*1331 FILLER_44_47
*1332 FILLER_44_63
*1333 FILLER_44_71
*1334 FILLER_44_77
*1335 FILLER_44_8
*1336 FILLER_44_93
*1337 FILLER_44_97
*1338 FILLER_45_0
*1339 FILLER_45_102
*1340 FILLER_45_134
*1341 FILLER_45_152
*1342 FILLER_45_184
*1343 FILLER_45_2
*1344 FILLER_45_202
*1345 FILLER_45_206
*1346 FILLER_45_208
*1347 FILLER_45_244
*1348 FILLER_45_248
*1349 FILLER_45_252
*1350 FILLER_45_284
*1351 FILLER_45_302
*1352 FILLER_45_334
*1353 FILLER_45_352
*1354 FILLER_45_368
*1355 FILLER_45_42
*1356 FILLER_45_52
*1357 FILLER_45_97
*1358 FILLER_45_99
*1359 FILLER_46_0
*1360 FILLER_46_117
*1361 FILLER_46_127
*1362 FILLER_46_158
*1363 FILLER_46_16
*1364 FILLER_46_174
*1365 FILLER_46_182
*1366 FILLER_46_198
*1367 FILLER_46_202
*1368 FILLER_46_211
*1369 FILLER_46_213
*1370 FILLER_46_220
*1371 FILLER_46_224
*1372 FILLER_46_227
*1373 FILLER_46_24
*1374 FILLER_46_259
*1375 FILLER_46_277
*1376 FILLER_46_285
*1377 FILLER_46_289
*1378 FILLER_46_302
*1379 FILLER_46_318
*1380 FILLER_46_322
*1381 FILLER_46_324
*1382 FILLER_46_327
*1383 FILLER_46_335
*1384 FILLER_46_35
*1385 FILLER_46_368
*1386 FILLER_46_51
*1387 FILLER_46_55
*1388 FILLER_46_85
*1389 FILLER_47_0
*1390 FILLER_47_114
*1391 FILLER_47_122
*1392 FILLER_47_144
*1393 FILLER_47_148
*1394 FILLER_47_152
*1395 FILLER_47_162
*1396 FILLER_47_164
*1397 FILLER_47_189
*1398 FILLER_47_199
*1399 FILLER_47_2
*1400 FILLER_47_202
*1401 FILLER_47_218
*1402 FILLER_47_222
*1403 FILLER_47_224
*1404 FILLER_47_231
*1405 FILLER_47_247
*1406 FILLER_47_249
*1407 FILLER_47_262
*1408 FILLER_47_270
*1409 FILLER_47_274
*1410 FILLER_47_276
*1411 FILLER_47_302
*1412 FILLER_47_318
*1413 FILLER_47_326
*1414 FILLER_47_358
*1415 FILLER_47_366
*1416 FILLER_47_368
*1417 FILLER_47_40
*1418 FILLER_47_48
*1419 FILLER_47_52
*1420 FILLER_47_60
*1421 FILLER_47_64
*1422 FILLER_47_74
*1423 FILLER_47_90
*1424 FILLER_47_98
*1425 FILLER_48_0
*1426 FILLER_48_113
*1427 FILLER_48_121
*1428 FILLER_48_127
*1429 FILLER_48_129
*1430 FILLER_48_138
*1431 FILLER_48_206
*1432 FILLER_48_214
*1433 FILLER_48_216
*1434 FILLER_48_223
*1435 FILLER_48_235
*1436 FILLER_48_239
*1437 FILLER_48_27
*1438 FILLER_48_270
*1439 FILLER_48_274
*1440 FILLER_48_277
*1441 FILLER_48_307
*1442 FILLER_48_323
*1443 FILLER_48_362
*1444 FILLER_48_366
*1445 FILLER_48_368
*1446 FILLER_48_4
*1447 FILLER_48_57
*1448 FILLER_48_61
*1449 FILLER_48_77
*1450 FILLER_48_93
*1451 FILLER_48_97
*1452 FILLER_49_0
*1453 FILLER_49_131
*1454 FILLER_49_139
*1455 FILLER_49_143
*1456 FILLER_49_152
*1457 FILLER_49_208
*1458 FILLER_49_246
*1459 FILLER_49_252
*1460 FILLER_49_270
*1461 FILLER_49_278
*1462 FILLER_49_297
*1463 FILLER_49_299
*1464 FILLER_49_331
*1465 FILLER_49_348
*1466 FILLER_49_35
*1467 FILLER_49_352
*1468 FILLER_49_368
*1469 FILLER_49_43
*1470 FILLER_49_47
*1471 FILLER_49_49
*1472 FILLER_49_52
*1473 FILLER_49_56
*1474 FILLER_49_8
*1475 FILLER_49_86
*1476 FILLER_49_94
*1477 FILLER_49_98
*1478 FILLER_4_0
*1479 FILLER_4_109
*1480 FILLER_4_127
*1481 FILLER_4_159
*1482 FILLER_4_16
*1483 FILLER_4_177
*1484 FILLER_4_209
*1485 FILLER_4_227
*1486 FILLER_4_24
*1487 FILLER_4_259
*1488 FILLER_4_27
*1489 FILLER_4_277
*1490 FILLER_4_309
*1491 FILLER_4_327
*1492 FILLER_4_359
*1493 FILLER_4_367
*1494 FILLER_4_59
*1495 FILLER_4_77
*1496 FILLER_50_0
*1497 FILLER_50_101
*1498 FILLER_50_113
*1499 FILLER_50_121
*1500 FILLER_50_127
*1501 FILLER_50_16
*1502 FILLER_50_192
*1503 FILLER_50_205
*1504 FILLER_50_223
*1505 FILLER_50_24
*1506 FILLER_50_251
*1507 FILLER_50_267
*1508 FILLER_50_27
*1509 FILLER_50_277
*1510 FILLER_50_285
*1511 FILLER_50_287
*1512 FILLER_50_293
*1513 FILLER_50_302
*1514 FILLER_50_318
*1515 FILLER_50_322
*1516 FILLER_50_324
*1517 FILLER_50_327
*1518 FILLER_50_359
*1519 FILLER_50_367
*1520 FILLER_50_73
*1521 FILLER_50_77
*1522 FILLER_50_93
*1523 FILLER_51_0
*1524 FILLER_51_114
*1525 FILLER_51_118
*1526 FILLER_51_122
*1527 FILLER_51_130
*1528 FILLER_51_146
*1529 FILLER_51_16
*1530 FILLER_51_194
*1531 FILLER_51_196
*1532 FILLER_51_215
*1533 FILLER_51_236
*1534 FILLER_51_26
*1535 FILLER_51_260
*1536 FILLER_51_266
*1537 FILLER_51_282
*1538 FILLER_51_286
*1539 FILLER_51_290
*1540 FILLER_51_306
*1541 FILLER_51_310
*1542 FILLER_51_314
*1543 FILLER_51_330
*1544 FILLER_51_334
*1545 FILLER_51_338
*1546 FILLER_51_354
*1547 FILLER_51_358
*1548 FILLER_51_362
*1549 FILLER_51_366
*1550 FILLER_51_368
*1551 FILLER_51_42
*1552 FILLER_51_46
*1553 FILLER_51_50
*1554 FILLER_51_66
*1555 FILLER_51_70
*1556 FILLER_51_74
*1557 FILLER_51_90
*1558 FILLER_51_94
*1559 FILLER_51_98
*1560 FILLER_5_0
*1561 FILLER_5_102
*1562 FILLER_5_134
*1563 FILLER_5_152
*1564 FILLER_5_184
*1565 FILLER_5_202
*1566 FILLER_5_234
*1567 FILLER_5_252
*1568 FILLER_5_284
*1569 FILLER_5_302
*1570 FILLER_5_32
*1571 FILLER_5_334
*1572 FILLER_5_352
*1573 FILLER_5_368
*1574 FILLER_5_48
*1575 FILLER_5_52
*1576 FILLER_5_84
*1577 FILLER_6_0
*1578 FILLER_6_109
*1579 FILLER_6_127
*1580 FILLER_6_159
*1581 FILLER_6_16
*1582 FILLER_6_177
*1583 FILLER_6_209
*1584 FILLER_6_227
*1585 FILLER_6_24
*1586 FILLER_6_259
*1587 FILLER_6_27
*1588 FILLER_6_277
*1589 FILLER_6_309
*1590 FILLER_6_327
*1591 FILLER_6_359
*1592 FILLER_6_367
*1593 FILLER_6_59
*1594 FILLER_6_77
*1595 FILLER_7_0
*1596 FILLER_7_102
*1597 FILLER_7_134
*1598 FILLER_7_152
*1599 FILLER_7_184
*1600 FILLER_7_202
*1601 FILLER_7_234
*1602 FILLER_7_252
*1603 FILLER_7_284
*1604 FILLER_7_302
*1605 FILLER_7_32
*1606 FILLER_7_334
*1607 FILLER_7_352
*1608 FILLER_7_368
*1609 FILLER_7_48
*1610 FILLER_7_52
*1611 FILLER_7_84
*1612 FILLER_8_0
*1613 FILLER_8_115
*1614 FILLER_8_123
*1615 FILLER_8_127
*1616 FILLER_8_159
*1617 FILLER_8_16
*1618 FILLER_8_177
*1619 FILLER_8_209
*1620 FILLER_8_227
*1621 FILLER_8_24
*1622 FILLER_8_259
*1623 FILLER_8_27
*1624 FILLER_8_277
*1625 FILLER_8_309
*1626 FILLER_8_327
*1627 FILLER_8_359
*1628 FILLER_8_367
*1629 FILLER_8_43
*1630 FILLER_8_58
*1631 FILLER_8_74
*1632 FILLER_8_77
*1633 FILLER_8_81
*1634 FILLER_8_83
*1635 FILLER_9_0
*1636 FILLER_9_102
*1637 FILLER_9_134
*1638 FILLER_9_152
*1639 FILLER_9_18
*1640 FILLER_9_184
*1641 FILLER_9_202
*1642 FILLER_9_234
*1643 FILLER_9_252
*1644 FILLER_9_284
*1645 FILLER_9_302
*1646 FILLER_9_334
*1647 FILLER_9_352
*1648 FILLER_9_368
*1649 FILLER_9_4
*1650 FILLER_9_52
*1651 FILLER_9_84
*1652 TAP_TAPCELL_ROW_0_0
*1653 TAP_TAPCELL_ROW_0_1
*1654 TAP_TAPCELL_ROW_0_10
*1655 TAP_TAPCELL_ROW_0_11
*1656 TAP_TAPCELL_ROW_0_12
*1657 TAP_TAPCELL_ROW_0_13
*1658 TAP_TAPCELL_ROW_0_14
*1659 TAP_TAPCELL_ROW_0_2
*1660 TAP_TAPCELL_ROW_0_3
*1661 TAP_TAPCELL_ROW_0_4
*1662 TAP_TAPCELL_ROW_0_5
*1663 TAP_TAPCELL_ROW_0_6
*1664 TAP_TAPCELL_ROW_0_7
*1665 TAP_TAPCELL_ROW_0_8
*1666 TAP_TAPCELL_ROW_0_9
*1667 TAP_TAPCELL_ROW_10_78
*1668 TAP_TAPCELL_ROW_10_79
*1669 TAP_TAPCELL_ROW_10_80
*1670 TAP_TAPCELL_ROW_10_81
*1671 TAP_TAPCELL_ROW_10_82
*1672 TAP_TAPCELL_ROW_10_83
*1673 TAP_TAPCELL_ROW_10_84
*1674 TAP_TAPCELL_ROW_11_85
*1675 TAP_TAPCELL_ROW_11_86
*1676 TAP_TAPCELL_ROW_11_87
*1677 TAP_TAPCELL_ROW_11_88
*1678 TAP_TAPCELL_ROW_11_89
*1679 TAP_TAPCELL_ROW_11_90
*1680 TAP_TAPCELL_ROW_11_91
*1681 TAP_TAPCELL_ROW_12_92
*1682 TAP_TAPCELL_ROW_12_93
*1683 TAP_TAPCELL_ROW_12_94
*1684 TAP_TAPCELL_ROW_12_95
*1685 TAP_TAPCELL_ROW_12_96
*1686 TAP_TAPCELL_ROW_12_97
*1687 TAP_TAPCELL_ROW_12_98
*1688 TAP_TAPCELL_ROW_13_100
*1689 TAP_TAPCELL_ROW_13_101
*1690 TAP_TAPCELL_ROW_13_102
*1691 TAP_TAPCELL_ROW_13_103
*1692 TAP_TAPCELL_ROW_13_104
*1693 TAP_TAPCELL_ROW_13_105
*1694 TAP_TAPCELL_ROW_13_99
*1695 TAP_TAPCELL_ROW_14_106
*1696 TAP_TAPCELL_ROW_14_107
*1697 TAP_TAPCELL_ROW_14_108
*1698 TAP_TAPCELL_ROW_14_109
*1699 TAP_TAPCELL_ROW_14_110
*1700 TAP_TAPCELL_ROW_14_111
*1701 TAP_TAPCELL_ROW_14_112
*1702 TAP_TAPCELL_ROW_15_113
*1703 TAP_TAPCELL_ROW_15_114
*1704 TAP_TAPCELL_ROW_15_115
*1705 TAP_TAPCELL_ROW_15_116
*1706 TAP_TAPCELL_ROW_15_117
*1707 TAP_TAPCELL_ROW_15_118
*1708 TAP_TAPCELL_ROW_15_119
*1709 TAP_TAPCELL_ROW_16_120
*1710 TAP_TAPCELL_ROW_16_121
*1711 TAP_TAPCELL_ROW_16_122
*1712 TAP_TAPCELL_ROW_16_123
*1713 TAP_TAPCELL_ROW_16_124
*1714 TAP_TAPCELL_ROW_16_125
*1715 TAP_TAPCELL_ROW_16_126
*1716 TAP_TAPCELL_ROW_17_127
*1717 TAP_TAPCELL_ROW_17_128
*1718 TAP_TAPCELL_ROW_17_129
*1719 TAP_TAPCELL_ROW_17_130
*1720 TAP_TAPCELL_ROW_17_131
*1721 TAP_TAPCELL_ROW_17_132
*1722 TAP_TAPCELL_ROW_17_133
*1723 TAP_TAPCELL_ROW_18_134
*1724 TAP_TAPCELL_ROW_18_135
*1725 TAP_TAPCELL_ROW_18_136
*1726 TAP_TAPCELL_ROW_18_137
*1727 TAP_TAPCELL_ROW_18_138
*1728 TAP_TAPCELL_ROW_18_139
*1729 TAP_TAPCELL_ROW_18_140
*1730 TAP_TAPCELL_ROW_19_141
*1731 TAP_TAPCELL_ROW_19_142
*1732 TAP_TAPCELL_ROW_19_143
*1733 TAP_TAPCELL_ROW_19_144
*1734 TAP_TAPCELL_ROW_19_145
*1735 TAP_TAPCELL_ROW_19_146
*1736 TAP_TAPCELL_ROW_19_147
*1737 TAP_TAPCELL_ROW_1_15
*1738 TAP_TAPCELL_ROW_1_16
*1739 TAP_TAPCELL_ROW_1_17
*1740 TAP_TAPCELL_ROW_1_18
*1741 TAP_TAPCELL_ROW_1_19
*1742 TAP_TAPCELL_ROW_1_20
*1743 TAP_TAPCELL_ROW_1_21
*1744 TAP_TAPCELL_ROW_20_148
*1745 TAP_TAPCELL_ROW_20_149
*1746 TAP_TAPCELL_ROW_20_150
*1747 TAP_TAPCELL_ROW_20_151
*1748 TAP_TAPCELL_ROW_20_152
*1749 TAP_TAPCELL_ROW_20_153
*1750 TAP_TAPCELL_ROW_20_154
*1751 TAP_TAPCELL_ROW_21_155
*1752 TAP_TAPCELL_ROW_21_156
*1753 TAP_TAPCELL_ROW_21_157
*1754 TAP_TAPCELL_ROW_21_158
*1755 TAP_TAPCELL_ROW_21_159
*1756 TAP_TAPCELL_ROW_21_160
*1757 TAP_TAPCELL_ROW_21_161
*1758 TAP_TAPCELL_ROW_22_162
*1759 TAP_TAPCELL_ROW_22_163
*1760 TAP_TAPCELL_ROW_22_164
*1761 TAP_TAPCELL_ROW_22_165
*1762 TAP_TAPCELL_ROW_22_166
*1763 TAP_TAPCELL_ROW_22_167
*1764 TAP_TAPCELL_ROW_22_168
*1765 TAP_TAPCELL_ROW_23_169
*1766 TAP_TAPCELL_ROW_23_170
*1767 TAP_TAPCELL_ROW_23_171
*1768 TAP_TAPCELL_ROW_23_172
*1769 TAP_TAPCELL_ROW_23_173
*1770 TAP_TAPCELL_ROW_23_174
*1771 TAP_TAPCELL_ROW_23_175
*1772 TAP_TAPCELL_ROW_24_176
*1773 TAP_TAPCELL_ROW_24_177
*1774 TAP_TAPCELL_ROW_24_178
*1775 TAP_TAPCELL_ROW_24_179
*1776 TAP_TAPCELL_ROW_24_180
*1777 TAP_TAPCELL_ROW_24_181
*1778 TAP_TAPCELL_ROW_24_182
*1779 TAP_TAPCELL_ROW_25_183
*1780 TAP_TAPCELL_ROW_25_184
*1781 TAP_TAPCELL_ROW_25_185
*1782 TAP_TAPCELL_ROW_25_186
*1783 TAP_TAPCELL_ROW_25_187
*1784 TAP_TAPCELL_ROW_25_188
*1785 TAP_TAPCELL_ROW_25_189
*1786 TAP_TAPCELL_ROW_26_190
*1787 TAP_TAPCELL_ROW_26_191
*1788 TAP_TAPCELL_ROW_26_192
*1789 TAP_TAPCELL_ROW_26_193
*1790 TAP_TAPCELL_ROW_26_194
*1791 TAP_TAPCELL_ROW_26_195
*1792 TAP_TAPCELL_ROW_26_196
*1793 TAP_TAPCELL_ROW_27_197
*1794 TAP_TAPCELL_ROW_27_198
*1795 TAP_TAPCELL_ROW_27_199
*1796 TAP_TAPCELL_ROW_27_200
*1797 TAP_TAPCELL_ROW_27_201
*1798 TAP_TAPCELL_ROW_27_202
*1799 TAP_TAPCELL_ROW_27_203
*1800 TAP_TAPCELL_ROW_28_204
*1801 TAP_TAPCELL_ROW_28_205
*1802 TAP_TAPCELL_ROW_28_206
*1803 TAP_TAPCELL_ROW_28_207
*1804 TAP_TAPCELL_ROW_28_208
*1805 TAP_TAPCELL_ROW_28_209
*1806 TAP_TAPCELL_ROW_28_210
*1807 TAP_TAPCELL_ROW_29_211
*1808 TAP_TAPCELL_ROW_29_212
*1809 TAP_TAPCELL_ROW_29_213
*1810 TAP_TAPCELL_ROW_29_214
*1811 TAP_TAPCELL_ROW_29_215
*1812 TAP_TAPCELL_ROW_29_216
*1813 TAP_TAPCELL_ROW_29_217
*1814 TAP_TAPCELL_ROW_2_22
*1815 TAP_TAPCELL_ROW_2_23
*1816 TAP_TAPCELL_ROW_2_24
*1817 TAP_TAPCELL_ROW_2_25
*1818 TAP_TAPCELL_ROW_2_26
*1819 TAP_TAPCELL_ROW_2_27
*1820 TAP_TAPCELL_ROW_2_28
*1821 TAP_TAPCELL_ROW_30_218
*1822 TAP_TAPCELL_ROW_30_219
*1823 TAP_TAPCELL_ROW_30_220
*1824 TAP_TAPCELL_ROW_30_221
*1825 TAP_TAPCELL_ROW_30_222
*1826 TAP_TAPCELL_ROW_30_223
*1827 TAP_TAPCELL_ROW_30_224
*1828 TAP_TAPCELL_ROW_31_225
*1829 TAP_TAPCELL_ROW_31_226
*1830 TAP_TAPCELL_ROW_31_227
*1831 TAP_TAPCELL_ROW_31_228
*1832 TAP_TAPCELL_ROW_31_229
*1833 TAP_TAPCELL_ROW_31_230
*1834 TAP_TAPCELL_ROW_31_231
*1835 TAP_TAPCELL_ROW_32_232
*1836 TAP_TAPCELL_ROW_32_233
*1837 TAP_TAPCELL_ROW_32_234
*1838 TAP_TAPCELL_ROW_32_235
*1839 TAP_TAPCELL_ROW_32_236
*1840 TAP_TAPCELL_ROW_32_237
*1841 TAP_TAPCELL_ROW_32_238
*1842 TAP_TAPCELL_ROW_33_239
*1843 TAP_TAPCELL_ROW_33_240
*1844 TAP_TAPCELL_ROW_33_241
*1845 TAP_TAPCELL_ROW_33_242
*1846 TAP_TAPCELL_ROW_33_243
*1847 TAP_TAPCELL_ROW_33_244
*1848 TAP_TAPCELL_ROW_33_245
*1849 TAP_TAPCELL_ROW_34_246
*1850 TAP_TAPCELL_ROW_34_247
*1851 TAP_TAPCELL_ROW_34_248
*1852 TAP_TAPCELL_ROW_34_249
*1853 TAP_TAPCELL_ROW_34_250
*1854 TAP_TAPCELL_ROW_34_251
*1855 TAP_TAPCELL_ROW_34_252
*1856 TAP_TAPCELL_ROW_35_253
*1857 TAP_TAPCELL_ROW_35_254
*1858 TAP_TAPCELL_ROW_35_255
*1859 TAP_TAPCELL_ROW_35_256
*1860 TAP_TAPCELL_ROW_35_257
*1861 TAP_TAPCELL_ROW_35_258
*1862 TAP_TAPCELL_ROW_35_259
*1863 TAP_TAPCELL_ROW_36_260
*1864 TAP_TAPCELL_ROW_36_261
*1865 TAP_TAPCELL_ROW_36_262
*1866 TAP_TAPCELL_ROW_36_263
*1867 TAP_TAPCELL_ROW_36_264
*1868 TAP_TAPCELL_ROW_36_265
*1869 TAP_TAPCELL_ROW_36_266
*1870 TAP_TAPCELL_ROW_37_267
*1871 TAP_TAPCELL_ROW_37_268
*1872 TAP_TAPCELL_ROW_37_269
*1873 TAP_TAPCELL_ROW_37_270
*1874 TAP_TAPCELL_ROW_37_271
*1875 TAP_TAPCELL_ROW_37_272
*1876 TAP_TAPCELL_ROW_37_273
*1877 TAP_TAPCELL_ROW_38_274
*1878 TAP_TAPCELL_ROW_38_275
*1879 TAP_TAPCELL_ROW_38_276
*1880 TAP_TAPCELL_ROW_38_277
*1881 TAP_TAPCELL_ROW_38_278
*1882 TAP_TAPCELL_ROW_38_279
*1883 TAP_TAPCELL_ROW_38_280
*1884 TAP_TAPCELL_ROW_39_281
*1885 TAP_TAPCELL_ROW_39_282
*1886 TAP_TAPCELL_ROW_39_283
*1887 TAP_TAPCELL_ROW_39_284
*1888 TAP_TAPCELL_ROW_39_285
*1889 TAP_TAPCELL_ROW_39_286
*1890 TAP_TAPCELL_ROW_39_287
*1891 TAP_TAPCELL_ROW_3_29
*1892 TAP_TAPCELL_ROW_3_30
*1893 TAP_TAPCELL_ROW_3_31
*1894 TAP_TAPCELL_ROW_3_32
*1895 TAP_TAPCELL_ROW_3_33
*1896 TAP_TAPCELL_ROW_3_34
*1897 TAP_TAPCELL_ROW_3_35
*1898 TAP_TAPCELL_ROW_40_288
*1899 TAP_TAPCELL_ROW_40_289
*1900 TAP_TAPCELL_ROW_40_290
*1901 TAP_TAPCELL_ROW_40_291
*1902 TAP_TAPCELL_ROW_40_292
*1903 TAP_TAPCELL_ROW_40_293
*1904 TAP_TAPCELL_ROW_40_294
*1905 TAP_TAPCELL_ROW_41_295
*1906 TAP_TAPCELL_ROW_41_296
*1907 TAP_TAPCELL_ROW_41_297
*1908 TAP_TAPCELL_ROW_41_298
*1909 TAP_TAPCELL_ROW_41_299
*1910 TAP_TAPCELL_ROW_41_300
*1911 TAP_TAPCELL_ROW_41_301
*1912 TAP_TAPCELL_ROW_42_302
*1913 TAP_TAPCELL_ROW_42_303
*1914 TAP_TAPCELL_ROW_42_304
*1915 TAP_TAPCELL_ROW_42_305
*1916 TAP_TAPCELL_ROW_42_306
*1917 TAP_TAPCELL_ROW_42_307
*1918 TAP_TAPCELL_ROW_42_308
*1919 TAP_TAPCELL_ROW_43_309
*1920 TAP_TAPCELL_ROW_43_310
*1921 TAP_TAPCELL_ROW_43_311
*1922 TAP_TAPCELL_ROW_43_312
*1923 TAP_TAPCELL_ROW_43_313
*1924 TAP_TAPCELL_ROW_43_314
*1925 TAP_TAPCELL_ROW_43_315
*1926 TAP_TAPCELL_ROW_44_316
*1927 TAP_TAPCELL_ROW_44_317
*1928 TAP_TAPCELL_ROW_44_318
*1929 TAP_TAPCELL_ROW_44_319
*1930 TAP_TAPCELL_ROW_44_320
*1931 TAP_TAPCELL_ROW_44_321
*1932 TAP_TAPCELL_ROW_44_322
*1933 TAP_TAPCELL_ROW_45_323
*1934 TAP_TAPCELL_ROW_45_324
*1935 TAP_TAPCELL_ROW_45_325
*1936 TAP_TAPCELL_ROW_45_326
*1937 TAP_TAPCELL_ROW_45_327
*1938 TAP_TAPCELL_ROW_45_328
*1939 TAP_TAPCELL_ROW_45_329
*1940 TAP_TAPCELL_ROW_46_330
*1941 TAP_TAPCELL_ROW_46_331
*1942 TAP_TAPCELL_ROW_46_332
*1943 TAP_TAPCELL_ROW_46_333
*1944 TAP_TAPCELL_ROW_46_334
*1945 TAP_TAPCELL_ROW_46_335
*1946 TAP_TAPCELL_ROW_46_336
*1947 TAP_TAPCELL_ROW_47_337
*1948 TAP_TAPCELL_ROW_47_338
*1949 TAP_TAPCELL_ROW_47_339
*1950 TAP_TAPCELL_ROW_47_340
*1951 TAP_TAPCELL_ROW_47_341
*1952 TAP_TAPCELL_ROW_47_342
*1953 TAP_TAPCELL_ROW_47_343
*1954 TAP_TAPCELL_ROW_48_344
*1955 TAP_TAPCELL_ROW_48_345
*1956 TAP_TAPCELL_ROW_48_346
*1957 TAP_TAPCELL_ROW_48_347
*1958 TAP_TAPCELL_ROW_48_348
*1959 TAP_TAPCELL_ROW_48_349
*1960 TAP_TAPCELL_ROW_48_350
*1961 TAP_TAPCELL_ROW_49_351
*1962 TAP_TAPCELL_ROW_49_352
*1963 TAP_TAPCELL_ROW_49_353
*1964 TAP_TAPCELL_ROW_49_354
*1965 TAP_TAPCELL_ROW_49_355
*1966 TAP_TAPCELL_ROW_49_356
*1967 TAP_TAPCELL_ROW_49_357
*1968 TAP_TAPCELL_ROW_4_36
*1969 TAP_TAPCELL_ROW_4_37
*1970 TAP_TAPCELL_ROW_4_38
*1971 TAP_TAPCELL_ROW_4_39
*1972 TAP_TAPCELL_ROW_4_40
*1973 TAP_TAPCELL_ROW_4_41
*1974 TAP_TAPCELL_ROW_4_42
*1975 TAP_TAPCELL_ROW_50_358
*1976 TAP_TAPCELL_ROW_50_359
*1977 TAP_TAPCELL_ROW_50_360
*1978 TAP_TAPCELL_ROW_50_361
*1979 TAP_TAPCELL_ROW_50_362
*1980 TAP_TAPCELL_ROW_50_363
*1981 TAP_TAPCELL_ROW_50_364
*1982 TAP_TAPCELL_ROW_51_365
*1983 TAP_TAPCELL_ROW_51_366
*1984 TAP_TAPCELL_ROW_51_367
*1985 TAP_TAPCELL_ROW_51_368
*1986 TAP_TAPCELL_ROW_51_369
*1987 TAP_TAPCELL_ROW_51_370
*1988 TAP_TAPCELL_ROW_51_371
*1989 TAP_TAPCELL_ROW_51_372
*1990 TAP_TAPCELL_ROW_51_373
*1991 TAP_TAPCELL_ROW_51_374
*1992 TAP_TAPCELL_ROW_51_375
*1993 TAP_TAPCELL_ROW_51_376
*1994 TAP_TAPCELL_ROW_51_377
*1995 TAP_TAPCELL_ROW_51_378
*1996 TAP_TAPCELL_ROW_51_379
*1997 TAP_TAPCELL_ROW_5_43
*1998 TAP_TAPCELL_ROW_5_44
*1999 TAP_TAPCELL_ROW_5_45
*2000 TAP_TAPCELL_ROW_5_46
*2001 TAP_TAPCELL_ROW_5_47
*2002 TAP_TAPCELL_ROW_5_48
*2003 TAP_TAPCELL_ROW_5_49
*2004 TAP_TAPCELL_ROW_6_50
*2005 TAP_TAPCELL_ROW_6_51
*2006 TAP_TAPCELL_ROW_6_52
*2007 TAP_TAPCELL_ROW_6_53
*2008 TAP_TAPCELL_ROW_6_54
*2009 TAP_TAPCELL_ROW_6_55
*2010 TAP_TAPCELL_ROW_6_56
*2011 TAP_TAPCELL_ROW_7_57
*2012 TAP_TAPCELL_ROW_7_58
*2013 TAP_TAPCELL_ROW_7_59
*2014 TAP_TAPCELL_ROW_7_60
*2015 TAP_TAPCELL_ROW_7_61
*2016 TAP_TAPCELL_ROW_7_62
*2017 TAP_TAPCELL_ROW_7_63
*2018 TAP_TAPCELL_ROW_8_64
*2019 TAP_TAPCELL_ROW_8_65
*2020 TAP_TAPCELL_ROW_8_66
*2021 TAP_TAPCELL_ROW_8_67
*2022 TAP_TAPCELL_ROW_8_68
*2023 TAP_TAPCELL_ROW_8_69
*2024 TAP_TAPCELL_ROW_8_70
*2025 TAP_TAPCELL_ROW_9_71
*2026 TAP_TAPCELL_ROW_9_72
*2027 TAP_TAPCELL_ROW_9_73
*2028 TAP_TAPCELL_ROW_9_74
*2029 TAP_TAPCELL_ROW_9_75
*2030 TAP_TAPCELL_ROW_9_76
*2031 TAP_TAPCELL_ROW_9_77
*2032 _216_
*2033 _217_
*2034 _218_
*2035 _219_
*2036 _220_
*2037 _221_
*2038 _222_
*2039 _223_
*2040 _224_
*2041 _225_
*2042 _226_
*2043 _227_
*2044 _228_
*2045 _229_
*2046 _230_
*2047 _231_
*2048 _232_
*2049 _233_
*2050 _234_
*2051 _235_
*2052 _236_
*2053 _237_
*2054 _238_
*2055 _239_
*2056 _240_
*2057 _241_
*2058 _242_
*2059 _243_
*2060 _244_
*2061 _245_
*2062 _246_
*2063 _247_
*2064 _248_
*2065 _249_
*2066 _250_
*2067 _251_
*2068 _252_
*2069 _253_
*2070 _254_
*2071 _255_
*2072 _256_
*2073 _257_
*2074 _258_
*2075 _259_
*2076 _260_
*2077 _261_
*2078 _262_
*2079 _263_
*2080 _264_
*2081 _265_
*2082 _266_
*2083 _267_
*2084 _268_
*2085 _269_
*2086 _270_
*2087 _271_
*2088 _272_
*2089 _273_
*2090 _274_
*2091 _275_
*2092 _276_
*2093 _277_
*2094 _278_
*2095 _279_
*2096 _280_
*2097 _281_
*2098 _282_
*2099 _283_
*2100 _284_
*2101 _285_
*2102 _286_
*2103 _287_
*2104 _288_
*2105 _289_
*2106 _290_
*2107 _291_
*2108 _292_
*2109 _293_
*2110 _294_
*2111 _295_
*2112 _296_
*2113 _297_
*2114 _298_
*2115 _299_
*2116 _300_
*2117 _301_
*2118 _302_
*2119 _303_
*2120 _304_
*2121 _305_
*2122 _306_
*2123 _307_
*2124 _308_
*2125 _309_
*2126 _310_
*2127 _311_
*2128 _312_
*2129 _313_
*2130 _314_
*2131 _315_
*2132 _316_
*2133 _317_
*2134 _318_
*2135 _319_
*2136 _320_
*2137 _321_
*2138 _322_
*2139 _323_
*2140 _324_
*2141 _325_
*2142 _326_
*2143 _327_
*2144 _328_
*2145 _329_
*2146 _330_
*2147 _331_
*2148 _332_
*2149 _333_
*2150 _334_
*2151 _335_
*2152 _336_
*2153 _337_
*2154 _338_
*2155 _339_
*2156 _340_
*2157 _341_
*2158 _342_
*2159 _343_
*2160 _344_
*2161 _345_
*2162 _346_
*2163 _347_
*2164 _348_
*2165 _349_
*2166 _350_
*2167 _351_
*2168 _352_
*2169 _353_
*2170 _354_
*2171 _355_
*2172 _356_
*2173 _357_
*2174 _358_
*2175 _359_
*2176 _360_
*2177 _361_
*2178 _362_
*2179 _363_
*2180 _364_
*2181 _365_
*2182 _366_
*2183 _367_
*2184 _368_
*2185 _369_
*2186 _370_
*2187 _371_
*2188 _372_
*2189 _373_
*2190 _374_
*2191 _375_
*2192 _376_
*2193 _377_
*2194 _378_
*2195 _379_
*2196 _380_
*2197 _381_
*2198 _382_
*2199 _383_
*2200 _384_
*2201 _385_
*2202 _386_
*2203 _387_
*2204 _388_
*2205 _389_
*2206 _390_
*2207 _391_
*2208 _392_
*2209 _393_
*2210 _394_
*2211 _395_
*2212 _396_
*2213 _397_
*2214 _398_
*2215 _399_
*2216 _400_
*2217 _401_
*2218 _402_
*2219 _403_
*2220 _404_
*2221 _405_
*2222 _406_
*2223 _407_
*2224 _408_
*2225 _409_
*2226 _410_
*2227 _411_
*2228 _412_
*2229 _413_
*2230 _414_
*2231 _415_
*2232 _416_
*2233 _417_
*2234 _418_
*2235 _419_
*2236 _420_
*2237 _421_
*2238 _422_
*2239 _423_
*2240 _424_
*2241 _425_
*2242 _426_
*2243 _427_
*2244 _428_
*2245 _429_
*2246 _430_
*2247 _431_
*2248 _432_
*2249 _433_
*2250 _434_
*2251 _435_
*2252 _436_
*2253 _437_
*2254 _438_
*2255 _439_
*2256 _440_
*2257 _441_
*2258 _442_
*2259 _443_
*2260 _444_
*2261 _445_
*2262 _446_
*2263 _447_
*2264 _448_
*2265 _449_
*2266 _450_
*2267 _451_
*2268 _452_
*2269 _453_
*2270 _454_
*2271 _455_
*2272 _456_
*2273 _457_
*2274 _458_
*2275 _459_
*2276 _460_
*2277 _461_
*2278 _462_
*2279 _463_
*2280 _464_
*2281 _465_
*2282 _466_
*2283 _467_
*2284 _468_
*2285 _469_
*2286 _470_
*2287 _471_
*2288 _472_
*2289 _473_
*2290 _474_
*2291 _475_
*2292 _476_
*2293 _477_
*2294 _478_
*2295 _479_
*2296 _480_
*2297 _481_
*2298 _482_
*2299 _483_
*2300 _484_
*2301 _485_
*2302 _486_
*2303 _487_
*2304 _488_
*2305 _489_
*2306 _490_
*2307 _491_
*2308 _492_
*2309 _493_
*2310 _494_
*2311 _495_
*2312 _496_
*2313 clkbuf_0_clk
*2314 clkbuf_3_0__f_clk
*2315 clkbuf_3_1__f_clk
*2316 clkbuf_3_2__f_clk
*2317 clkbuf_3_3__f_clk
*2318 clkbuf_3_4__f_clk
*2319 clkbuf_3_5__f_clk
*2320 clkbuf_3_6__f_clk
*2321 clkbuf_3_7__f_clk
*2322 clkload0
*2323 clkload1
*2324 clkload2
*2325 clkload3
*2326 clkload4
*2327 clkload5
*2328 clkload6
*2329 input10
*2330 input11
*2331 input12
*2332 input13
*2333 input14
*2334 input15
*2335 input16
*2336 input17
*2337 input18
*2338 input19
*2339 input20
*2340 input21
*2341 input22
*2342 input23
*2343 input24
*2344 input25
*2345 input26
*2346 input27
*2347 input28
*2348 input29
*2349 input30
*2350 input31
*2351 input32
*2352 input33
*2353 input34
*2354 input35
*2355 input36
*2356 input37
*2357 input38
*2358 input39
*2359 input40
*2360 input41
*2361 input8
*2362 input9
*2363 load_slew43
*2364 load_slew44
*2365 load_slew45
*2366 load_slew46
*2367 place6
*2368 place7
*2369 spare_aoi_0
*2370 spare_dff_0
*2371 spare_inverter_0
*2372 spare_mux2_0
*2373 spare_nand2_0
*2374 spare_nor2_0
*2375 spare_tielo_drv
*2376 wire42

*PORTS
clk I
p O
rst I
x[0] I
x[10] I
x[11] I
x[12] I
x[13] I
x[14] I
x[15] I
x[16] I
x[17] I
x[18] I
x[19] I
x[1] I
x[20] I
x[21] I
x[22] I
x[23] I
x[24] I
x[25] I
x[26] I
x[27] I
x[28] I
x[29] I
x[2] I
x[30] I
x[31] I
x[3] I
x[4] I
x[5] I
x[6] I
x[7] I
x[8] I
x[9] I
y I

*D_NET *39 0.00174079
*CONN
*I *2305:D I *D gf180mcu_fd_sc_mcu7t5v0__dffq_1
*I *2069:ZN O *D gf180mcu_fd_sc_mcu7t5v0__nor3_1
*CAP
1 *2305:D 0.000523808
2 *2069:ZN 0.000523808
3 *2305:D *2069:A2 0.000169379
4 *2305:D *2069:A3 0.000465423
5 *2305:D *2180:A2 5.8372e-05
*RES
1 *2069:ZN *2305:D 12.1515 
*END

*D_NET *40 0.00564863
*CONN
*I *2304:D I *D gf180mcu_fd_sc_mcu7t5v0__dffq_1
*I *2072:ZN O *D gf180mcu_fd_sc_mcu7t5v0__nor3_1
*CAP
1 *2304:D 0.000283574
2 *2072:ZN 0.000283574
3 *2304:D *2070:B1 5.94706e-05
4 *2304:D *2072:A2 0.00296576
5 *2304:D *2072:A3 0.000814283
6 *2304:D *2184:A1 5.94706e-05
7 *2304:D *2184:A2 0.00104699
8 *2304:D *186:14 0.000135503
*RES
1 *2072:ZN *2304:D 12.0465 
*END

*D_NET *41 0.00234978
*CONN
*I *2303:D I *D gf180mcu_fd_sc_mcu7t5v0__dffq_1
*I *2075:ZN O *D gf180mcu_fd_sc_mcu7t5v0__nor3_1
*CAP
1 *2303:D 0.000444186
2 *2075:ZN 0.000444186
3 *2303:D *2073:A1 4.86578e-06
4 *2303:D *2075:A2 0.000846835
5 *2303:D *189:10 0.000609704
*RES
1 *2075:ZN *2303:D 12.1515 
*END

*D_NET *42 0.000807363
*CONN
*I *2302:D I *D gf180mcu_fd_sc_mcu7t5v0__dffq_1
*I *2078:ZN O *D gf180mcu_fd_sc_mcu7t5v0__nor3_1
*CAP
1 *2302:D 0.000403681
2 *2078:ZN 0.000403681
3 *2302:D *2076:A1 0
4 *2302:D *2302:CLK 0
*RES
1 *2078:ZN *2302:D 10.8909 
*END

*D_NET *43 0.00379431
*CONN
*I *2301:D I *D gf180mcu_fd_sc_mcu7t5v0__dffq_1
*I *2081:ZN O *D gf180mcu_fd_sc_mcu7t5v0__nor3_1
*CAP
1 *2301:D 0.000609474
2 *2081:ZN 0.000609474
3 *2301:D *2196:A1 0.000531209
4 *2301:D *2196:A2 0.000420726
5 *2301:D *195:10 0.00136739
6 *2301:D *289:71 7.09976e-05
7 *2301:D *305:34 9.73157e-06
8 *2301:D *349:10 0.000175302
*RES
1 *2081:ZN *2301:D 22.4121 
*END

*D_NET *44 0.00103639
*CONN
*I *2300:D I *D gf180mcu_fd_sc_mcu7t5v0__dffq_1
*I *2084:ZN O *D gf180mcu_fd_sc_mcu7t5v0__nor3_1
*CAP
1 *2300:D 0.000413016
2 *2084:ZN 0.000413016
3 *2300:D *2084:A3 0.000105181
4 *2300:D *2203:A2 0
5 *2300:D *2267:D 0.000105181
6 *2300:D *2300:CLK 0
*RES
1 *2084:ZN *2300:D 20.5212 
*END

*D_NET *45 0.00905317
*CONN
*I *2299:D I *D gf180mcu_fd_sc_mcu7t5v0__dffq_1
*I *2087:ZN O *D gf180mcu_fd_sc_mcu7t5v0__nor3_1
*CAP
1 *2299:D 0.000776817
2 *2087:ZN 0.000776817
3 *2299:D *2085:B1 0.0027348
4 *2299:D *2085:B2 0.0029784
5 *2299:D *2087:A2 0.0004628
6 *2299:D *2087:A3 0
7 *2299:D *2266:D 0.000105181
8 *2299:D *264:10 6.1356e-05
9 *2299:D *346:33 0.001157
*RES
1 *2087:ZN *2299:D 24.7232 
*END

*D_NET *46 0.00185496
*CONN
*I *2298:D I *D gf180mcu_fd_sc_mcu7t5v0__dffq_1
*I *2090:ZN O *D gf180mcu_fd_sc_mcu7t5v0__nor3_1
*CAP
1 *2298:D 0.000574285
2 *2090:ZN 0.000574285
3 *2298:D *2090:A2 0.000120959
4 *2298:D *2090:A3 0.000483799
5 *2298:D *204:10 0
6 *2298:D *288:29 0.000101627
*RES
1 *2090:ZN *2298:D 21.1515 
*END

*D_NET *47 0.00222068
*CONN
*I *2297:D I *D gf180mcu_fd_sc_mcu7t5v0__dffq_1
*I *2093:ZN O *D gf180mcu_fd_sc_mcu7t5v0__nor3_1
*CAP
1 *2297:D 0.000777261
2 *2093:ZN 0.000777261
3 *2297:D *2093:A2 0.000315546
4 *2297:D *2214:A1 2.36659e-05
5 *2297:D *334:102 4.29574e-05
6 *2297:D *334:125 0.000283991
*RES
1 *2093:ZN *2297:D 23.0424 
*END

*D_NET *48 0.00112698
*CONN
*I *2296:D I *D gf180mcu_fd_sc_mcu7t5v0__dffq_1
*I *2096:ZN O *D gf180mcu_fd_sc_mcu7t5v0__nor3_1
*CAP
1 *2296:D 0.000410522
2 *2096:ZN 0.000410522
3 *2296:D *2096:A1 3.38758e-05
4 *2296:D *2096:A2 9.91176e-05
5 *2296:D *2216:A2 7.15956e-05
6 *2296:D *2296:CLK 5.83894e-05
7 *2296:D *343:8 4.29574e-05
*RES
1 *2096:ZN *2296:D 11.3111 
*END

*D_NET *49 0.00260738
*CONN
*I *2295:D I *D gf180mcu_fd_sc_mcu7t5v0__dffq_1
*I *2099:ZN O *D gf180mcu_fd_sc_mcu7t5v0__nor3_1
*CAP
1 *2295:D 0.000538766
2 *2099:ZN 0.000538766
3 *2295:D *2099:A1 0
4 *2295:D *2099:A2 0
5 *2295:D *2099:A3 5.72765e-05
6 *2295:D *260:18 0.000105182
7 *2295:D *290:52 0.00136739
8 *1:14 *2295:D 0
*RES
1 *2099:ZN *2295:D 21.3616 
*END

*D_NET *50 0.000806733
*CONN
*I *2294:D I *D gf180mcu_fd_sc_mcu7t5v0__dffq_1
*I *2102:ZN O *D gf180mcu_fd_sc_mcu7t5v0__nor3_1
*CAP
1 *2294:D 0.00017581
2 *2102:ZN 0.00017581
3 *2294:D *2102:A1 0.000455114
4 *1:14 *2294:D 0
*RES
1 *2102:ZN *2294:D 10.3657 
*END

*D_NET *51 0.00108835
*CONN
*I *2293:D I *D gf180mcu_fd_sc_mcu7t5v0__dffq_1
*I *2105:ZN O *D gf180mcu_fd_sc_mcu7t5v0__nor3_1
*CAP
1 *2293:D 0.00020918
2 *2105:ZN 0.00020918
3 *2293:D *2103:B2 0
4 *2293:D *2104:A1 0.000372634
5 *2293:D *2105:A2 0.000218059
6 *2293:D *2105:A3 7.92941e-05
*RES
1 *2105:ZN *2293:D 10.8909 
*END

*D_NET *52 0.000955781
*CONN
*I *2292:D I *D gf180mcu_fd_sc_mcu7t5v0__dffq_1
*I *2108:ZN O *D gf180mcu_fd_sc_mcu7t5v0__nor3_1
*CAP
1 *2292:D 0.000233395
2 *2108:ZN 0.000233395
3 *2292:D *2108:A1 0
4 *2292:D *2108:A2 0.000372634
5 *2292:D *297:16 0.000116356
*RES
1 *2108:ZN *2292:D 10.3657 
*END

*D_NET *53 0.00197847
*CONN
*I *2291:D I *D gf180mcu_fd_sc_mcu7t5v0__dffq_1
*I *2111:ZN O *D gf180mcu_fd_sc_mcu7t5v0__nor3_1
*CAP
1 *2291:D 0.000804618
2 *2111:ZN 0.000804618
3 *2291:D *2111:A2 0
4 *2291:D *2111:A3 1.80316e-05
5 *2291:D *2291:CLK 0.000312202
6 *2291:D *291:25 3.90032e-05
*RES
1 *2111:ZN *2291:D 13.8323 
*END

*D_NET *54 0.00158609
*CONN
*I *2290:D I *D gf180mcu_fd_sc_mcu7t5v0__dffq_1
*I *2114:ZN O *D gf180mcu_fd_sc_mcu7t5v0__nor3_1
*CAP
1 *2290:D 0.000334635
2 *2114:ZN 0.000334635
3 *2290:D *2112:B1 0.000144994
4 *2290:D *2113:A1 1.15638e-05
5 *2290:D *2114:A2 0.000169379
6 *2290:D *2114:A3 0.000459192
7 *2290:D *291:69 0
8 *2290:D *313:20 0.00013169
*RES
1 *2114:ZN *2290:D 11.5212 
*END

*D_NET *55 0.00447158
*CONN
*I *2289:D I *D gf180mcu_fd_sc_mcu7t5v0__dffq_1
*I *2117:ZN O *D gf180mcu_fd_sc_mcu7t5v0__nor3_1
*CAP
1 *2289:D 0.000497127
2 *2117:ZN 0.000497127
3 *2289:D *2115:B1 0.000482047
4 *2289:D *2117:A2 0.000168729
5 *2289:D *2117:A3 0.000315544
6 *2289:D *2289:CLK 0
7 *2289:D *285:16 0.000532948
8 *2289:D *320:20 0.00197805
*RES
1 *2117:ZN *2289:D 21.3616 
*END

*D_NET *56 0.00208277
*CONN
*I *2288:D I *D gf180mcu_fd_sc_mcu7t5v0__dffq_1
*I *2120:ZN O *D gf180mcu_fd_sc_mcu7t5v0__nor3_1
*CAP
1 *2288:D 0.000356557
2 *2120:ZN 0.000356557
3 *2288:D *2120:A2 0.000148696
4 *2288:D *300:22 0.000257706
5 *2288:D *301:14 0.000963251
*RES
1 *2120:ZN *2288:D 12.3616 
*END

*D_NET *57 0.00157717
*CONN
*I *2287:D I *D gf180mcu_fd_sc_mcu7t5v0__dffq_1
*I *2123:ZN O *D gf180mcu_fd_sc_mcu7t5v0__nor3_1
*CAP
1 *2287:D 0.000778672
2 *2123:ZN 0.000778672
3 *2287:D *2121:A1 0
4 *2287:D *2123:A2 1.98235e-05
5 *2287:D *2175:A2 0
6 *2287:D *2287:CLK 0
7 *2287:D *330:37 0
*RES
1 *2123:ZN *2287:D 13.4121 
*END

*D_NET *58 0.00325692
*CONN
*I *2286:D I *D gf180mcu_fd_sc_mcu7t5v0__dffq_1
*I *2126:ZN O *D gf180mcu_fd_sc_mcu7t5v0__nor3_1
*CAP
1 *2286:D 0.000437589
2 *2126:ZN 0.000437589
3 *2286:D *2125:A1 0.000118941
4 *2286:D *2125:A2 2.25395e-05
5 *2286:D *2126:A2 0.000161624
6 *2286:D *2126:A3 0.00139004
7 *2286:D *2183:A1 0.000495588
8 *2286:D *282:12 0.000178412
9 *2286:D *311:30 1.45974e-05
*RES
1 *2126:ZN *2286:D 12.9919 
*END

*D_NET *59 0.00164868
*CONN
*I *2285:D I *D gf180mcu_fd_sc_mcu7t5v0__dffq_1
*I *2129:ZN O *D gf180mcu_fd_sc_mcu7t5v0__nor3_1
*CAP
1 *2285:D 0.000466926
2 *2129:ZN 0.000466926
3 *2285:D *2127:A2 0
4 *2285:D *2127:B1 1.48386e-05
5 *2285:D *2127:B2 0.00015434
6 *2285:D *2129:A2 0.000259082
7 *2285:D *2175:A2 3.6754e-05
8 *2285:D *243:10 0.000249818
*RES
1 *2129:ZN *2285:D 12.1515 
*END

*D_NET *60 0.000769872
*CONN
*I *2284:D I *D gf180mcu_fd_sc_mcu7t5v0__dffq_1
*I *2132:ZN O *D gf180mcu_fd_sc_mcu7t5v0__nor3_1
*CAP
1 *2284:D 0.000197152
2 *2132:ZN 0.000197152
3 *2284:D *2132:A2 0.000218059
4 *2284:D *303:16 0.00015751
*RES
1 *2132:ZN *2284:D 10.8909 
*END

*D_NET *61 0.0109882
*CONN
*I *2279:D I *D gf180mcu_fd_sc_mcu7t5v0__dffq_1
*I *2135:ZN O *D gf180mcu_fd_sc_mcu7t5v0__nor3_1
*CAP
1 *2279:D 0.00112054
2 *2135:ZN 0.00112054
3 *2279:D *2150:A1 0.00283994
4 *2279:D *2156:A1 0.001157
5 *2279:D *2156:A2 3.0678e-05
6 *2279:D *2160:A2 0
7 *2279:D *2279:CLK 0.000168253
8 *2279:D *159:12 9.99226e-05
9 *2279:D *311:30 0.000349069
10 *2279:D *369:575 0.00410222
*RES
1 *2135:ZN *2279:D 27.4545 
*END

*D_NET *62 0.00495497
*CONN
*I *2280:D I *D gf180mcu_fd_sc_mcu7t5v0__dffq_2
*I *2136:Z O *D gf180mcu_fd_sc_mcu7t5v0__and2_1
*CAP
1 *2280:D 0.000540604
2 *2136:Z 0.000540604
3 *2280:D *2312:CLK 0.00210367
4 *2280:D *306:18 0.00025767
5 *2280:D *307:28 0.00151242
6 *2280:D *319:14 0
7 *2280:D *321:22 0
*RES
1 *2136:Z *2280:D 21.6768 
*END

*D_NET *63 0.000728555
*CONN
*I *2248:D I *D gf180mcu_fd_sc_mcu7t5v0__dffq_1
*I *2141:ZN O *D gf180mcu_fd_sc_mcu7t5v0__nor2_1
*CAP
1 *2248:D 0.00015822
2 *2141:ZN 0.00015822
3 *2248:D *2141:A2 0.000229035
4 *2248:D *305:16 0.000170295
5 *2248:D *313:20 1.27849e-05
*RES
1 *2141:ZN *2248:D 10.6696 
*END

*D_NET *64 0.00201377
*CONN
*I *2312:D I *D gf180mcu_fd_sc_mcu7t5v0__dffq_1
*I *2142:Z O *D gf180mcu_fd_sc_mcu7t5v0__and2_1
*CAP
1 *2312:D 0.000404493
2 *2142:Z 0.000404493
3 *2312:D *2175:A2 0.000357953
4 *2312:D *323:18 0.000846835
*RES
1 *2142:Z *2312:D 12.0465 
*END

*D_NET *65 0.0051609
*CONN
*I *2283:D I *D gf180mcu_fd_sc_mcu7t5v0__dffq_1
*I *2145:ZN O *D gf180mcu_fd_sc_mcu7t5v0__nor3_1
*CAP
1 *2283:D 0.000454006
2 *2145:ZN 0.000454006
3 *2283:D *2145:A2 0.000304882
4 *2283:D *2145:A3 0.00162275
5 *2283:D *2322:I 0.000116356
6 *2283:D *293:14 0.00220889
7 *2283:D *334:87 0
*RES
1 *2145:ZN *2283:D 22.5172 
*END

*D_NET *66 0.00163184
*CONN
*I *2282:D I *D gf180mcu_fd_sc_mcu7t5v0__dffq_1
*I *2148:ZN O *D gf180mcu_fd_sc_mcu7t5v0__nor3_1
*CAP
1 *2282:D 0.000804157
2 *2148:ZN 0.000804157
3 *2282:D *2148:A1 0
4 *2282:D *2148:A3 2.35243e-05
5 *2282:D *334:269 0
*RES
1 *2148:ZN *2282:D 13.6222 
*END

*D_NET *67 0.00318812
*CONN
*I *2281:D I *D gf180mcu_fd_sc_mcu7t5v0__dffq_1
*I *2149:ZN O *D gf180mcu_fd_sc_mcu7t5v0__aoi211_1
*CAP
1 *2281:D 0.000284889
2 *2149:ZN 0.000284889
3 *2281:D *2137:A1 6.77516e-05
4 *2281:D *2140:A3 0.00116356
5 *2281:D *2149:A2 0.000338758
6 *2281:D *2281:CLK 0.000946647
7 *2281:D *151:12 0
8 *2336:I *2281:D 0.000101627
*RES
1 *2149:ZN *2281:D 20.4162 
*END

*D_NET *68 0.0021652
*CONN
*I *2278:D I *D gf180mcu_fd_sc_mcu7t5v0__dffq_1
*I *2154:ZN O *D gf180mcu_fd_sc_mcu7t5v0__nor2_1
*CAP
1 *2278:D 0.000390698
2 *2154:ZN 0.000390698
3 *2278:D *2060:C 0
4 *2278:D *2154:A1 0.0013838
5 *2278:D *2154:A2 0
*RES
1 *2154:ZN *2278:D 11.9302 
*END

*D_NET *69 0.00161746
*CONN
*I *2277:D I *D gf180mcu_fd_sc_mcu7t5v0__dffq_1
*I *2159:ZN O *D gf180mcu_fd_sc_mcu7t5v0__nor2_1
*CAP
1 *2277:D 0.000610138
2 *2159:ZN 0.000610138
3 *2277:D *2159:A1 0.00021609
4 *2277:D *2159:A2 1.98235e-05
5 *2277:D *2160:A2 0.000150839
6 *2277:D *322:16 0
7 *2277:D *332:60 1.04267e-05
*RES
1 *2159:ZN *2277:D 12.6768 
*END

*D_NET *70 0.00161127
*CONN
*I *2276:D I *D gf180mcu_fd_sc_mcu7t5v0__dffq_1
*I *2164:ZN O *D gf180mcu_fd_sc_mcu7t5v0__nor2_1
*CAP
1 *2276:D 0.000573271
2 *2164:ZN 0.000573271
3 *2276:D *2164:A1 0.000169379
4 *2276:D *2164:A2 0.000109758
5 *2276:D *2276:CLK 8.39625e-05
6 *2276:D *295:80 0.000101627
*RES
1 *2164:ZN *2276:D 12.8869 
*END

*D_NET *71 0.00212194
*CONN
*I *2275:D I *D gf180mcu_fd_sc_mcu7t5v0__dffq_1
*I *2169:ZN O *D gf180mcu_fd_sc_mcu7t5v0__nor2_1
*CAP
1 *2275:D 0.000900982
2 *2169:ZN 0.000900982
3 *2275:D *2169:A1 0.000319979
4 *2275:D *2275:CLK 0
*RES
1 *2169:ZN *2275:D 23.0312 
*END

*D_NET *72 0.000756572
*CONN
*I *2274:D I *D gf180mcu_fd_sc_mcu7t5v0__dffq_1
*I *2174:ZN O *D gf180mcu_fd_sc_mcu7t5v0__nor2_1
*CAP
1 *2274:D 0.000351524
2 *2174:ZN 0.000351524
3 *2274:D *2274:CLK 5.35236e-05
*RES
1 *2174:ZN *2274:D 11.4162 
*END

*D_NET *73 0.0019692
*CONN
*I *2273:D I *D gf180mcu_fd_sc_mcu7t5v0__dffq_1
*I *2179:ZN O *D gf180mcu_fd_sc_mcu7t5v0__nor2_1
*CAP
1 *2273:D 0.000471281
2 *2179:ZN 0.000471281
3 *2273:D *2179:A1 0.000220246
4 *2273:D *355:10 0.000806391
*RES
1 *2179:ZN *2273:D 20.8251 
*END

*D_NET *74 0.000620135
*CONN
*I *2272:D I *D gf180mcu_fd_sc_mcu7t5v0__dffq_1
*I *2183:ZN O *D gf180mcu_fd_sc_mcu7t5v0__nor3_1
*CAP
1 *2272:D 0.000211489
2 *2183:ZN 0.000211489
3 *2272:D *2183:A1 3.9647e-05
4 *2272:D *2183:A3 0.00015751
*RES
1 *2183:ZN *2272:D 10.6808 
*END

*D_NET *75 0.00249076
*CONN
*I *2271:D I *D gf180mcu_fd_sc_mcu7t5v0__dffq_1
*I *2187:ZN O *D gf180mcu_fd_sc_mcu7t5v0__nor3_1
*CAP
1 *2271:D 0.000489464
2 *2187:ZN 0.000489464
3 *2271:D *2187:A1 6.77516e-05
4 *2271:D *2187:A2 1.98235e-05
5 *2271:D *2271:CLK 0
6 *2271:D *179:12 0.000609764
7 *2271:D *292:70 0.000814492
*RES
1 *2187:ZN *2271:D 12.1515 
*END

*D_NET *76 0.00300604
*CONN
*I *2270:D I *D gf180mcu_fd_sc_mcu7t5v0__dffq_1
*I *2191:ZN O *D gf180mcu_fd_sc_mcu7t5v0__nor3_1
*CAP
1 *2270:D 0.00106597
2 *2191:ZN 0.00106597
3 *2270:D *2191:A1 0.00064364
4 *2270:D *175:16 0.000230472
*RES
1 *2191:ZN *2270:D 15.8283 
*END

*D_NET *77 0.00271495
*CONN
*I *2269:D I *D gf180mcu_fd_sc_mcu7t5v0__dffq_1
*I *2195:ZN O *D gf180mcu_fd_sc_mcu7t5v0__nor3_1
*CAP
1 *2269:D 0.000736995
2 *2195:ZN 0.000736995
3 *2269:D *2081:A2 0
4 *2269:D *2195:A1 5.94706e-05
5 *2269:D *2195:A2 0.000135503
6 *2269:D *2195:A3 0.000479743
7 *2269:D *304:20 0
8 *2269:D *307:48 0.000130162
9 *2269:D *328:32 0.000436082
10 *2269:D *334:10 0
*RES
1 *2195:ZN *2269:D 23.1475 
*END

*D_NET *78 0.000676369
*CONN
*I *2268:D I *D gf180mcu_fd_sc_mcu7t5v0__dffq_1
*I *2199:ZN O *D gf180mcu_fd_sc_mcu7t5v0__nor3_1
*CAP
1 *2268:D 0.000142556
2 *2199:ZN 0.000142556
3 *2268:D *2199:A2 0.000116356
4 *2268:D *2300:CLK 1.09758e-05
5 *2268:D *289:12 0.000120734
6 *2268:D *328:161 0.000143191
*RES
1 *2199:ZN *2268:D 10.3657 
*END

*D_NET *79 0.00443921
*CONN
*I *2267:D I *D gf180mcu_fd_sc_mcu7t5v0__dffq_1
*I *2203:ZN O *D gf180mcu_fd_sc_mcu7t5v0__nor3_1
*CAP
1 *2267:D 0.00173742
2 *2203:ZN 0.00173742
3 *2267:D *2084:A2 8.78062e-05
4 *2267:D *2084:A3 1.98235e-05
5 *2267:D *2203:A2 0.000251859
6 *2267:D *2203:A3 0.000300464
7 *2267:D *2267:CLK 0
8 *2267:D *328:173 6.77516e-05
9 *2267:D *346:14 0.000131477
10 *2300:D *2267:D 0.000105181
*RES
1 *2203:ZN *2267:D 30.0808 
*END

*D_NET *80 0.00461031
*CONN
*I *2266:D I *D gf180mcu_fd_sc_mcu7t5v0__dffq_1
*I *2207:ZN O *D gf180mcu_fd_sc_mcu7t5v0__nor3_1
*CAP
1 *2266:D 0.00132349
2 *2207:ZN 0.00132349
3 *2266:D *2085:A1 0
4 *2266:D *2085:A2 0.000304882
5 *2266:D *2085:B1 0.000631119
6 *2266:D *2085:B2 4.20727e-05
7 *2266:D *2087:A2 0.000523327
8 *2266:D *2207:A1 2.86383e-05
9 *2266:D *2207:A2 0.000101627
10 *2266:D *2207:A3 0.000226479
11 *2266:D *2267:CLK 0
12 *2266:D *288:35 0
13 *2266:D *334:63 0
14 *2299:D *2266:D 0.000105181
*RES
1 *2207:ZN *2266:D 27.1394 
*END

*D_NET *81 0.00177928
*CONN
*I *2265:D I *D gf180mcu_fd_sc_mcu7t5v0__dffq_1
*I *2211:ZN O *D gf180mcu_fd_sc_mcu7t5v0__nor3_1
*CAP
1 *2265:D 0.000532815
2 *2211:ZN 0.000532815
3 *2265:D *2211:A2 9.91176e-05
4 *2265:D *288:10 0
5 *2265:D *334:95 7.50462e-05
6 *2265:D *334:102 0.000539483
*RES
1 *2211:ZN *2265:D 12.7818 
*END

*D_NET *82 0.00218595
*CONN
*I *2264:D I *D gf180mcu_fd_sc_mcu7t5v0__dffq_1
*I *2215:ZN O *D gf180mcu_fd_sc_mcu7t5v0__nor3_1
*CAP
1 *2264:D 0.000420438
2 *2215:ZN 0.000420438
3 *2264:D *2215:A1 7.15957e-05
4 *2264:D *2215:A3 0.00115712
5 *2264:D *290:112 0
6 *2264:D *344:10 0.000116356
*RES
1 *2215:ZN *2264:D 11.3111 
*END

*D_NET *83 0.0108559
*CONN
*I *2263:D I *D gf180mcu_fd_sc_mcu7t5v0__dffq_1
*I *2219:ZN O *D gf180mcu_fd_sc_mcu7t5v0__nor3_1
*CAP
1 *2263:D 0.00136194
2 *2219:ZN 0.00136194
3 *2263:D *2094:A2 3.15545e-05
4 *2263:D *2094:B1 2.36659e-05
5 *2263:D *2096:A3 0.000652128
6 *2263:D *2213:A1 0
7 *2263:D *2215:A2 0
8 *2263:D *2296:CLK 0.000377339
9 *2263:D *329:73 0.00161278
10 *2263:D *329:75 0.00105181
11 *2263:D *329:77 0.00196348
12 *2263:D *329:83 0.00241925
*RES
1 *2219:ZN *2263:D 31.3414 
*END

*D_NET *84 0.00486001
*CONN
*I *2262:D I *D gf180mcu_fd_sc_mcu7t5v0__dffq_1
*I *2223:ZN O *D gf180mcu_fd_sc_mcu7t5v0__nor3_1
*CAP
1 *2262:D 0.000504123
2 *2223:ZN 0.000504123
3 *2262:D *2213:B 2.19516e-05
4 *2262:D *2223:A1 5.94706e-05
5 *2262:D *2223:A2 0.00302525
6 *2262:D *2223:A3 0.000660941
7 *2262:D *302:20 8.41455e-05
*RES
1 *2223:ZN *2262:D 22.6222 
*END

*D_NET *85 0.00107597
*CONN
*I *2261:D I *D gf180mcu_fd_sc_mcu7t5v0__dffq_1
*I *2227:ZN O *D gf180mcu_fd_sc_mcu7t5v0__nor3_1
*CAP
1 *2261:D 0.000191825
2 *2227:ZN 0.000191825
3 *2261:D *2227:A1 6.77516e-05
4 *2261:D *2227:A3 0.000218059
5 *2261:D *335:43 0.00040651
*RES
1 *2227:ZN *2261:D 10.6808 
*END

*D_NET *86 0.000802501
*CONN
*I *2260:D I *D gf180mcu_fd_sc_mcu7t5v0__dffq_1
*I *2231:ZN O *D gf180mcu_fd_sc_mcu7t5v0__nor3_1
*CAP
1 *2260:D 0.000318269
2 *2231:ZN 0.000318269
3 *2260:D *2231:A2 0.000101627
4 *2260:D *2231:A3 5.94706e-05
5 *2260:D *298:22 4.86578e-06
*RES
1 *2231:ZN *2260:D 11.101 
*END

*D_NET *87 0.00136644
*CONN
*I *2259:D I *D gf180mcu_fd_sc_mcu7t5v0__dffq_1
*I *2235:ZN O *D gf180mcu_fd_sc_mcu7t5v0__nor3_1
*CAP
1 *2259:D 0.000488007
2 *2235:ZN 0.000488007
3 *2259:D *2235:A1 0.000169379
4 *2259:D *2235:A2 0.000114553
5 *2259:D *2235:A3 4.86578e-06
6 *2259:D *2259:CLK 0.000101627
7 *2259:D *291:23 0
8 *2259:D *291:25 0
*RES
1 *2235:ZN *2259:D 12.1515 
*END

*D_NET *88 0.00246769
*CONN
*I *2258:D I *D gf180mcu_fd_sc_mcu7t5v0__dffq_1
*I *2239:ZN O *D gf180mcu_fd_sc_mcu7t5v0__nor3_1
*CAP
1 *2258:D 0.000286135
2 *2239:ZN 0.000286135
3 *2258:D *2109:A2 0.000132278
4 *2258:D *2237:B 3.38758e-05
5 *2258:D *2239:A2 0.000189203
6 *2258:D *2239:A3 0.000459191
7 *2258:D *225:18 0.00108087
8 *2258:D *291:90 0
*RES
1 *2239:ZN *2258:D 11.3111 
*END

*D_NET *89 0.00125104
*CONN
*I *2257:D I *D gf180mcu_fd_sc_mcu7t5v0__dffq_1
*I *2243:ZN O *D gf180mcu_fd_sc_mcu7t5v0__nor3_1
*CAP
1 *2257:D 0.000562441
2 *2243:ZN 0.000562441
3 *2257:D *2243:A2 7.15956e-05
4 *2257:D *294:12 5.35236e-05
5 *2257:D *294:18 1.04267e-06
6 *2257:D *303:16 0
7 *2257:D *325:14 0
8 *2257:D *325:16 0
*RES
1 *2243:ZN *2257:D 12.3616 
*END

*D_NET *90 0.00251598
*CONN
*I *2256:D I *D gf180mcu_fd_sc_mcu7t5v0__dffq_1
*I *2247:ZN O *D gf180mcu_fd_sc_mcu7t5v0__nor3_1
*CAP
1 *2256:D 0.000190035
2 *2247:ZN 0.000190035
3 *2256:D *2117:A1 3.29273e-05
4 *2256:D *2247:A2 0.0003274
5 *2256:D *2247:A3 0.00163248
6 *2256:D *231:10 6.05325e-05
7 *2256:D *331:27 1.09758e-05
8 *2256:D *331:36 7.15956e-05
*RES
1 *2247:ZN *2256:D 11.5212 
*END

*D_NET *91 0.00189719
*CONN
*I *2255:D I *D gf180mcu_fd_sc_mcu7t5v0__dffq_1
*I *2035:ZN O *D gf180mcu_fd_sc_mcu7t5v0__nor3_1
*CAP
1 *2255:D 0.000261074
2 *2035:ZN 0.000261074
3 *2255:D *2175:A2 0.000528203
4 *2255:D *330:27 0.000846835
*RES
1 *2035:ZN *2255:D 11.8364 
*END

*D_NET *92 0.00130419
*CONN
*I *2254:D I *D gf180mcu_fd_sc_mcu7t5v0__dffq_1
*I *2039:ZN O *D gf180mcu_fd_sc_mcu7t5v0__nor3_1
*CAP
1 *2254:D 0.000509227
2 *2039:ZN 0.000509227
3 *2254:D *2039:A1 0.000169379
4 *2254:D *2254:CLK 0.000116356
5 *2254:D *322:16 0
*RES
1 *2039:ZN *2254:D 12.3616 
*END

*D_NET *93 0.00801035
*CONN
*I *2253:D I *D gf180mcu_fd_sc_mcu7t5v0__dffq_1
*I *2043:ZN O *D gf180mcu_fd_sc_mcu7t5v0__nor3_1
*CAP
1 *2253:D 0.000417809
2 *2043:ZN 0.000417809
3 *2253:D *2040:A2 0.000114527
4 *2253:D *2043:A1 0.00127971
5 *2253:D *2043:A3 0.00150608
6 *2253:D *2124:A1 4.6017e-05
7 *2253:D *330:54 0.00347109
8 *2253:D *330:67 0.000315545
9 *2253:D *369:200 0.000441764
*RES
1 *2043:ZN *2253:D 23.0424 
*END

*D_NET *94 0.00301349
*CONN
*I *2252:D I *D gf180mcu_fd_sc_mcu7t5v0__dffq_1
*I *2047:ZN O *D gf180mcu_fd_sc_mcu7t5v0__nor3_1
*CAP
1 *2252:D 0.00044595
2 *2047:ZN 0.00044595
3 *2252:D *292:38 0
4 *2252:D *307:28 0.00139627
5 *2252:D *321:41 5.91647e-05
6 *2252:D *331:53 0.000666149
*RES
1 *2047:ZN *2252:D 21.5717 
*END

*D_NET *95 0.00710266
*CONN
*I *2251:D I *D gf180mcu_fd_sc_mcu7t5v0__dffq_1
*I *2051:ZN O *D gf180mcu_fd_sc_mcu7t5v0__nor3_1
*CAP
1 *2251:D 0.00344549
2 *2051:ZN 0.00344549
3 *2251:D *2051:A3 0.000105181
4 *2251:D *2143:A2 0
5 *2251:D *2144:A2 0
6 *2251:D *2146:A1 0.000106496
7 *2251:D *288:82 0
8 *2251:D *317:14 0
9 *2251:D *317:16 0
10 *2251:D *334:183 0
*RES
1 *2051:ZN *2251:D 36.9091 
*END

*D_NET *96 0.00202775
*CONN
*I *2250:D I *D gf180mcu_fd_sc_mcu7t5v0__dffq_1
*I *2055:ZN O *D gf180mcu_fd_sc_mcu7t5v0__nor3_1
*CAP
1 *2250:D 0.000256889
2 *2055:ZN 0.000256889
3 *2250:D *2055:A2 0.00110117
4 *2250:D *2282:CLK 0.000243425
5 *2250:D *328:128 0.000169379
*RES
1 *2055:ZN *2250:D 11.7313 
*END

*D_NET *97 0.00302662
*CONN
*I *2249:D I *D gf180mcu_fd_sc_mcu7t5v0__dffq_1
*I *2059:ZN O *D gf180mcu_fd_sc_mcu7t5v0__nor3_1
*CAP
1 *2249:D 0.000575924
2 *2059:ZN 0.000575924
3 *2249:D *2057:B 1.50862e-05
4 *2249:D *2059:A1 4.29574e-05
5 *2249:D *2059:A2 0.000174245
6 *2249:D *2059:A3 0.00139004
7 *2249:D *305:34 0
8 *2249:D *313:20 0.000252443
*RES
1 *2059:ZN *2249:D 12.7818 
*END

*D_NET *98 0.00250457
*CONN
*I *2311:D I *D gf180mcu_fd_sc_mcu7t5v0__dffq_1
*I *2060:ZN O *D gf180mcu_fd_sc_mcu7t5v0__aoi211_1
*CAP
1 *2311:D 0.000291316
2 *2060:ZN 0.000291316
3 *2311:D *2060:A2 0.000101627
4 *2311:D *2151:A1 2.19516e-05
5 *2311:D *2151:A2 0
6 *2311:D *2153:A3 0.001324
7 *2311:D *2311:CLK 3.38758e-05
8 *2311:D *159:12 0.00044049
*RES
1 *2060:ZN *2311:D 11.101 
*END

*D_NET *99 0.00285103
*CONN
*I *2310:D I *D gf180mcu_fd_sc_mcu7t5v0__dffq_1
*I *2061:ZN O *D gf180mcu_fd_sc_mcu7t5v0__aoi211_1
*CAP
1 *2310:D 0.000390928
2 *2061:ZN 0.000390928
3 *2310:D *2061:A2 0.000135503
4 *2310:D *2156:A1 0.000187069
5 *2310:D *2156:A2 0.000142762
6 *2310:D *2158:A3 0.00160384
*RES
1 *2061:ZN *2310:D 11.7313 
*END

*D_NET *100 0.00132014
*CONN
*I *2309:D I *D gf180mcu_fd_sc_mcu7t5v0__dffq_1
*I *2062:ZN O *D gf180mcu_fd_sc_mcu7t5v0__aoi211_1
*CAP
1 *2309:D 0.000185644
2 *2062:ZN 0.000185644
3 *2309:D *2062:C 0.000237578
4 *2309:D *2161:A1 0
5 *2309:D *2163:A1 0.000338697
6 *2309:D *2163:A2 0.000237131
7 *2309:D *357:17 0.000135443
*RES
1 *2062:ZN *2309:D 10.6808 
*END

*D_NET *101 0.00165486
*CONN
*I *2308:D I *D gf180mcu_fd_sc_mcu7t5v0__dffq_1
*I *2063:ZN O *D gf180mcu_fd_sc_mcu7t5v0__aoi211_1
*CAP
1 *2308:D 0.000397144
2 *2063:ZN 0.000397144
3 *2308:D *2063:B 0.000232712
4 *2308:D *2063:C 0.000440491
5 *2308:D *2167:A2 1.45974e-05
6 *2308:D *2169:A2 0.000172767
*RES
1 *2063:ZN *2308:D 11.4162 
*END

*D_NET *102 0.0013967
*CONN
*I *2307:D I *D gf180mcu_fd_sc_mcu7t5v0__dffq_1
*I *2064:ZN O *D gf180mcu_fd_sc_mcu7t5v0__aoi211_1
*CAP
1 *2307:D 0.000242354
2 *2064:ZN 0.000242354
3 *2307:D *2064:A1 0.000451928
4 *2307:D *2064:B 0.000338758
5 *2307:D *2064:C 7.50462e-05
6 *2307:D *2171:A1 4.62551e-05
*RES
1 *2064:ZN *2307:D 11.3111 
*END

*D_NET *103 0.00271735
*CONN
*I *2306:D I *D gf180mcu_fd_sc_mcu7t5v0__dffq_1
*I *2065:ZN O *D gf180mcu_fd_sc_mcu7t5v0__aoi211_1
*CAP
1 *2306:D 0.000429094
2 *2065:ZN 0.000429094
3 *2306:D *2065:A2 0.00181288
4 *2306:D *2065:C 2.19516e-05
5 *2306:D *179:12 2.43289e-05
6 *2306:D *292:70 0
*RES
1 *2065:ZN *2306:D 12.1515 
*END

*D_NET *104 0.00691522
*CONN
*I *2142:A1 I *D gf180mcu_fd_sc_mcu7t5v0__and2_1
*I *2136:A1 I *D gf180mcu_fd_sc_mcu7t5v0__and2_1
*I *2066:ZN O *D gf180mcu_fd_sc_mcu7t5v0__clkinv_1
*CAP
1 *2142:A1 0.000102158
2 *2136:A1 0.000587445
3 *2066:ZN 2.81848e-05
4 *104:6 0.000717788
5 *2136:A1 *2066:I 0.000575828
6 *2136:A1 *2160:A2 0.0026296
7 *2136:A1 *2175:A2 0.00015751
8 *2136:A1 *2312:CLK 0.00127971
9 *2136:A1 *310:18 8.59148e-05
10 *2136:A1 *321:22 6.77516e-05
11 *2136:A1 *332:26 0.000441764
12 *2136:A1 *332:39 8.41455e-05
13 *2142:A1 *2175:A2 0.000157423
14 *2142:A1 *306:18 0
*RES
1 *2066:ZN *104:6 4.7101 
2 *104:6 *2136:A1 18.9626 
3 *104:6 *2142:A1 5.5505 
*END

*D_NET *105 0.00786485
*CONN
*I *2069:A2 I *D gf180mcu_fd_sc_mcu7t5v0__nor3_1
*I *2067:ZN O *D gf180mcu_fd_sc_mcu7t5v0__aoi22_1
*CAP
1 *2069:A2 0.000716263
2 *2067:ZN 0.000716263
3 *2069:A2 *2067:B2 2.55699e-05
4 *2069:A2 *2068:A2 5.48593e-05
5 *2069:A2 *2069:A1 0.0046744
6 *2069:A2 *2069:A3 0.000246037
7 *2069:A2 *271:14 0.000262107
8 *2069:A2 *271:21 0.000947469
9 *2069:A2 *293:53 4.38835e-05
10 *2069:A2 *353:20 8.62382e-06
11 *2305:D *2069:A2 0.000169379
*RES
1 *2067:ZN *2069:A2 23.23 
*END

*D_NET *106 0.00233201
*CONN
*I *2069:A3 I *D gf180mcu_fd_sc_mcu7t5v0__nor3_1
*I *2068:ZN O *D gf180mcu_fd_sc_mcu7t5v0__nor2_1
*CAP
1 *2069:A3 0.000590729
2 *2068:ZN 0.000590729
3 *2069:A3 *2068:A2 0.00019021
4 *2069:A3 *271:14 2.65927e-05
5 *2069:A3 *271:21 0.000222291
6 *2069:A3 *293:53 0
7 *2069:A2 *2069:A3 0.000246037
8 *2305:D *2069:A3 0.000465423
*RES
1 *2068:ZN *2069:A3 21.2453 
*END

*D_NET *107 0.00601126
*CONN
*I *2072:A2 I *D gf180mcu_fd_sc_mcu7t5v0__nor3_1
*I *2070:ZN O *D gf180mcu_fd_sc_mcu7t5v0__aoi22_1
*CAP
1 *2072:A2 0.000701583
2 *2070:ZN 0.000701583
3 *2072:A2 *2070:A1 3.9647e-05
4 *2072:A2 *2070:A2 0.00111288
5 *2072:A2 *2070:B1 0.000362605
6 *2072:A2 *2071:A1 0
7 *2072:A2 *2071:A2 3.40518e-05
8 *2072:A2 *2072:A3 9.31585e-05
9 *2072:A2 *331:87 0
10 *2304:D *2072:A2 0.00296576
*RES
1 *2070:ZN *2072:A2 14.2525 
*END

*D_NET *108 0.00229248
*CONN
*I *2072:A3 I *D gf180mcu_fd_sc_mcu7t5v0__nor3_1
*I *2071:ZN O *D gf180mcu_fd_sc_mcu7t5v0__nor2_1
*CAP
1 *2072:A3 0.000678202
2 *2071:ZN 0.000678202
3 *2072:A3 *2071:A2 2.86383e-05
4 *2072:A3 *331:87 0
5 *2072:A3 *331:98 0
6 *2072:A3 *331:111 0
7 *2072:A3 *352:12 0
8 *2072:A2 *2072:A3 9.31585e-05
9 *2304:D *2072:A3 0.000814283
*RES
1 *2071:ZN *2072:A3 21.3354 
*END

*D_NET *109 0.00810682
*CONN
*I *2075:A2 I *D gf180mcu_fd_sc_mcu7t5v0__nor3_1
*I *2073:ZN O *D gf180mcu_fd_sc_mcu7t5v0__aoi22_1
*CAP
1 *2075:A2 0.00064296
2 *2073:ZN 0.00064296
3 *2075:A2 *2073:A2 0.000220246
4 *2075:A2 *2073:B1 3.29077e-05
5 *2075:A2 *2074:A2 5.72765e-05
6 *2075:A2 *2075:A3 0.00527546
7 *2075:A2 *189:10 0.000114553
8 *2075:A2 *369:291 0.000273621
9 *2303:D *2075:A2 0.000846835
*RES
1 *2073:ZN *2075:A2 14.8603 
*END

*D_NET *110 0.0108152
*CONN
*I *2075:A3 I *D gf180mcu_fd_sc_mcu7t5v0__nor3_1
*I *2074:ZN O *D gf180mcu_fd_sc_mcu7t5v0__nor2_1
*CAP
1 *2075:A3 0.00093311
2 *2074:ZN 0.00093311
3 *2075:A3 *2074:A1 0.00347821
4 *2075:A3 *2074:A2 0
5 *2075:A3 *328:79 0.000138051
6 *2075:A3 *351:8 0
7 *2075:A3 *369:291 5.72765e-05
8 *2075:A2 *2075:A3 0.00527546
*RES
1 *2074:ZN *2075:A3 24.817 
*END

*D_NET *111 0.000599872
*CONN
*I *2078:A2 I *D gf180mcu_fd_sc_mcu7t5v0__nor3_1
*I *2076:ZN O *D gf180mcu_fd_sc_mcu7t5v0__aoi22_1
*CAP
1 *2078:A2 0.00020051
2 *2076:ZN 0.00020051
3 *2078:A2 *2076:A1 4.86578e-06
4 *2078:A2 *2076:A2 0
5 *2078:A2 *2078:A1 0.000193987
*RES
1 *2076:ZN *2078:A2 10.2381 
*END

*D_NET *112 0.00156262
*CONN
*I *2078:A3 I *D gf180mcu_fd_sc_mcu7t5v0__nor3_1
*I *2077:ZN O *D gf180mcu_fd_sc_mcu7t5v0__nor2_1
*CAP
1 *2078:A3 0.00063855
2 *2077:ZN 0.00063855
3 *2078:A3 *2078:A1 0.000196111
4 *2078:A3 *268:10 0
5 *2078:A3 *268:16 8.94045e-05
*RES
1 *2077:ZN *2078:A3 21.2078 
*END

*D_NET *113 0.00560876
*CONN
*I *2081:A2 I *D gf180mcu_fd_sc_mcu7t5v0__nor3_1
*I *2079:ZN O *D gf180mcu_fd_sc_mcu7t5v0__aoi22_1
*CAP
1 *2081:A2 0.000716538
2 *2079:ZN 0.000716538
3 *2081:A2 *2079:B1 0.000245423
4 *2081:A2 *2079:B2 3.89391e-05
5 *2081:A2 *2080:A1 0.000174245
6 *2081:A2 *2080:A2 2.47794e-05
7 *2081:A2 *2081:A1 0.000237882
8 *2081:A2 *2081:A3 0.00127587
9 *2081:A2 *2170:A2 0.00157747
10 *2081:A2 *2196:A1 0.000105181
11 *2081:A2 *267:8 0.000175302
12 *2081:A2 *328:118 1.5339e-05
13 *2081:A2 *328:120 7.6695e-05
14 *2081:A2 *349:10 0
15 *2081:A2 *369:316 0.000228557
16 *2269:D *2081:A2 0
*RES
1 *2079:ZN *2081:A2 22.7235 
*END

*D_NET *114 0.00388078
*CONN
*I *2081:A3 I *D gf180mcu_fd_sc_mcu7t5v0__nor3_1
*I *2080:ZN O *D gf180mcu_fd_sc_mcu7t5v0__nor2_1
*CAP
1 *2081:A3 0.000438776
2 *2080:ZN 0.000438776
3 *2081:A3 *2080:A1 0.000215899
4 *2081:A3 *2080:A2 0.00151146
5 *2081:A2 *2081:A3 0.00127587
*RES
1 *2080:ZN *2081:A3 12.219 
*END

*D_NET *115 0.00899678
*CONN
*I *2084:A2 I *D gf180mcu_fd_sc_mcu7t5v0__nor3_1
*I *2082:ZN O *D gf180mcu_fd_sc_mcu7t5v0__aoi22_1
*CAP
1 *2084:A2 0.000766473
2 *2082:ZN 0.000766473
3 *2084:A2 *2082:A1 0.000556846
4 *2084:A2 *2082:B1 0.00206906
5 *2084:A2 *2084:A1 0.00105246
6 *2084:A2 *2200:A2 0.00015751
7 *2084:A2 *2201:B 3.06838e-06
8 *2084:A2 *2202:A1 0.000905707
9 *2084:A2 *2203:A2 0.0010472
10 *2084:A2 *2203:A3 0.00136736
11 *2084:A2 *198:6 7.15701e-05
12 *2084:A2 *265:12 4.86578e-06
13 *2084:A2 *328:173 0.000135503
14 *2084:A2 *334:43 4.86578e-06
15 *2267:D *2084:A2 8.78062e-05
*RES
1 *2082:ZN *2084:A2 23.9654 
*END

*D_NET *116 0.00127198
*CONN
*I *2084:A3 I *D gf180mcu_fd_sc_mcu7t5v0__nor3_1
*I *2083:ZN O *D gf180mcu_fd_sc_mcu7t5v0__nor2_1
*CAP
1 *2084:A3 0.000525144
2 *2083:ZN 0.000525144
3 *2084:A3 *2084:A1 5.91647e-05
4 *2084:A3 *265:12 3.75231e-05
5 *2267:D *2084:A3 1.98235e-05
6 *2300:D *2084:A3 0.000105181
*RES
1 *2083:ZN *2084:A3 20.7876 
*END

*D_NET *117 0.0063359
*CONN
*I *2087:A2 I *D gf180mcu_fd_sc_mcu7t5v0__nor3_1
*I *2085:ZN O *D gf180mcu_fd_sc_mcu7t5v0__aoi22_1
*CAP
1 *2087:A2 0.000405965
2 *2085:ZN 0.000405965
3 *2087:A2 *2085:A2 8.41455e-05
4 *2087:A2 *2085:B1 0.00070121
5 *2087:A2 *2207:A1 0.00368149
6 *2087:A2 *2207:A3 7.09976e-05
7 *2266:D *2087:A2 0.000523327
8 *2299:D *2087:A2 0.0004628
*RES
1 *2085:ZN *2087:A2 23.125 
*END

*D_NET *118 0.002511
*CONN
*I *2087:A3 I *D gf180mcu_fd_sc_mcu7t5v0__nor3_1
*I *2086:ZN O *D gf180mcu_fd_sc_mcu7t5v0__nor2_1
*CAP
1 *2087:A3 0.000966789
2 *2086:ZN 0.000966789
3 *2087:A3 *2086:A1 0.000131813
4 *2087:A3 *2086:A2 0.0002314
5 *2087:A3 *2267:CLK 0
6 *2087:A3 *201:6 6.39247e-05
7 *2087:A3 *264:10 5.78499e-05
8 *2087:A3 *346:14 0
9 *2087:A3 *346:33 9.24325e-05
10 *2299:D *2087:A3 0
*RES
1 *2086:ZN *2087:A3 23.3463 
*END

*D_NET *119 0.00666881
*CONN
*I *2090:A2 I *D gf180mcu_fd_sc_mcu7t5v0__nor3_1
*I *2088:ZN O *D gf180mcu_fd_sc_mcu7t5v0__aoi22_1
*CAP
1 *2090:A2 0.00171108
2 *2088:ZN 0.00171108
3 *2090:A2 *2088:B1 7.50108e-05
4 *2090:A2 *2090:A1 0.00023707
5 *2090:A2 *2090:A3 0
6 *2090:A2 *2210:A2 0.000184068
7 *2090:A2 *2211:A3 0
8 *2090:A2 *292:12 0.00262954
9 *2298:D *2090:A2 0.000120959
*RES
1 *2088:ZN *2090:A2 27.2219 
*END

*D_NET *120 0.00319393
*CONN
*I *2090:A3 I *D gf180mcu_fd_sc_mcu7t5v0__nor3_1
*I *2089:ZN O *D gf180mcu_fd_sc_mcu7t5v0__nor2_1
*CAP
1 *2090:A3 0.00117076
2 *2089:ZN 0.00117076
3 *2090:A3 *2089:A2 0
4 *2090:A3 *204:10 0
5 *2090:A3 *288:10 0
6 *2090:A3 *288:29 0.00036862
7 *2090:A2 *2090:A3 0
8 *2298:D *2090:A3 0.000483799
*RES
1 *2089:ZN *2090:A3 24.1605 
*END

*D_NET *121 0.00171194
*CONN
*I *2093:A2 I *D gf180mcu_fd_sc_mcu7t5v0__nor3_1
*I *2091:ZN O *D gf180mcu_fd_sc_mcu7t5v0__aoi22_1
*CAP
1 *2093:A2 0.000255949
2 *2091:ZN 0.000255949
3 *2093:A2 *2091:A1 0.000207779
4 *2093:A2 *2091:B1 0.000207779
5 *2093:A2 *2093:A3 0
6 *2093:A2 *2214:A1 0.000315544
7 *2093:A2 *287:13 0.00015339
8 *2297:D *2093:A2 0.000315546
*RES
1 *2091:ZN *2093:A2 20.3936 
*END

*D_NET *122 0.00197202
*CONN
*I *2093:A3 I *D gf180mcu_fd_sc_mcu7t5v0__nor3_1
*I *2092:ZN O *D gf180mcu_fd_sc_mcu7t5v0__nor2_1
*CAP
1 *2093:A3 0.000379187
2 *2092:ZN 0.000379187
3 *2093:A3 *2092:A1 2.50109e-05
4 *2093:A3 *2092:A2 3.9647e-05
5 *2093:A3 *287:15 0.000394411
6 *2093:A3 *287:75 0.000473222
7 *2093:A3 *329:83 0.000241376
8 *2093:A3 *329:96 3.99832e-05
9 *2093:A2 *2093:A3 0
*RES
1 *2092:ZN *2093:A3 12.219 
*END

*D_NET *123 0.00395111
*CONN
*I *2096:A2 I *D gf180mcu_fd_sc_mcu7t5v0__nor3_1
*I *2094:ZN O *D gf180mcu_fd_sc_mcu7t5v0__aoi22_1
*CAP
1 *2096:A2 0.000913849
2 *2094:ZN 0.000913849
3 *2096:A2 *2094:A1 0.000207779
4 *2096:A2 *2094:B1 6.31091e-05
5 *2096:A2 *2095:A2 5.41826e-05
6 *2096:A2 *2096:A3 0.000559167
7 *2096:A2 *2216:A2 0
8 *2096:A2 *2296:CLK 9.30647e-05
9 *2096:A2 *343:8 0.001047
10 *2296:D *2096:A2 9.91176e-05
*RES
1 *2094:ZN *2096:A2 23.23 
*END

*D_NET *124 0.00668605
*CONN
*I *2096:A3 I *D gf180mcu_fd_sc_mcu7t5v0__nor3_1
*I *2095:ZN O *D gf180mcu_fd_sc_mcu7t5v0__nor2_1
*CAP
1 *2096:A3 0.000932462
2 *2095:ZN 0.000932462
3 *2096:A3 *2094:A1 0.000108887
4 *2096:A3 *2094:A2 0.000207779
5 *2096:A3 *2094:B1 0.000315544
6 *2096:A3 *2094:B2 9.73157e-06
7 *2096:A3 *2095:A1 0.0015465
8 *2096:A3 *2095:A2 0
9 *2096:A3 *2216:A2 1.45887e-05
10 *2096:A3 *2296:CLK 0.00113447
11 *2096:A3 *261:18 0.000272324
12 *2096:A2 *2096:A3 0.000559167
13 *2263:D *2096:A3 0.000652128
*RES
1 *2095:ZN *2096:A3 24.2768 
*END

*D_NET *125 0.00246325
*CONN
*I *2099:A2 I *D gf180mcu_fd_sc_mcu7t5v0__nor3_1
*I *2097:ZN O *D gf180mcu_fd_sc_mcu7t5v0__aoi22_1
*CAP
1 *2099:A2 0.00041467
2 *2097:ZN 0.00041467
3 *2099:A2 *2097:A1 0.000552829
4 *2099:A2 *2097:B1 0.000349068
5 *2099:A2 *2099:A3 0.000122251
6 *2099:A2 *260:18 0.000609764
7 *2295:D *2099:A2 0
*RES
1 *2097:ZN *2099:A2 12.8869 
*END

*D_NET *126 0.00188699
*CONN
*I *2099:A3 I *D gf180mcu_fd_sc_mcu7t5v0__nor3_1
*I *2098:ZN O *D gf180mcu_fd_sc_mcu7t5v0__nor2_1
*CAP
1 *2099:A3 0.00043986
2 *2098:ZN 0.00043986
3 *2099:A3 *2098:A1 0.000217983
4 *2099:A3 *260:18 0.000609764
5 *2099:A2 *2099:A3 0.000122251
6 *2295:D *2099:A3 5.72765e-05
*RES
1 *2098:ZN *2099:A3 12.1515 
*END

*D_NET *127 0.00320764
*CONN
*I *2102:A2 I *D gf180mcu_fd_sc_mcu7t5v0__nor3_1
*I *2100:ZN O *D gf180mcu_fd_sc_mcu7t5v0__aoi22_1
*CAP
1 *2102:A2 0.000576585
2 *2100:ZN 0.000576585
3 *2102:A2 *2100:A1 0.000207778
4 *2102:A2 *2101:A1 2.36659e-05
5 *2102:A2 *2101:A2 0.000273473
6 *2102:A2 *2102:A1 1.98235e-05
7 *2102:A2 *2102:A3 0.000344157
8 *2102:A2 *259:27 0.000263687
9 *2102:A2 *333:61 6.58351e-05
10 *2102:A2 *341:16 0.000315548
11 *2102:A2 *341:22 0.000525909
12 *1:14 *2102:A2 1.45974e-05
*RES
1 *2100:ZN *2102:A2 21.9694 
*END

*D_NET *128 0.001916
*CONN
*I *2102:A3 I *D gf180mcu_fd_sc_mcu7t5v0__nor3_1
*I *2101:ZN O *D gf180mcu_fd_sc_mcu7t5v0__nor2_1
*CAP
1 *2102:A3 0.00053146
2 *2101:ZN 0.00053146
3 *2102:A3 *2100:B2 9.7998e-06
4 *2102:A3 *2102:A1 0.0003671
5 *2102:A3 *2224:A1 4.86578e-06
6 *2102:A3 *259:27 4.86578e-06
7 *2102:A3 *341:22 9.87624e-05
8 *2102:A2 *2102:A3 0.000344157
9 *1:14 *2102:A3 2.35243e-05
*RES
1 *2101:ZN *2102:A3 20.7876 
*END

*D_NET *129 0.00494371
*CONN
*I *2105:A2 I *D gf180mcu_fd_sc_mcu7t5v0__nor3_1
*I *2103:ZN O *D gf180mcu_fd_sc_mcu7t5v0__aoi22_1
*CAP
1 *2105:A2 0.000541757
2 *2103:ZN 0.000541757
3 *2105:A2 *2103:B1 0.00139627
4 *2105:A2 *2104:A1 6.58547e-05
5 *2105:A2 *2229:B 0
6 *2105:A2 *219:10 0.000169208
7 *2105:A2 *258:23 0.00139627
8 *2105:A2 *335:35 0.000614529
9 *2293:D *2105:A2 0.000218059
*RES
1 *2103:ZN *2105:A2 13.7273 
*END

*D_NET *130 0.000290457
*CONN
*I *2105:A3 I *D gf180mcu_fd_sc_mcu7t5v0__nor3_1
*I *2104:ZN O *D gf180mcu_fd_sc_mcu7t5v0__nor2_1
*CAP
1 *2105:A3 0.000105581
2 *2104:ZN 0.000105581
3 *2293:D *2105:A3 7.92941e-05
*RES
1 *2104:ZN *2105:A3 9.94545 
*END

*D_NET *131 0.00193592
*CONN
*I *2108:A2 I *D gf180mcu_fd_sc_mcu7t5v0__nor3_1
*I *2106:ZN O *D gf180mcu_fd_sc_mcu7t5v0__aoi22_1
*CAP
1 *2108:A2 0.00039721
2 *2106:ZN 0.00039721
3 *2108:A2 *2108:A3 0.000515412
4 *2108:A2 *297:16 0.000253458
5 *2292:D *2108:A2 0.000372634
*RES
1 *2106:ZN *2108:A2 12.129 
*END

*D_NET *132 0.00178451
*CONN
*I *2108:A3 I *D gf180mcu_fd_sc_mcu7t5v0__nor3_1
*I *2107:ZN O *D gf180mcu_fd_sc_mcu7t5v0__nor2_1
*CAP
1 *2108:A3 0.00057043
2 *2107:ZN 0.00057043
3 *2108:A3 *2106:B2 6.77516e-05
4 *2108:A3 *2292:CLK 6.04925e-05
5 *2108:A2 *2108:A3 0.000515412
*RES
1 *2107:ZN *2108:A3 12.5717 
*END

*D_NET *133 0.00330865
*CONN
*I *2111:A2 I *D gf180mcu_fd_sc_mcu7t5v0__nor3_1
*I *2109:ZN O *D gf180mcu_fd_sc_mcu7t5v0__aoi22_1
*CAP
1 *2111:A2 0.000581202
2 *2109:ZN 0.000581202
3 *2111:A2 *2109:A1 0.000228557
4 *2111:A2 *2110:A2 0.000207784
5 *2111:A2 *2111:A3 5.56531e-05
6 *2111:A2 *2236:A2 2.62954e-05
7 *2111:A2 *291:47 0.00157776
8 *2111:A2 *338:6 5.01898e-05
9 *2291:D *2111:A2 0
*RES
1 *2109:ZN *2111:A2 21.7781 
*END

*D_NET *134 0.00282934
*CONN
*I *2111:A3 I *D gf180mcu_fd_sc_mcu7t5v0__nor3_1
*I *2110:ZN O *D gf180mcu_fd_sc_mcu7t5v0__nor2_1
*CAP
1 *2111:A3 0.000346507
2 *2110:ZN 0.000346507
3 *2111:A3 *256:8 6.41221e-05
4 *2111:A3 *291:47 0
5 *2111:A3 *294:12 0.00199852
6 *2111:A2 *2111:A3 5.56531e-05
7 *2291:D *2111:A3 1.80316e-05
*RES
1 *2110:ZN *2111:A3 20.3674 
*END

*D_NET *135 0.00118249
*CONN
*I *2114:A2 I *D gf180mcu_fd_sc_mcu7t5v0__nor3_1
*I *2112:ZN O *D gf180mcu_fd_sc_mcu7t5v0__aoi22_1
*CAP
1 *2114:A2 0.000232821
2 *2112:ZN 0.000232821
3 *2114:A2 *2112:A1 1.43191e-05
4 *2114:A2 *2112:A2 0.000269378
5 *2114:A2 *2112:B1 0.00018448
6 *2114:A2 *313:20 7.92941e-05
7 *2290:D *2114:A2 0.000169379
*RES
1 *2112:ZN *2114:A2 10.8909 
*END

*D_NET *136 0.00226247
*CONN
*I *2114:A3 I *D gf180mcu_fd_sc_mcu7t5v0__nor3_1
*I *2113:ZN O *D gf180mcu_fd_sc_mcu7t5v0__nor2_1
*CAP
1 *2114:A3 0.00030363
2 *2113:ZN 0.00030363
3 *2114:A3 *2113:A1 0.000959871
4 *2114:A3 *2113:A2 1.05182e-05
5 *2114:A3 *291:69 0.000225632
6 *2290:D *2114:A3 0.000459192
*RES
1 *2113:ZN *2114:A3 19.769 
*END

*D_NET *137 0.00385573
*CONN
*I *2117:A2 I *D gf180mcu_fd_sc_mcu7t5v0__nor3_1
*I *2115:ZN O *D gf180mcu_fd_sc_mcu7t5v0__aoi22_1
*CAP
1 *2117:A2 0.00062176
2 *2115:ZN 0.00062176
3 *2117:A2 *2115:A1 0.000233974
4 *2117:A2 *2115:A2 0.000220245
5 *2117:A2 *2115:B1 5.72765e-05
6 *2117:A2 *2117:A1 4.29574e-05
7 *2117:A2 *2117:A3 0.000226479
8 *2117:A2 *2244:A1 0.000304882
9 *2117:A2 *2289:CLK 0
10 *2117:A2 *301:14 0.000374449
11 *2117:A2 *320:20 0.000814493
12 *2117:A2 *366:21 0.000168729
13 *2289:D *2117:A2 0.000168729
*RES
1 *2115:ZN *2117:A2 22.3896 
*END

*D_NET *138 0.0026313
*CONN
*I *2117:A3 I *D gf180mcu_fd_sc_mcu7t5v0__nor3_1
*I *2116:ZN O *D gf180mcu_fd_sc_mcu7t5v0__nor2_1
*CAP
1 *2117:A3 0.000220554
2 *2116:ZN 0.000220554
3 *2117:A3 *2289:CLK 2.07756e-05
4 *2117:A3 *285:16 0.00137725
5 *2117:A3 *301:14 0.000226479
6 *2117:A3 *301:18 2.36659e-05
7 *2117:A2 *2117:A3 0.000226479
8 *2289:D *2117:A3 0.000315544
*RES
1 *2116:ZN *2117:A3 19.769 
*END

*D_NET *139 0.00380649
*CONN
*I *2120:A2 I *D gf180mcu_fd_sc_mcu7t5v0__nor3_1
*I *2118:ZN O *D gf180mcu_fd_sc_mcu7t5v0__aoi22_1
*CAP
1 *2120:A2 0.00072205
2 *2118:ZN 0.00072205
3 *2120:A2 *2118:A1 0.000673203
4 *2120:A2 *2118:B1 2.86383e-05
5 *2120:A2 *2119:A2 0.000250945
6 *2120:A2 *2120:A3 5.56531e-05
7 *2120:A2 *300:22 0.00105693
8 *2120:A2 *301:14 3.78791e-05
9 *2120:A2 *365:26 0.000110445
10 *2288:D *2120:A2 0.000148696
*RES
1 *2118:ZN *2120:A2 14.0199 
*END

*D_NET *140 0.0041837
*CONN
*I *2120:A3 I *D gf180mcu_fd_sc_mcu7t5v0__nor3_1
*I *2119:ZN O *D gf180mcu_fd_sc_mcu7t5v0__nor2_1
*CAP
1 *2120:A3 0.000429279
2 *2119:ZN 0.000429279
3 *2120:A3 *2119:A2 0.00105182
4 *2120:A3 *2120:A1 0.00178813
5 *2120:A3 *300:22 4.20727e-05
6 *2120:A3 *301:14 0.000191156
7 *2120:A3 *314:22 9.46635e-05
8 *2120:A3 *326:14 3.75231e-05
9 *2120:A3 *331:23 6.41221e-05
10 *2120:A2 *2120:A3 5.56531e-05
*RES
1 *2119:ZN *2120:A3 20.9977 
*END

*D_NET *141 0.000726448
*CONN
*I *2123:A2 I *D gf180mcu_fd_sc_mcu7t5v0__nor3_1
*I *2121:ZN O *D gf180mcu_fd_sc_mcu7t5v0__aoi22_1
*CAP
1 *2123:A2 0.000187563
2 *2121:ZN 0.000187563
3 *2123:A2 *2121:A1 0
4 *2123:A2 *330:31 0.000297623
5 *2123:A2 *330:37 3.38758e-05
6 *2287:D *2123:A2 1.98235e-05
*RES
1 *2121:ZN *2123:A2 10.2381 
*END

*D_NET *142 0.00139826
*CONN
*I *2123:A3 I *D gf180mcu_fd_sc_mcu7t5v0__nor3_1
*I *2122:ZN O *D gf180mcu_fd_sc_mcu7t5v0__nor2_1
*CAP
1 *2123:A3 0.000524989
2 *2122:ZN 0.000524989
3 *2123:A3 *2121:B1 0
4 *2123:A3 *2121:B2 6.83681e-05
5 *2123:A3 *295:31 0
6 *2123:A3 *314:22 0.000220246
7 *2123:A3 *330:37 3.25672e-05
8 *2123:A3 *369:174 2.71041e-05
*RES
1 *2122:ZN *2123:A3 20.3674 
*END

*D_NET *143 0.00448695
*CONN
*I *2126:A2 I *D gf180mcu_fd_sc_mcu7t5v0__nor3_1
*I *2124:ZN O *D gf180mcu_fd_sc_mcu7t5v0__aoi22_1
*CAP
1 *2126:A2 0.000694957
2 *2124:ZN 0.000694957
3 *2126:A2 *2040:A2 3.06838e-06
4 *2126:A2 *2124:A2 0.000274574
5 *2126:A2 *171:10 0.00262964
6 *2126:A2 *311:30 0
7 *2126:A2 *363:12 2.81269e-05
8 *2286:D *2126:A2 0.000161624
*RES
1 *2124:ZN *2126:A2 23.1437 
*END

*D_NET *144 0.0020197
*CONN
*I *2126:A3 I *D gf180mcu_fd_sc_mcu7t5v0__nor3_1
*I *2125:ZN O *D gf180mcu_fd_sc_mcu7t5v0__nor2_1
*CAP
1 *2126:A3 0.000214981
2 *2125:ZN 0.000214981
3 *2126:A3 *2125:A2 0.000171062
4 *2126:A3 *282:16 2.86383e-05
5 *2286:D *2126:A3 0.00139004
*RES
1 *2125:ZN *2126:A3 10.8853 
*END

*D_NET *145 0.00110093
*CONN
*I *2129:A2 I *D gf180mcu_fd_sc_mcu7t5v0__nor3_1
*I *2127:ZN O *D gf180mcu_fd_sc_mcu7t5v0__aoi22_1
*CAP
1 *2129:A2 0.000314889
2 *2127:ZN 0.000314889
3 *2129:A2 *2127:A1 6.92021e-05
4 *2129:A2 *2127:B1 6.77516e-05
5 *2129:A2 *2129:A1 1.94631e-05
6 *2129:A2 *2129:A3 5.56531e-05
7 *2129:A2 *2175:A2 0
8 *2129:A2 *330:54 0
9 *2285:D *2129:A2 0.000259082
*RES
1 *2127:ZN *2129:A2 11.6263 
*END

*D_NET *146 0.00353021
*CONN
*I *2129:A3 I *D gf180mcu_fd_sc_mcu7t5v0__nor3_1
*I *2128:ZN O *D gf180mcu_fd_sc_mcu7t5v0__nor2_1
*CAP
1 *2129:A3 0.000814358
2 *2128:ZN 0.000814358
3 *2129:A3 *2044:A1 0
4 *2129:A3 *2127:A1 0.000107373
5 *2129:A3 *2128:A2 3.9647e-05
6 *2129:A3 *2175:A2 7.99379e-06
7 *2129:A3 *281:19 0
8 *2129:A3 *330:54 0.00151242
9 *2129:A3 *369:174 0.000178412
10 *2129:A2 *2129:A3 5.56531e-05
*RES
1 *2128:ZN *2129:A3 22.3746 
*END

*D_NET *147 0.00315754
*CONN
*I *2132:A2 I *D gf180mcu_fd_sc_mcu7t5v0__nor3_1
*I *2130:ZN O *D gf180mcu_fd_sc_mcu7t5v0__aoi22_1
*CAP
1 *2132:A2 0.000872786
2 *2130:ZN 0.000872786
3 *2132:A2 *2130:A1 2.86383e-05
4 *2132:A2 *2130:B1 0.000268928
5 *2132:A2 *2130:B2 7.92587e-05
6 *2132:A2 *2131:A2 0.000111904
7 *2132:A2 *2132:A1 0.000116356
8 *2132:A2 *2132:A3 5.56531e-05
9 *2132:A2 *246:12 0.000465425
10 *2132:A2 *280:16 6.77516e-05
11 *2132:A2 *303:16 0
12 *2284:D *2132:A2 0.000218059
*RES
1 *2130:ZN *2132:A2 14.0424 
*END

*D_NET *148 0.00294503
*CONN
*I *2132:A3 I *D gf180mcu_fd_sc_mcu7t5v0__nor3_1
*I *2131:ZN O *D gf180mcu_fd_sc_mcu7t5v0__nor2_1
*CAP
1 *2132:A3 0.000298721
2 *2131:ZN 0.000298721
3 *2132:A3 *2132:A1 0.000254634
4 *2132:A3 *293:14 0.00199849
5 *2132:A3 *303:16 1.80316e-05
6 *2132:A3 *309:18 2.07756e-05
7 *2132:A2 *2132:A3 5.56531e-05
*RES
1 *2131:ZN *2132:A3 20.3674 
*END

*D_NET *149 0.00723269
*CONN
*I *2135:A2 I *D gf180mcu_fd_sc_mcu7t5v0__nor3_1
*I *2142:A2 I *D gf180mcu_fd_sc_mcu7t5v0__and2_1
*I *2133:Z O *D gf180mcu_fd_sc_mcu7t5v0__and3_1
*CAP
1 *2135:A2 0.000197294
2 *2142:A2 0.000819837
3 *2133:Z 0.000537602
4 *149:8 0.00155473
5 *2142:A2 *2134:B 0.000248914
6 *2142:A2 *2135:A3 0.000334219
7 *2142:A2 *2136:A2 0.000228679
8 *2142:A2 *2150:A2 9.46635e-05
9 *2142:A2 *2155:A2 0
10 *2142:A2 *2175:A2 2.19516e-05
11 *2142:A2 *319:14 0.00157776
12 *2142:A2 *369:560 0.000324135
13 *149:8 *2133:A3 0.000575889
14 *149:8 *2134:B 0.000135443
15 *149:8 *369:560 0.000581572
*RES
1 *2133:Z *149:8 7.54646 
2 *149:8 *2142:A2 18.3323 
3 *149:8 *2135:A2 5.97071 
*END

*D_NET *150 0.00172784
*CONN
*I *2135:A3 I *D gf180mcu_fd_sc_mcu7t5v0__nor3_1
*I *2134:ZN O *D gf180mcu_fd_sc_mcu7t5v0__aoi21_1
*CAP
1 *2135:A3 0.000269236
2 *2134:ZN 0.000269236
3 *2135:A3 *2134:B 0.000561308
4 *2135:A3 *2136:A2 8.34797e-05
5 *2135:A3 *369:575 0.000210363
6 *2142:A2 *2135:A3 0.000334219
*RES
1 *2134:ZN *2135:A3 19.8346 
*END

*D_NET *151 0.0118255
*CONN
*I *2149:A1 I *D gf180mcu_fd_sc_mcu7t5v0__aoi211_1
*I *2140:A3 I *D gf180mcu_fd_sc_mcu7t5v0__xor3_1
*I *2137:ZN O *D gf180mcu_fd_sc_mcu7t5v0__nand2_1
*CAP
1 *2149:A1 0
2 *2140:A3 0.000342535
3 *2137:ZN 0.000245539
4 *151:12 0.000588074
5 *2140:A3 *2140:A1 0.00151263
6 *2140:A3 *2141:A2 0.00136739
7 *2140:A3 *2149:A2 0.000118941
8 *2140:A3 *2149:B 0.00346575
9 *2140:A3 *309:12 0.00136739
10 *151:12 *2149:B 0.000257646
11 *151:12 *2281:CLK 0
12 *151:12 *321:22 0.00136739
13 *2281:D *2140:A3 0.00116356
14 *2281:D *151:12 0
15 *2336:I *2140:A3 1.12507e-05
16 *2336:I *151:12 1.73875e-05
*RES
1 *2137:ZN *151:12 15.0983 
2 *151:12 *2140:A3 17.9947 
3 *151:12 *2149:A1 4.5 
*END

*D_NET *152 0.00841042
*CONN
*I *2149:A2 I *D gf180mcu_fd_sc_mcu7t5v0__aoi211_1
*I *2138:ZN O *D gf180mcu_fd_sc_mcu7t5v0__nand2_1
*CAP
1 *2149:A2 0.00076876
2 *2138:ZN 0.00076876
3 *2149:A2 *2138:A1 0.000159313
4 *2149:A2 *2140:A1 0.000240975
5 *2149:A2 *2140:A2 0.000356788
6 *2149:A2 *303:16 0.000916118
7 *2149:A2 *369:67 0.000387438
8 *2140:A3 *2149:A2 0.000118941
9 *2281:D *2149:A2 0.000338758
10 *2336:I *2149:A2 0.00435457
*RES
1 *2138:ZN *2149:A2 16.0384 
*END

*D_NET *153 0.00791689
*CONN
*I *2149:B I *D gf180mcu_fd_sc_mcu7t5v0__aoi211_1
*I *2139:ZN O *D gf180mcu_fd_sc_mcu7t5v0__nor2_1
*CAP
1 *2149:B 0.0006083
2 *2139:ZN 0.0006083
3 *2149:B *2140:A1 3.38758e-05
4 *2149:B *2140:A2 0.000178376
5 *2149:B *255:23 0.00267598
6 *2149:B *332:8 3.3803e-05
7 *2149:B *332:16 3.53992e-05
8 *2140:A3 *2149:B 0.00346575
9 *2347:I *2149:B 1.94631e-05
10 *151:12 *2149:B 0.000257646
*RES
1 *2139:ZN *2149:B 13.9374 
*END

*D_NET *154 0.0110004
*CONN
*I *2141:A2 I *D gf180mcu_fd_sc_mcu7t5v0__nor2_1
*I *2140:Z O *D gf180mcu_fd_sc_mcu7t5v0__xor3_1
*CAP
1 *2141:A2 0.00133649
2 *2140:Z 0.00133649
3 *2141:A2 *296:12 0.0031905
4 *2141:A2 *297:16 0
5 *2141:A2 *305:16 0
6 *2141:A2 *309:12 0.00154266
7 *2141:A2 *313:20 0.00174534
8 *2141:A2 *325:14 0.000252436
9 *2140:A3 *2141:A2 0.00136739
10 *2248:D *2141:A2 0.000229035
11 *2358:I *2141:A2 0
*RES
1 *2140:Z *2141:A2 29.5555 
*END

*D_NET *155 0.00252374
*CONN
*I *2145:A2 I *D gf180mcu_fd_sc_mcu7t5v0__nor3_1
*I *2143:ZN O *D gf180mcu_fd_sc_mcu7t5v0__aoi22_1
*CAP
1 *2145:A2 0.000469549
2 *2143:ZN 0.000469549
3 *2145:A2 *2052:A1 0
4 *2145:A2 *2052:A2 3.53992e-05
5 *2145:A2 *2145:A1 0.000272158
6 *2145:A2 *2145:A3 0
7 *2145:A2 *249:12 2.55699e-05
8 *2145:A2 *293:14 0.000946633
9 *2145:A2 *334:173 0
10 *2283:D *2145:A2 0.000304882
*RES
1 *2143:ZN *2145:A2 22.1795 
*END

*D_NET *156 0.003215
*CONN
*I *2145:A3 I *D gf180mcu_fd_sc_mcu7t5v0__nor3_1
*I *2144:ZN O *D gf180mcu_fd_sc_mcu7t5v0__nor2_1
*CAP
1 *2145:A3 0.000738786
2 *2144:ZN 0.000738786
3 *2145:A3 *2144:A1 7.50327e-05
4 *2145:A3 *2144:A2 3.9647e-05
5 *2145:A2 *2145:A3 0
6 *2283:D *2145:A3 0.00162275
*RES
1 *2144:ZN *2145:A3 12.8812 
*END

*D_NET *157 0.00382228
*CONN
*I *2148:A2 I *D gf180mcu_fd_sc_mcu7t5v0__nor3_1
*I *2146:ZN O *D gf180mcu_fd_sc_mcu7t5v0__aoi22_1
*CAP
1 *2148:A2 0.000363542
2 *2146:ZN 0.000363542
3 *2148:A2 *2056:A2 0.00113863
4 *2148:A2 *2146:A1 4.73318e-05
5 *2148:A2 *2146:A2 0.000331499
6 *2148:A2 *2148:A3 0.00157774
*RES
1 *2146:ZN *2148:A2 20.8139 
*END

*D_NET *158 0.00395384
*CONN
*I *2148:A3 I *D gf180mcu_fd_sc_mcu7t5v0__nor3_1
*I *2147:ZN O *D gf180mcu_fd_sc_mcu7t5v0__nor2_1
*CAP
1 *2148:A3 0.000889414
2 *2147:ZN 0.000889414
3 *2148:A3 *2056:A1 1.27849e-05
4 *2148:A3 *2147:A2 0.000372634
5 *2148:A3 *301:18 0
6 *2148:A3 *305:34 0.000170295
7 *2148:A3 *334:269 1.80316e-05
8 *2148:A2 *2148:A3 0.00157774
9 *2282:D *2148:A3 2.35243e-05
*RES
1 *2147:ZN *2148:A3 22.8886 
*END

*D_NET *159 0.00714068
*CONN
*I *2060:A1 I *D gf180mcu_fd_sc_mcu7t5v0__aoi211_1
*I *2153:A3 I *D gf180mcu_fd_sc_mcu7t5v0__xor3_1
*I *2150:ZN O *D gf180mcu_fd_sc_mcu7t5v0__nand2_1
*CAP
1 *2060:A1 0
2 *2153:A3 0.000358087
3 *2150:ZN 0.00157104
4 *159:12 0.00192913
5 *2153:A3 *2060:B 0.000123405
6 *2153:A3 *2060:C 0.00074559
7 *2153:A3 *2311:CLK 0.000412281
8 *2153:A3 *295:80 0
9 *159:12 *2151:A1 4.73318e-05
10 *159:12 *311:12 8.94045e-05
11 *2279:D *159:12 9.99226e-05
12 *2311:D *2153:A3 0.001324
13 *2311:D *159:12 0.00044049
*RES
1 *2150:ZN *159:12 24.0876 
2 *159:12 *2153:A3 8.19928 
3 *159:12 *2060:A1 4.5 
*END

*D_NET *160 0.000395763
*CONN
*I *2060:A2 I *D gf180mcu_fd_sc_mcu7t5v0__aoi211_1
*I *2151:ZN O *D gf180mcu_fd_sc_mcu7t5v0__nand2_1
*CAP
1 *2060:A2 0.000127918
2 *2151:ZN 0.000127918
3 *2060:A2 *2151:A1 1.20357e-05
4 *2060:A2 *2151:A2 2.62635e-05
5 *2311:D *2060:A2 0.000101627
*RES
1 *2151:ZN *2060:A2 10.2606 
*END

*D_NET *161 0.00354435
*CONN
*I *2060:B I *D gf180mcu_fd_sc_mcu7t5v0__aoi211_1
*I *2152:ZN O *D gf180mcu_fd_sc_mcu7t5v0__nor2_1
*CAP
1 *2060:B 0.000681512
2 *2152:ZN 0.000681512
3 *2060:B *2060:C 0.000423867
4 *2060:B *2151:A1 0.000306122
5 *2060:B *2153:A2 0.000220245
6 *2060:B *278:10 0.000525909
7 *2060:B *360:6 0.000581779
8 *2153:A3 *2060:B 0.000123405
*RES
1 *2152:ZN *2060:B 22.0482 
*END

*D_NET *162 0.000440656
*CONN
*I *2154:A2 I *D gf180mcu_fd_sc_mcu7t5v0__nor2_1
*I *2153:Z O *D gf180mcu_fd_sc_mcu7t5v0__xor3_1
*CAP
1 *2154:A2 0.000220328
2 *2153:Z 0.000220328
3 *2154:A2 *2060:C 0
4 *2278:D *2154:A2 0
*RES
1 *2153:Z *2154:A2 10.6808 
*END

*D_NET *163 0.00828518
*CONN
*I *2061:A1 I *D gf180mcu_fd_sc_mcu7t5v0__aoi211_1
*I *2158:A3 I *D gf180mcu_fd_sc_mcu7t5v0__xor3_1
*I *2155:ZN O *D gf180mcu_fd_sc_mcu7t5v0__nand2_1
*CAP
1 *2061:A1 0
2 *2158:A3 0.000393622
3 *2155:ZN 8.92834e-05
4 *163:10 0.000482906
5 *2158:A3 *2061:B 0.000135503
6 *2158:A3 *2156:A1 9.73157e-06
7 *2158:A3 *2156:A2 0.0027674
8 *2158:A3 *2157:A2 9.73157e-06
9 *2158:A3 *2158:A1 5.83894e-05
10 *163:10 *2150:A1 0.00084147
11 *163:10 *2279:CLK 0.00136738
12 *163:10 *369:575 0.000525913
13 *2310:D *2158:A3 0.00160384
*RES
1 *2155:ZN *163:10 14.8657 
2 *163:10 *2158:A3 7.73405 
3 *163:10 *2061:A1 4.5 
*END

*D_NET *164 0.00203739
*CONN
*I *2061:A2 I *D gf180mcu_fd_sc_mcu7t5v0__aoi211_1
*I *2156:ZN O *D gf180mcu_fd_sc_mcu7t5v0__nand2_1
*CAP
1 *2061:A2 0.000308275
2 *2156:ZN 0.000308275
3 *2061:A2 *2150:A2 0
4 *2061:A2 *2155:A1 0.001047
5 *2061:A2 *2156:A1 0.000170588
6 *2061:A2 *2156:A2 6.77516e-05
7 *2310:D *2061:A2 0.000135503
*RES
1 *2156:ZN *2061:A2 11.5212 
*END

*D_NET *165 0.00752741
*CONN
*I *2061:B I *D gf180mcu_fd_sc_mcu7t5v0__aoi211_1
*I *2157:ZN O *D gf180mcu_fd_sc_mcu7t5v0__nor2_1
*CAP
1 *2061:B 0.000343043
2 *2157:ZN 0.000343043
3 *2061:B *2061:C 2.17773e-05
4 *2061:B *2156:A2 0.00228536
5 *2061:B *2157:A1 0.00301279
6 *2061:B *2157:A2 0.0010472
7 *2061:B *332:60 0.000338697
8 *2158:A3 *2061:B 0.000135503
*RES
1 *2157:ZN *2061:B 12.8381 
*END

*D_NET *166 0.000873013
*CONN
*I *2159:A2 I *D gf180mcu_fd_sc_mcu7t5v0__nor2_1
*I *2158:Z O *D gf180mcu_fd_sc_mcu7t5v0__xor3_1
*CAP
1 *2159:A2 0.000277918
2 *2158:Z 0.000277918
3 *2159:A2 *2160:A2 0
4 *2159:A2 *332:60 0.000297353
5 *2277:D *2159:A2 1.98235e-05
*RES
1 *2158:Z *2159:A2 10.7859 
*END

*D_NET *167 0.00697626
*CONN
*I *2062:A1 I *D gf180mcu_fd_sc_mcu7t5v0__aoi211_1
*I *2163:A3 I *D gf180mcu_fd_sc_mcu7t5v0__xor3_1
*I *2160:ZN O *D gf180mcu_fd_sc_mcu7t5v0__nand2_1
*CAP
1 *2062:A1 0
2 *2163:A3 0.00111024
3 *2160:ZN 0.000585224
4 *167:12 0.00169546
5 *2163:A3 *2062:A2 6.04925e-05
6 *2163:A3 *2062:C 0.00138294
7 *2163:A3 *2162:A2 0.00034886
8 *2163:A3 *2163:A1 0.000651694
9 *2163:A3 *2163:A2 0.000373176
10 *2163:A3 *2164:A1 0.000420727
11 *2163:A3 *2276:CLK 0.000164637
12 *167:12 *2062:A2 4.11349e-05
13 *167:12 *2062:C 1.98235e-05
14 *167:12 *2160:A1 0.000105182
15 *167:12 *2161:A1 1.43191e-05
16 *167:12 *357:17 2.35195e-06
*RES
1 *2160:ZN *167:12 16.569 
2 *167:12 *2163:A3 20.2007 
3 *167:12 *2062:A1 4.5 
*END

*D_NET *168 0.00211719
*CONN
*I *2062:A2 I *D gf180mcu_fd_sc_mcu7t5v0__aoi211_1
*I *2161:ZN O *D gf180mcu_fd_sc_mcu7t5v0__nand2_1
*CAP
1 *2062:A2 0.00054432
2 *2161:ZN 0.00054432
3 *2062:A2 *2062:B 2.19516e-05
4 *2062:A2 *2062:C 4.29574e-05
5 *2062:A2 *2161:A1 0.000840064
6 *2062:A2 *2161:A2 2.19516e-05
7 *2062:A2 *311:30 0
8 *2163:A3 *2062:A2 6.04925e-05
9 *167:12 *2062:A2 4.11349e-05
*RES
1 *2161:ZN *2062:A2 12.0465 
*END

*D_NET *169 0.00171843
*CONN
*I *2062:B I *D gf180mcu_fd_sc_mcu7t5v0__aoi211_1
*I *2162:ZN O *D gf180mcu_fd_sc_mcu7t5v0__nor2_1
*CAP
1 *2062:B 0.000397576
2 *2162:ZN 0.000397576
3 *2062:B *2161:A1 0.000232712
4 *2062:B *2163:A1 0.000105181
5 *2062:B *275:12 0.000525907
6 *2062:B *332:77 3.75231e-05
7 *2062:A2 *2062:B 2.19516e-05
*RES
1 *2162:ZN *2062:B 20.1948 
*END

*D_NET *170 0.00170025
*CONN
*I *2164:A2 I *D gf180mcu_fd_sc_mcu7t5v0__nor2_1
*I *2163:Z O *D gf180mcu_fd_sc_mcu7t5v0__xor3_1
*CAP
1 *2164:A2 0.000145375
2 *2163:Z 0.000145375
3 *2164:A2 *2164:A1 1.98235e-05
4 *2164:A2 *2276:CLK 0.00127991
5 *2276:D *2164:A2 0.000109758
*RES
1 *2163:Z *2164:A2 10.5758 
*END

*D_NET *171 0.0157744
*CONN
*I *2168:A3 I *D gf180mcu_fd_sc_mcu7t5v0__xor3_1
*I *2063:A1 I *D gf180mcu_fd_sc_mcu7t5v0__aoi211_1
*I *2165:ZN O *D gf180mcu_fd_sc_mcu7t5v0__nand2_1
*CAP
1 *2168:A3 0.000100555
2 *2063:A1 0.00025146
3 *2165:ZN 0.0019117
4 *171:10 0.00226372
5 *2063:A1 *2168:A1 3.38758e-05
6 *2063:A1 *2169:A1 0.000207779
7 *2063:A1 *2169:A2 0.00137134
8 *2168:A3 *2063:C 1.18329e-05
9 *2168:A3 *2168:A2 0.00178815
10 *2168:A3 *2169:A2 0.00178815
11 *171:10 *2063:C 2.23511e-05
12 *171:10 *2124:A1 0.000911572
13 *171:10 *2124:A2 0.000248492
14 *171:10 *2124:B1 0.00115701
15 *171:10 *322:22 8.28306e-05
16 *171:10 *330:67 0
17 *171:10 *330:97 0.000257695
18 *171:10 *369:189 2.10364e-05
19 *171:10 *369:200 0.000715237
20 *2126:A2 *171:10 0.00262964
*RES
1 *2165:ZN *171:10 24.3374 
2 *171:10 *2063:A1 10.4482 
3 *171:10 *2168:A3 10.996 
*END

*D_NET *172 0.0069867
*CONN
*I *2063:A2 I *D gf180mcu_fd_sc_mcu7t5v0__aoi211_1
*I *2166:ZN O *D gf180mcu_fd_sc_mcu7t5v0__nand2_1
*CAP
1 *2063:A2 0.000478833
2 *2166:ZN 0.000478833
3 *2063:A2 *2063:B 0.00178814
4 *2063:A2 *2063:C 0.000315545
5 *2063:A2 *2168:A1 0.00220888
6 *2063:A2 *2169:A1 0.000349069
7 *2063:A2 *274:12 0.00105186
8 *2063:A2 *330:97 0.000315545
*RES
1 *2166:ZN *2063:A2 22.6222 
*END

*D_NET *173 0.0026421
*CONN
*I *2063:B I *D gf180mcu_fd_sc_mcu7t5v0__aoi211_1
*I *2167:ZN O *D gf180mcu_fd_sc_mcu7t5v0__nor2_1
*CAP
1 *2063:B 0.000283776
2 *2167:ZN 0.000283776
3 *2063:B *2169:A2 5.36993e-05
4 *2063:A2 *2063:B 0.00178814
5 *2308:D *2063:B 0.000232712
*RES
1 *2167:ZN *2063:B 20.1948 
*END

*D_NET *174 0.0120953
*CONN
*I *2169:A2 I *D gf180mcu_fd_sc_mcu7t5v0__nor2_1
*I *2168:Z O *D gf180mcu_fd_sc_mcu7t5v0__xor3_1
*CAP
1 *2169:A2 0.00130991
2 *2168:Z 0.00130991
3 *2169:A2 *2063:C 0.000103312
4 *2169:A2 *2168:A1 0.00149291
5 *2169:A2 *2168:A2 7.0121e-05
6 *2169:A2 *2169:A1 0.00398974
7 *2169:A2 *274:12 8.28306e-05
8 *2169:A2 *356:19 0.000350605
9 *2063:A1 *2169:A2 0.00137134
10 *2063:B *2169:A2 5.36993e-05
11 *2168:A3 *2169:A2 0.00178815
12 *2308:D *2169:A2 0.000172767
*RES
1 *2168:Z *2169:A2 29.9757 
*END

*D_NET *175 0.0127332
*CONN
*I *2173:A3 I *D gf180mcu_fd_sc_mcu7t5v0__xor3_1
*I *2064:A1 I *D gf180mcu_fd_sc_mcu7t5v0__aoi211_1
*I *2170:ZN O *D gf180mcu_fd_sc_mcu7t5v0__nand2_1
*CAP
1 *2173:A3 0.000536182
2 *2064:A1 0.000971209
3 *2170:ZN 0.00181202
4 *175:16 0.00331941
5 *2064:A1 *2064:A2 0.000360044
6 *2064:A1 *2064:B 0.000109758
7 *2064:A1 *2172:A2 0
8 *2064:A1 *2173:A2 0
9 *2064:A1 *2307:CLK 1.95996e-05
10 *2064:A1 *273:23 0
11 *2173:A3 *2192:A2 0
12 *2173:A3 *328:79 0
13 *2173:A3 *355:10 0.000130162
14 *2173:A3 *355:14 8.28306e-05
15 *175:16 *2170:A1 0.000303357
16 *175:16 *2170:A2 3.9647e-05
17 *175:16 *2190:A1 0.000135503
18 *175:16 *2190:A3 1.94631e-05
19 *175:16 *2191:A1 0
20 *175:16 *2191:A3 0.000109439
21 *175:16 *328:64 0.00157777
22 *175:16 *328:79 0.00252446
23 *2270:D *175:16 0.000230472
24 *2307:D *2064:A1 0.000451928
*RES
1 *2170:ZN *175:16 25.4757 
2 *175:16 *2064:A1 9.85757 
3 *175:16 *2173:A3 16.7566 
*END

*D_NET *176 0.00187912
*CONN
*I *2064:A2 I *D gf180mcu_fd_sc_mcu7t5v0__aoi211_1
*I *2171:ZN O *D gf180mcu_fd_sc_mcu7t5v0__nand2_1
*CAP
1 *2064:A2 0.000718121
2 *2171:ZN 0.000718121
3 *2064:A2 *273:10 8.28306e-05
4 *2064:A2 *292:78 0
5 *2064:A1 *2064:A2 0.000360044
*RES
1 *2171:ZN *2064:A2 20.9414 
*END

*D_NET *177 0.00305562
*CONN
*I *2064:B I *D gf180mcu_fd_sc_mcu7t5v0__aoi211_1
*I *2172:ZN O *D gf180mcu_fd_sc_mcu7t5v0__nor2_1
*CAP
1 *2064:B 0.000331053
2 *2172:ZN 0.000331053
3 *2064:B *2064:C 0.00162898
4 *2064:B *2172:A2 5.94706e-05
5 *2064:B *273:23 0.00025654
6 *2064:A1 *2064:B 0.000109758
7 *2307:D *2064:B 0.000338758
*RES
1 *2172:ZN *2064:B 11.8364 
*END

*D_NET *178 0.00181528
*CONN
*I *2174:A2 I *D gf180mcu_fd_sc_mcu7t5v0__nor2_1
*I *2173:Z O *D gf180mcu_fd_sc_mcu7t5v0__xor3_1
*CAP
1 *2174:A2 0.000870879
2 *2173:Z 0.000870879
3 *2174:A2 *2174:A1 3.9647e-05
4 *2174:A2 *2274:CLK 3.38758e-05
5 *2174:A2 *328:83 0
*RES
1 *2173:Z *2174:A2 13.5172 
*END

*D_NET *179 0.0136337
*CONN
*I *2178:A3 I *D gf180mcu_fd_sc_mcu7t5v0__xor3_1
*I *2065:A1 I *D gf180mcu_fd_sc_mcu7t5v0__aoi211_1
*I *2175:ZN O *D gf180mcu_fd_sc_mcu7t5v0__nand2_1
*CAP
1 *2178:A3 0.00098065
2 *2065:A1 3.4114e-05
3 *2175:ZN 0.00159939
4 *179:12 0.00261416
5 *2065:A1 *2065:A2 3.53992e-05
6 *2065:A1 *2065:C 2.55699e-05
7 *2178:A3 *2065:B 0.000455786
8 *2178:A3 *2177:A1 0.000274662
9 *2178:A3 *2177:A2 0
10 *2178:A3 *2179:A1 0
11 *2178:A3 *2179:A2 0.000109758
12 *2178:A3 *272:16 0.000257706
13 *2178:A3 *355:10 0.000153828
14 *179:12 *2185:A1 5.72765e-05
15 *179:12 *2185:A2 0.000331438
16 *179:12 *2187:A1 4.86578e-06
17 *179:12 *2187:A2 6.15656e-05
18 *179:12 *2187:A3 5.35149e-05
19 *179:12 *292:70 0.00570144
20 *179:12 *310:18 0
21 *179:12 *355:10 0.000248492
22 *2271:D *179:12 0.000609764
23 *2306:D *179:12 2.43289e-05
*RES
1 *2175:ZN *179:12 20.2404 
2 *179:12 *2065:A1 9.18759 
3 *179:12 *2178:A3 14.8828 
*END

*D_NET *180 0.00355376
*CONN
*I *2065:A2 I *D gf180mcu_fd_sc_mcu7t5v0__aoi211_1
*I *2176:ZN O *D gf180mcu_fd_sc_mcu7t5v0__nand2_1
*CAP
1 *2065:A2 0.000602416
2 *2176:ZN 0.000602416
3 *2065:A2 *2065:B 9.73157e-06
4 *2065:A2 *2176:A1 0.000303357
5 *2065:A2 *2176:A2 0.000182687
6 *2065:A2 *2177:A2 0
7 *2065:A2 *292:70 0
8 *2065:A2 *292:76 0
9 *2065:A2 *354:21 4.86578e-06
10 *2065:A1 *2065:A2 3.53992e-05
11 *2306:D *2065:A2 0.00181288
*RES
1 *2176:ZN *2065:A2 12.7818 
*END

*D_NET *181 0.00148526
*CONN
*I *2065:B I *D gf180mcu_fd_sc_mcu7t5v0__aoi211_1
*I *2177:ZN O *D gf180mcu_fd_sc_mcu7t5v0__nor2_1
*CAP
1 *2065:B 0.000221978
2 *2177:ZN 0.000221978
3 *2065:B *2177:A1 0.000220246
4 *2065:B *2177:A2 8.20707e-05
5 *2065:B *355:10 0.000273473
6 *2065:A2 *2065:B 9.73157e-06
7 *2178:A3 *2065:B 0.000455786
*RES
1 *2177:ZN *2065:B 19.7746 
*END

*D_NET *182 0.000547351
*CONN
*I *2179:A2 I *D gf180mcu_fd_sc_mcu7t5v0__nor2_1
*I *2178:Z O *D gf180mcu_fd_sc_mcu7t5v0__xor3_1
*CAP
1 *2179:A2 0.000218797
2 *2178:Z 0.000218797
3 *2178:A3 *2179:A2 0.000109758
*RES
1 *2178:Z *2179:A2 10.4707 
*END

*D_NET *183 0.00327955
*CONN
*I *2181:B I *D gf180mcu_fd_sc_mcu7t5v0__aoi21_1
*I *2182:A3 I *D gf180mcu_fd_sc_mcu7t5v0__and3_1
*I *2180:Z O *D gf180mcu_fd_sc_mcu7t5v0__xor2_1
*CAP
1 *2181:B 0.000368246
2 *2182:A3 9.55368e-05
3 *2180:Z 0.000336491
4 *183:12 0.000800274
5 *2181:B *2067:A2 2.19516e-05
6 *2181:B *2183:A2 0.000198406
7 *2181:B *2183:A3 0.000833524
8 *2181:B *2272:CLK 0.000187659
9 *2181:B *311:32 0.000130446
10 *2182:A3 *2067:A2 5.94706e-05
11 *2182:A3 *2180:A1 4.86578e-06
12 *2182:A3 *353:20 1.45974e-05
13 *183:12 *2067:A2 3.89263e-05
14 *183:12 *2180:A1 2.86383e-05
15 *183:12 *2183:A3 0.000160514
*RES
1 *2180:Z *183:12 6.48845 
2 *183:12 *2182:A3 5.3404 
3 *183:12 *2181:B 8.38686 
*END

*D_NET *184 0.00125553
*CONN
*I *2183:A2 I *D gf180mcu_fd_sc_mcu7t5v0__nor3_1
*I *2181:ZN O *D gf180mcu_fd_sc_mcu7t5v0__aoi21_1
*CAP
1 *2183:A2 0.00031754
2 *2181:ZN 0.00031754
3 *2183:A2 *2181:A1 0.000207779
4 *2183:A2 *2183:A3 1.43191e-05
5 *2183:A2 *2272:CLK 0.000199949
6 *2181:B *2183:A2 0.000198406
*RES
1 *2181:ZN *2183:A2 11.7801 
*END

*D_NET *185 0.00212416
*CONN
*I *2183:A3 I *D gf180mcu_fd_sc_mcu7t5v0__nor3_1
*I *2182:Z O *D gf180mcu_fd_sc_mcu7t5v0__and3_1
*CAP
1 *2183:A3 0.000479146
2 *2182:Z 0.000479146
3 *2181:B *2183:A3 0.000833524
4 *2183:A2 *2183:A3 1.43191e-05
5 *2272:D *2183:A3 0.00015751
6 *183:12 *2183:A3 0.000160514
*RES
1 *2182:Z *2183:A3 12.7818 
*END

*D_NET *186 0.0041272
*CONN
*I *2186:A3 I *D gf180mcu_fd_sc_mcu7t5v0__and3_1
*I *2185:B I *D gf180mcu_fd_sc_mcu7t5v0__aoi21_1
*I *2184:Z O *D gf180mcu_fd_sc_mcu7t5v0__xor2_1
*CAP
1 *2186:A3 0.000413987
2 *2185:B 0
3 *2184:Z 0.000502438
4 *186:14 0.000916425
5 *2186:A3 *2185:A1 0.0001799
6 *2186:A3 *2186:A2 0.000251651
7 *186:14 *2070:A2 7.09976e-05
8 *186:14 *2070:B2 5.91647e-05
9 *186:14 *2185:A1 1.93576e-05
10 *186:14 *331:87 0.00157777
11 *186:14 *331:98 0
12 *2304:D *186:14 0.000135503
*RES
1 *2184:Z *186:14 17.1543 
2 *186:14 *2185:B 4.5 
3 *186:14 *2186:A3 6.41342 
*END

*D_NET *187 0.00195701
*CONN
*I *2187:A2 I *D gf180mcu_fd_sc_mcu7t5v0__nor3_1
*I *2185:ZN O *D gf180mcu_fd_sc_mcu7t5v0__aoi21_1
*CAP
1 *2187:A2 0.000549674
2 *2185:ZN 0.000549674
3 *2187:A2 *2175:A2 0
4 *2187:A2 *2187:A3 0.000110123
5 *2187:A2 *292:70 0
6 *2187:A2 *331:72 0.000315544
7 *2187:A2 *331:87 0.000350605
8 *2271:D *2187:A2 1.98235e-05
9 *179:12 *2187:A2 6.15656e-05
*RES
1 *2185:ZN *2187:A2 21.0465 
*END

*D_NET *188 0.00579089
*CONN
*I *2187:A3 I *D gf180mcu_fd_sc_mcu7t5v0__nor3_1
*I *2186:Z O *D gf180mcu_fd_sc_mcu7t5v0__and3_1
*CAP
1 *2187:A3 0.000808064
2 *2186:Z 0.000808064
3 *2187:A3 *2070:A2 0.000946635
4 *2187:A3 *292:42 0
5 *2187:A3 *310:18 0.00184752
6 *2187:A3 *310:29 0.000946635
7 *2187:A3 *331:72 3.89263e-05
8 *2187:A3 *369:234 0
9 *2187:A3 *369:251 0.0002314
10 *2187:A2 *2187:A3 0.000110123
11 *179:12 *2187:A3 5.35149e-05
*RES
1 *2186:Z *2187:A3 23.1418 
*END

*D_NET *189 0.00846926
*CONN
*I *2189:B I *D gf180mcu_fd_sc_mcu7t5v0__aoi21_1
*I *2190:A3 I *D gf180mcu_fd_sc_mcu7t5v0__and3_1
*I *2188:Z O *D gf180mcu_fd_sc_mcu7t5v0__xor2_1
*CAP
1 *2189:B 0.000208831
2 *2190:A3 0.000537932
3 *2188:Z 0.000626275
4 *189:10 0.00137304
5 *2189:B *2189:A1 0.000128244
6 *2189:B *2191:A2 7.00549e-05
7 *2189:B *351:14 3.78749e-05
8 *2190:A3 *2190:A1 4.29574e-05
9 *2190:A3 *2191:A3 0.000581572
10 *2190:A3 *309:22 4.86578e-06
11 *2190:A3 *369:295 0.000140242
12 *2190:A3 *369:297 0.000666149
13 *189:10 *2073:B1 0.00127992
14 *189:10 *2188:A1 0.00139606
15 *189:10 *2303:CLK 0
16 *189:10 *269:12 3.54988e-05
17 *189:10 *369:295 0.000596028
18 *2075:A2 *189:10 0.000114553
19 *2303:D *189:10 0.000609704
20 *175:16 *2190:A3 1.94631e-05
*RES
1 *2188:Z *189:10 13.5172 
2 *189:10 *2190:A3 12.1515 
3 *189:10 *2189:B 9.81789 
*END

*D_NET *190 0.00202623
*CONN
*I *2191:A2 I *D gf180mcu_fd_sc_mcu7t5v0__nor3_1
*I *2189:ZN O *D gf180mcu_fd_sc_mcu7t5v0__aoi21_1
*CAP
1 *2191:A2 0.000682982
2 *2189:ZN 0.000682982
3 *2191:A2 *2191:A1 6.77516e-05
4 *2191:A2 *2191:A3 0.000484571
5 *2191:A2 *2303:CLK 3.78836e-05
6 *2191:A2 *351:14 0
7 *2189:B *2191:A2 7.00549e-05
*RES
1 *2189:ZN *2191:A2 13.3633 
*END

*D_NET *191 0.00260448
*CONN
*I *2191:A3 I *D gf180mcu_fd_sc_mcu7t5v0__nor3_1
*I *2190:Z O *D gf180mcu_fd_sc_mcu7t5v0__and3_1
*CAP
1 *2191:A3 0.000698164
2 *2190:Z 0.000698164
3 *2191:A3 *2191:A1 3.25672e-05
4 *2190:A3 *2191:A3 0.000581572
5 *2191:A2 *2191:A3 0.000484571
6 *175:16 *2191:A3 0.000109439
*RES
1 *2190:Z *2191:A3 13.1645 
*END

*D_NET *192 0.00369803
*CONN
*I *2193:B I *D gf180mcu_fd_sc_mcu7t5v0__aoi21_1
*I *2194:A3 I *D gf180mcu_fd_sc_mcu7t5v0__and3_1
*I *2192:Z O *D gf180mcu_fd_sc_mcu7t5v0__xor2_1
*CAP
1 *2193:B 1.8198e-05
2 *2194:A3 0.000457888
3 *2192:Z 0.000198158
4 *192:8 0.000674244
5 *2193:B *2078:A1 6.04925e-05
6 *2193:B *308:26 9.14228e-05
7 *2194:A3 *2076:A1 1.5339e-05
8 *2194:A3 *2192:A2 4.73318e-05
9 *2194:A3 *2195:A3 0.000841462
10 *2194:A3 *334:25 0.000399691
11 *192:8 *2076:A2 5.30023e-05
12 *192:8 *2078:A1 0.000575889
13 *192:8 *308:26 0.000264909
*RES
1 *2192:Z *192:8 6.28586 
2 *192:8 *2194:A3 15.9162 
3 *192:8 *2193:B 4.68759 
*END

*D_NET *193 0.00320343
*CONN
*I *2195:A2 I *D gf180mcu_fd_sc_mcu7t5v0__nor3_1
*I *2193:ZN O *D gf180mcu_fd_sc_mcu7t5v0__aoi21_1
*CAP
1 *2195:A2 0.000383297
2 *2193:ZN 0.000383297
3 *2195:A2 *2193:A1 0.000178482
4 *2195:A2 *2193:A2 6.77516e-05
5 *2195:A2 *2194:A2 0.00151263
6 *2195:A2 *2195:A1 9.73157e-06
7 *2195:A2 *2195:A3 0.000118906
8 *2195:A2 *308:26 3.23867e-05
9 *2195:A2 *308:28 3.23867e-05
10 *2195:A2 *334:10 0.000349068
11 *2269:D *2195:A2 0.000135503
*RES
1 *2193:ZN *2195:A2 12.4179 
*END

*D_NET *194 0.00362469
*CONN
*I *2195:A3 I *D gf180mcu_fd_sc_mcu7t5v0__nor3_1
*I *2194:Z O *D gf180mcu_fd_sc_mcu7t5v0__and3_1
*CAP
1 *2195:A3 0.000434336
2 *2194:Z 0.000434336
3 *2195:A3 *2076:A1 0.000288812
4 *2195:A3 *2194:A1 0.000349068
5 *2195:A3 *2194:A2 0.000101627
6 *2195:A3 *334:25 0.00047477
7 *2195:A3 *334:29 0.000101627
8 *2194:A3 *2195:A3 0.000841462
9 *2195:A2 *2195:A3 0.000118906
10 *2269:D *2195:A3 0.000479743
*RES
1 *2194:Z *2195:A3 21.7818 
*END

*D_NET *195 0.00579531
*CONN
*I *2197:B I *D gf180mcu_fd_sc_mcu7t5v0__aoi21_1
*I *2198:A3 I *D gf180mcu_fd_sc_mcu7t5v0__and3_1
*I *2196:Z O *D gf180mcu_fd_sc_mcu7t5v0__xor2_1
*CAP
1 *2197:B 0.000406229
2 *2198:A3 0.000107345
3 *2196:Z 0.000427235
4 *195:10 0.00094081
5 *2197:B *2197:A2 9.72288e-06
6 *2197:B *2198:A2 2.43202e-05
7 *2197:B *328:152 0
8 *2197:B *334:51 0.000179434
9 *2198:A3 *2199:A3 0.000175302
10 *2198:A3 *289:56 5.78499e-05
11 *2198:A3 *307:48 0.000126218
12 *195:10 *2196:A1 6.83204e-05
13 *195:10 *2196:A2 0.000315557
14 *195:10 *289:56 0.000131477
15 *195:10 *289:71 6.83681e-05
16 *195:10 *305:34 0.000401013
17 *195:10 *307:48 0.000988709
18 *2301:D *195:10 0.00136739
*RES
1 *2196:Z *195:10 14.7196 
2 *195:10 *2198:A3 10.1556 
3 *195:10 *2197:B 11.0785 
*END

*D_NET *196 0.00123049
*CONN
*I *2199:A2 I *D gf180mcu_fd_sc_mcu7t5v0__nor3_1
*I *2197:ZN O *D gf180mcu_fd_sc_mcu7t5v0__aoi21_1
*CAP
1 *2199:A2 0.000348838
2 *2197:ZN 0.000348838
3 *2199:A2 *2199:A3 5.56531e-05
4 *2199:A2 *289:12 1.14693e-05
5 *2199:A2 *304:20 0
6 *2199:A2 *328:161 0.000127756
7 *2199:A2 *334:43 6.77516e-05
8 *2199:A2 *334:51 0.000118329
9 *2199:A2 *334:57 3.54988e-05
10 *2268:D *2199:A2 0.000116356
*RES
1 *2197:ZN *2199:A2 20.6263 
*END

*D_NET *197 0.00306006
*CONN
*I *2199:A3 I *D gf180mcu_fd_sc_mcu7t5v0__nor3_1
*I *2198:Z O *D gf180mcu_fd_sc_mcu7t5v0__and3_1
*CAP
1 *2199:A3 0.000620002
2 *2198:Z 0.000620002
3 *2199:A3 *2198:A1 7.15701e-05
4 *2199:A3 *289:12 0.00016669
5 *2199:A3 *289:34 1.43191e-05
6 *2199:A3 *289:38 0
7 *2199:A3 *307:48 0.000736272
8 *2199:A3 *328:152 3.29273e-05
9 *2199:A3 *328:161 2.19516e-05
10 *2199:A3 *334:43 9.73157e-06
11 *2199:A3 *334:51 0.000220094
12 *2199:A3 *334:57 0.000315544
13 *2198:A3 *2199:A3 0.000175302
14 *2199:A2 *2199:A3 5.56531e-05
*RES
1 *2198:Z *2199:A3 21.8493 
*END

*D_NET *198 0.00286813
*CONN
*I *2201:B I *D gf180mcu_fd_sc_mcu7t5v0__aoi21_1
*I *2202:A3 I *D gf180mcu_fd_sc_mcu7t5v0__and3_1
*I *2200:Z O *D gf180mcu_fd_sc_mcu7t5v0__xor2_1
*CAP
1 *2201:B 0.000337479
2 *2202:A3 0
3 *2200:Z 0.000250208
4 *198:6 0.000587687
5 *2201:B *2200:A2 6.04925e-05
6 *2201:B *2201:A1 6.04925e-05
7 *2201:B *2201:A2 0.000596028
8 *2201:B *2202:A1 1.55756e-05
9 *2201:B *2202:A2 0.000116356
10 *2201:B *2203:A3 0.000666149
11 *2201:B *334:33 4.20727e-05
12 *198:6 *2082:B1 6.09548e-05
13 *2084:A2 *2201:B 3.06838e-06
14 *2084:A2 *198:6 7.15701e-05
*RES
1 *2200:Z *198:6 5.60866 
2 *198:6 *2202:A3 4.5 
3 *198:6 *2201:B 15.9987 
*END

*D_NET *199 0.00359249
*CONN
*I *2203:A2 I *D gf180mcu_fd_sc_mcu7t5v0__nor3_1
*I *2201:ZN O *D gf180mcu_fd_sc_mcu7t5v0__aoi21_1
*CAP
1 *2203:A2 0.000251002
2 *2201:ZN 0.000251002
3 *2203:A2 *2084:A1 3.50605e-05
4 *2203:A2 *2200:A2 5.87988e-06
5 *2203:A2 *2203:A3 5.91647e-05
6 *2203:A2 *328:173 0.00169132
7 *2084:A2 *2203:A2 0.0010472
8 *2267:D *2203:A2 0.000251859
9 *2300:D *2203:A2 0
*RES
1 *2201:ZN *2203:A2 20.2623 
*END

*D_NET *200 0.00438683
*CONN
*I *2203:A3 I *D gf180mcu_fd_sc_mcu7t5v0__nor3_1
*I *2202:Z O *D gf180mcu_fd_sc_mcu7t5v0__and3_1
*CAP
1 *2203:A3 0.00080371
2 *2202:Z 0.00080371
3 *2203:A3 *2201:A2 0.00015339
4 *2203:A3 *2300:CLK 0
5 *2203:A3 *328:173 0.000185551
6 *2203:A3 *334:33 4.73318e-05
7 *2084:A2 *2203:A3 0.00136736
8 *2201:B *2203:A3 0.000666149
9 *2203:A2 *2203:A3 5.91647e-05
10 *2267:D *2203:A3 0.000300464
*RES
1 *2202:Z *2203:A3 23.7778 
*END

*D_NET *201 0.00339885
*CONN
*I *2205:B I *D gf180mcu_fd_sc_mcu7t5v0__aoi21_1
*I *2206:A3 I *D gf180mcu_fd_sc_mcu7t5v0__and3_1
*I *2204:Z O *D gf180mcu_fd_sc_mcu7t5v0__xor2_1
*CAP
1 *2205:B 0.000483038
2 *2206:A3 0.000358793
3 *2204:Z 0.000308076
4 *201:6 0.00114991
5 *2205:B *2205:A2 2.17222e-05
6 *2205:B *2207:A2 0.000136543
7 *2206:A3 *2085:A1 3.9647e-05
8 *2206:A3 *2205:A2 0.000116356
9 *2206:A3 *2207:A3 7.92941e-05
10 *2206:A3 *304:35 0.000581573
11 *201:6 *2204:A1 2.19516e-05
12 *201:6 *264:19 3.80232e-05
13 *2087:A3 *201:6 6.39247e-05
*RES
1 *2204:Z *201:6 5.70433 
2 *201:6 *2206:A3 6.18081 
3 *201:6 *2205:B 7.23131 
*END

*D_NET *202 0.00383302
*CONN
*I *2207:A2 I *D gf180mcu_fd_sc_mcu7t5v0__nor3_1
*I *2205:ZN O *D gf180mcu_fd_sc_mcu7t5v0__aoi21_1
*CAP
1 *2207:A2 0.00052418
2 *2205:ZN 0.00052418
3 *2207:A2 *2085:A1 1.07742e-05
4 *2207:A2 *2205:A2 0.00032303
5 *2207:A2 *2207:A3 0.00220886
6 *2207:A2 *334:63 3.82312e-06
7 *2205:B *2207:A2 0.000136543
8 *2266:D *2207:A2 0.000101627
*RES
1 *2205:ZN *2207:A2 21.733 
*END

*D_NET *203 0.0044673
*CONN
*I *2207:A3 I *D gf180mcu_fd_sc_mcu7t5v0__nor3_1
*I *2206:Z O *D gf180mcu_fd_sc_mcu7t5v0__and3_1
*CAP
1 *2207:A3 0.000520109
2 *2206:Z 0.000520109
3 *2207:A3 *2085:A2 0.000596028
4 *2207:A3 *304:20 0.000245423
5 *2207:A3 *334:59 0
6 *2087:A2 *2207:A3 7.09976e-05
7 *2206:A3 *2207:A3 7.92941e-05
8 *2207:A2 *2207:A3 0.00220886
9 *2266:D *2207:A3 0.000226479
*RES
1 *2206:Z *2207:A3 21.6711 
*END

*D_NET *204 0.00793648
*CONN
*I *2210:A3 I *D gf180mcu_fd_sc_mcu7t5v0__and3_1
*I *2209:B I *D gf180mcu_fd_sc_mcu7t5v0__aoi21_1
*I *2208:Z O *D gf180mcu_fd_sc_mcu7t5v0__xor2_1
*CAP
1 *2210:A3 0
2 *2209:B 0.000318337
3 *2208:Z 0.00149343
4 *204:10 0.00181177
5 *2209:B *2209:A1 6.04925e-05
6 *2209:B *2211:A2 0.00178813
7 *2209:B *2211:A3 0.000525921
8 *2209:B *293:14 6.83681e-05
9 *2209:B *334:89 0.000175302
10 *2209:B *334:95 7.0121e-05
11 *204:10 *2088:B2 0
12 *204:10 *2208:A1 0.000232712
13 *204:10 *2208:A2 0.000349069
14 *204:10 *2209:A2 0.000128304
15 *204:10 *2210:A2 0.000871561
16 *204:10 *2211:A3 4.29574e-05
17 *2090:A3 *204:10 0
18 *2298:D *204:10 0
*RES
1 *2208:Z *204:10 11.6434 
2 *204:10 *2209:B 16.1037 
3 *204:10 *2210:A3 4.5 
*END

*D_NET *205 0.0062247
*CONN
*I *2211:A2 I *D gf180mcu_fd_sc_mcu7t5v0__nor3_1
*I *2209:ZN O *D gf180mcu_fd_sc_mcu7t5v0__aoi21_1
*CAP
1 *2211:A2 0.00047226
2 *2209:ZN 0.00047226
3 *2211:A2 *2209:A1 0.000232712
4 *2211:A2 *2209:A2 6.77516e-05
5 *2211:A2 *2211:A1 1.98235e-05
6 *2211:A2 *2211:A3 0.000616621
7 *2211:A2 *288:10 3.68472e-05
8 *2211:A2 *334:95 0.00241918
9 *2209:B *2211:A2 0.00178813
10 *2265:D *2211:A2 9.91176e-05
*RES
1 *2209:ZN *2211:A2 22.7273 
*END

*D_NET *206 0.00306137
*CONN
*I *2211:A3 I *D gf180mcu_fd_sc_mcu7t5v0__nor3_1
*I *2210:Z O *D gf180mcu_fd_sc_mcu7t5v0__and3_1
*CAP
1 *2211:A3 0.000553484
2 *2210:Z 0.000553484
3 *2211:A3 *2211:A1 0.00073634
4 *2211:A3 *288:10 3.25672e-05
5 *2090:A2 *2211:A3 0
6 *2209:B *2211:A3 0.000525921
7 *2211:A2 *2211:A3 0.000616621
8 *204:10 *2211:A3 4.29574e-05
*RES
1 *2210:Z *2211:A3 21.4291 
*END

*D_NET *207 0.0171233
*CONN
*I *2213:B I *D gf180mcu_fd_sc_mcu7t5v0__aoi21_1
*I *2214:A3 I *D gf180mcu_fd_sc_mcu7t5v0__and3_1
*I *2212:Z O *D gf180mcu_fd_sc_mcu7t5v0__xor2_1
*CAP
1 *2213:B 0.00098676
2 *2214:A3 0.000277722
3 *2212:Z 8.55226e-05
4 *207:6 0.00135
5 *2213:B *2212:A1 0.000116356
6 *2213:B *2213:A1 0.00544363
7 *2213:B *2213:A2 8.62382e-06
8 *2213:B *2223:A1 0
9 *2213:B *2223:A3 3.53992e-05
10 *2213:B *2264:CLK 0
11 *2213:B *290:112 0
12 *2214:A3 *2092:A1 0.000315545
13 *2214:A3 *262:10 0.000315545
14 *2214:A3 *262:12 0.0036813
15 *2214:A3 *344:12 0.00410204
16 *207:6 *2212:A1 0.000349069
17 *207:6 *2213:A1 3.38758e-05
18 *2262:D *2213:B 2.19516e-05
*RES
1 *2212:Z *207:6 4.9202 
2 *207:6 *2214:A3 17.597 
3 *207:6 *2213:B 10.9906 
*END

*D_NET *208 0.00867312
*CONN
*I *2215:A2 I *D gf180mcu_fd_sc_mcu7t5v0__nor3_1
*I *2213:ZN O *D gf180mcu_fd_sc_mcu7t5v0__aoi21_1
*CAP
1 *2215:A2 0.000947738
2 *2213:ZN 0.000947738
3 *2215:A2 *2213:A1 0.00390208
4 *2215:A2 *2215:A3 0.000475509
5 *2215:A2 *2296:CLK 0.00189332
6 *2215:A2 *290:37 0.000485707
7 *2215:A2 *344:10 2.10363e-05
8 *2263:D *2215:A2 0
*RES
1 *2213:ZN *2215:A2 26.0401 
*END

*D_NET *209 0.00589126
*CONN
*I *2215:A3 I *D gf180mcu_fd_sc_mcu7t5v0__nor3_1
*I *2214:Z O *D gf180mcu_fd_sc_mcu7t5v0__and3_1
*CAP
1 *2215:A3 0.00102362
2 *2214:Z 0.00102362
3 *2215:A3 *2264:CLK 4.83885e-05
4 *2215:A3 *2297:CLK 5.94352e-05
5 *2215:A3 *329:83 0
6 *2215:A3 *344:10 0.000946633
7 *2215:A3 *344:12 0.00115693
8 *2215:A2 *2215:A3 0.000475509
9 *2264:D *2215:A3 0.00115712
*RES
1 *2214:Z *2215:A3 25.7681 
*END

*D_NET *210 0.00213098
*CONN
*I *2218:A3 I *D gf180mcu_fd_sc_mcu7t5v0__and3_1
*I *2217:B I *D gf180mcu_fd_sc_mcu7t5v0__aoi21_1
*I *2216:Z O *D gf180mcu_fd_sc_mcu7t5v0__xor2_1
*CAP
1 *2218:A3 0
2 *2217:B 0.000321052
3 *2216:Z 0.000175274
4 *210:6 0.000496326
5 *2217:B *2217:A1 6.2315e-05
6 *2217:B *2217:A2 3.52793e-05
7 *2217:B *2219:A2 0.000373505
8 *2217:B *301:27 0.000281034
9 *210:6 *2095:A1 1.33277e-05
10 *210:6 *2218:A1 1.55756e-05
11 *210:6 *2219:A2 4.39031e-05
12 *210:6 *2219:A3 0.000122224
13 *210:6 *261:18 0.000191159
*RES
1 *2216:Z *210:6 5.81688 
2 *210:6 *2217:B 6.7886 
3 *210:6 *2218:A3 4.5 
*END

*D_NET *211 0.00379971
*CONN
*I *2219:A2 I *D gf180mcu_fd_sc_mcu7t5v0__nor3_1
*I *2217:ZN O *D gf180mcu_fd_sc_mcu7t5v0__aoi21_1
*CAP
1 *2219:A2 0.000711953
2 *2217:ZN 0.000711953
3 *2219:A2 *2217:A1 0.000261075
4 *2219:A2 *2219:A3 0.00139627
5 *2219:A2 *329:73 1.43191e-05
6 *2219:A2 *334:183 0.000286734
7 *2217:B *2219:A2 0.000373505
8 *210:6 *2219:A2 4.39031e-05
*RES
1 *2217:ZN *2219:A2 14.0912 
*END

*D_NET *212 0.00194474
*CONN
*I *2219:A3 I *D gf180mcu_fd_sc_mcu7t5v0__nor3_1
*I *2218:Z O *D gf180mcu_fd_sc_mcu7t5v0__and3_1
*CAP
1 *2219:A3 0.000213124
2 *2218:Z 0.000213124
3 *2219:A2 *2219:A3 0.00139627
4 *210:6 *2219:A3 0.000122224
*RES
1 *2218:Z *2219:A3 10.4707 
*END

*D_NET *213 0.0060741
*CONN
*I *2222:A3 I *D gf180mcu_fd_sc_mcu7t5v0__and3_1
*I *2221:B I *D gf180mcu_fd_sc_mcu7t5v0__aoi21_1
*I *2220:Z O *D gf180mcu_fd_sc_mcu7t5v0__xor2_1
*CAP
1 *2222:A3 0.000189738
2 *2221:B 0.000316966
3 *2220:Z 1.25242e-05
4 *213:6 0.000519228
5 *2221:B *2097:A2 3.52793e-05
6 *2221:B *2221:A1 1.93576e-05
7 *2221:B *2222:A2 0.000315544
8 *2221:B *300:28 0.000350605
9 *2221:B *300:45 4.7039e-06
10 *2221:B *342:12 0.00199845
11 *2222:A3 *2220:A2 0.000101627
12 *2222:A3 *2221:A1 9.73157e-06
13 *2222:A3 *2222:A2 0.00151263
14 *2222:A3 *2223:A3 0.000508137
15 *213:6 *2220:A2 0.000170379
16 *213:6 *2223:A3 9.20378e-06
*RES
1 *2220:Z *213:6 4.65382 
2 *213:6 *2221:B 15.8936 
3 *213:6 *2222:A3 6.60101 
*END

*D_NET *214 0.0053916
*CONN
*I *2223:A2 I *D gf180mcu_fd_sc_mcu7t5v0__nor3_1
*I *2221:ZN O *D gf180mcu_fd_sc_mcu7t5v0__aoi21_1
*CAP
1 *2223:A2 0.000903914
2 *2221:ZN 0.000903914
3 *2223:A2 *2097:A2 0.000187406
4 *2223:A2 *2223:A3 0.000371107
5 *2262:D *2223:A2 0.00302525
*RES
1 *2221:ZN *2223:A2 15.2543 
*END

*D_NET *215 0.00673215
*CONN
*I *2223:A3 I *D gf180mcu_fd_sc_mcu7t5v0__nor3_1
*I *2222:Z O *D gf180mcu_fd_sc_mcu7t5v0__and3_1
*CAP
1 *2223:A3 0.00106188
2 *2222:Z 0.00106188
3 *2223:A3 *2097:A2 0.00113821
4 *2223:A3 *2220:A2 2.19645e-05
5 *2223:A3 *2221:A1 0.000143191
6 *2223:A3 *2223:A1 1.09758e-05
7 *2223:A3 *290:37 0.000263419
8 *2223:A3 *300:45 0.00014129
9 *2223:A3 *302:20 0.000946657
10 *2223:A3 *342:18 0.000357902
11 *2213:B *2223:A3 3.53992e-05
12 *2222:A3 *2223:A3 0.000508137
13 *2223:A2 *2223:A3 0.000371107
14 *2262:D *2223:A3 0.000660941
15 *213:6 *2223:A3 9.20378e-06
*RES
1 *2222:Z *2223:A3 26.9293 
*END

*D_NET *216 0.00789526
*CONN
*I *2226:A3 I *D gf180mcu_fd_sc_mcu7t5v0__and3_1
*I *2225:B I *D gf180mcu_fd_sc_mcu7t5v0__aoi21_1
*I *2224:Z O *D gf180mcu_fd_sc_mcu7t5v0__xor2_1
*CAP
1 *2226:A3 0.000295373
2 *2225:B 0.000446736
3 *2224:Z 0.000440229
4 *216:12 0.00118234
5 *2225:B *2225:A2 0.000187721
6 *2225:B *2227:A2 0.00116364
7 *2225:B *2227:A3 0.000508137
8 *2225:B *2261:CLK 0.000101627
9 *2225:B *333:49 0.000128244
10 *2225:B *333:57 3.38758e-05
11 *2226:A3 *2225:A2 0.000145037
12 *2226:A3 *2227:A3 0.000440385
13 *2226:A3 *2261:CLK 2.66167e-05
14 *2226:A3 *299:25 1.09758e-05
15 *216:12 *2102:A1 0
16 *216:12 *2261:CLK 0.00052604
17 *216:12 *259:18 0.00220868
18 *216:12 *333:61 4.96056e-05
19 *216:12 *335:54 0
*RES
1 *2224:Z *216:12 16.07 
2 *216:12 *2225:B 7.8391 
3 *216:12 *2226:A3 6.60101 
*END

*D_NET *217 0.00230326
*CONN
*I *2227:A2 I *D gf180mcu_fd_sc_mcu7t5v0__nor3_1
*I *2225:ZN O *D gf180mcu_fd_sc_mcu7t5v0__aoi21_1
*CAP
1 *2227:A2 0.000405375
2 *2225:ZN 0.000405375
3 *2227:A2 *2221:A1 0
4 *2227:A2 *2222:A1 5.48789e-05
5 *2227:A2 *2227:A3 6.77516e-05
6 *2227:A2 *333:57 0.000185279
7 *2227:A2 *333:81 2.09673e-05
8 *2225:B *2227:A2 0.00116364
*RES
1 *2225:ZN *2227:A2 11.9902 
*END

*D_NET *218 0.00230989
*CONN
*I *2227:A3 I *D gf180mcu_fd_sc_mcu7t5v0__nor3_1
*I *2226:Z O *D gf180mcu_fd_sc_mcu7t5v0__and3_1
*CAP
1 *2227:A3 0.000515829
2 *2226:Z 0.000515829
3 *2227:A3 *335:43 4.39031e-05
4 *2225:B *2227:A3 0.000508137
5 *2226:A3 *2227:A3 0.000440385
6 *2227:A2 *2227:A3 6.77516e-05
7 *2261:D *2227:A3 0.000218059
*RES
1 *2226:Z *2227:A3 12.2566 
*END

*D_NET *219 0.00410371
*CONN
*I *2230:A3 I *D gf180mcu_fd_sc_mcu7t5v0__and3_1
*I *2229:B I *D gf180mcu_fd_sc_mcu7t5v0__aoi21_1
*I *2228:Z O *D gf180mcu_fd_sc_mcu7t5v0__xor2_1
*CAP
1 *2230:A3 3.08542e-05
2 *2229:B 0.00026818
3 *2228:Z 0.000418754
4 *219:10 0.000717789
5 *2229:B *2103:A1 1.98235e-05
6 *2229:B *2103:B1 9.73157e-06
7 *2229:B *2103:B2 0
8 *2229:B *2230:A1 4.38949e-05
9 *2229:B *2230:A2 6.77516e-05
10 *2229:B *298:22 3.9647e-05
11 *2229:B *333:32 4.38949e-05
12 *2229:B *333:39 7.50462e-05
13 *2230:A3 *2230:A1 4.2479e-06
14 *2230:A3 *298:22 0.000349069
15 *219:10 *2103:A1 2.86383e-05
16 *219:10 *2103:B1 4.71557e-05
17 *219:10 *2231:A1 0
18 *219:10 *298:12 0.000116356
19 *219:10 *298:22 0.00165367
20 *2105:A2 *2229:B 0
21 *2105:A2 *219:10 0.000169208
*RES
1 *2228:Z *219:10 7.49769 
2 *219:10 *2229:B 6.60101 
3 *219:10 *2230:A3 4.81515 
*END

*D_NET *220 0.00714716
*CONN
*I *2231:A2 I *D gf180mcu_fd_sc_mcu7t5v0__nor3_1
*I *2229:ZN O *D gf180mcu_fd_sc_mcu7t5v0__aoi21_1
*CAP
1 *2231:A2 0.000779127
2 *2229:ZN 0.000779127
3 *2231:A2 *2103:A1 0
4 *2231:A2 *2229:A2 0.00199847
5 *2231:A2 *290:74 0.000698137
6 *2231:A2 *298:12 0
7 *2231:A2 *333:26 0.00189334
8 *2231:A2 *333:32 0.000490358
9 *2231:A2 *333:39 9.14228e-05
10 *2231:A2 *333:43 0.000315545
11 *2260:D *2231:A2 0.000101627
*RES
1 *2229:ZN *2231:A2 23.1475 
*END

*D_NET *221 0.000539198
*CONN
*I *2231:A3 I *D gf180mcu_fd_sc_mcu7t5v0__nor3_1
*I *2230:Z O *D gf180mcu_fd_sc_mcu7t5v0__and3_1
*CAP
1 *2231:A3 0.000232704
2 *2230:Z 0.000232704
3 *2231:A3 *2231:A1 1.43191e-05
4 *2231:A3 *298:22 0
5 *2260:D *2231:A3 5.94706e-05
*RES
1 *2230:Z *2231:A3 10.4651 
*END

*D_NET *222 0.0111342
*CONN
*I *2233:B I *D gf180mcu_fd_sc_mcu7t5v0__aoi21_1
*I *2234:A3 I *D gf180mcu_fd_sc_mcu7t5v0__and3_1
*I *2232:Z O *D gf180mcu_fd_sc_mcu7t5v0__xor2_1
*CAP
1 *2233:B 3.1296e-05
2 *2234:A3 0.000557526
3 *2232:Z 0.00099883
4 *222:10 0.00158765
5 *2233:B *2233:A1 6.04925e-05
6 *2234:A3 *2234:A1 0.000297353
7 *2234:A3 *2234:A2 0.00151263
8 *2234:A3 *297:33 9.73157e-06
9 *2234:A3 *300:28 0.00199849
10 *222:10 *2106:A1 0.00232712
11 *222:10 *2106:B2 1.43191e-05
12 *222:10 *2232:A1 0.000581781
13 *222:10 *2233:A1 0
14 *222:10 *297:33 0
15 *222:10 *300:28 0.00115703
*RES
1 *2232:Z *222:10 14.9879 
2 *222:10 *2234:A3 12.5717 
3 *222:10 *2233:B 9.18759 
*END

*D_NET *223 0.00154307
*CONN
*I *2235:A2 I *D gf180mcu_fd_sc_mcu7t5v0__nor3_1
*I *2233:ZN O *D gf180mcu_fd_sc_mcu7t5v0__aoi21_1
*CAP
1 *2235:A2 0.000445568
2 *2233:ZN 0.000445568
3 *2235:A2 *2234:A2 7.03793e-05
4 *2235:A2 *2235:A3 0.000304882
5 *2235:A2 *2259:CLK 0.000128244
6 *2235:A2 *297:33 3.38758e-05
7 *2259:D *2235:A2 0.000114553
*RES
1 *2233:ZN *2235:A2 11.8926 
*END

*D_NET *224 0.000888599
*CONN
*I *2235:A3 I *D gf180mcu_fd_sc_mcu7t5v0__nor3_1
*I *2234:Z O *D gf180mcu_fd_sc_mcu7t5v0__and3_1
*CAP
1 *2235:A3 0.000268331
2 *2234:Z 0.000268331
3 *2235:A3 *2234:A2 1.43191e-05
4 *2235:A3 *2235:A1 2.78712e-05
5 *2235:A2 *2235:A3 0.000304882
6 *2259:D *2235:A3 4.86578e-06
*RES
1 *2234:Z *2235:A3 10.6752 
*END

*D_NET *225 0.00907286
*CONN
*I *2237:B I *D gf180mcu_fd_sc_mcu7t5v0__aoi21_1
*I *2238:A3 I *D gf180mcu_fd_sc_mcu7t5v0__and3_1
*I *2236:Z O *D gf180mcu_fd_sc_mcu7t5v0__xor2_1
*CAP
1 *2237:B 0.00039376
2 *2238:A3 0
3 *2236:Z 0.00125932
4 *225:18 0.00165307
5 *2237:B *2109:A2 9.90822e-05
6 *2237:B *2237:A1 0.000691879
7 *2237:B *2238:A1 1.55756e-05
8 *2237:B *2238:A2 0.000349069
9 *2237:B *2239:A1 2.32863e-05
10 *2237:B *2239:A2 0.000137827
11 *2237:B *296:12 0.000210363
12 *2237:B *296:16 0.000175302
13 *2237:B *298:12 0.00115702
14 *225:18 *2109:A2 0.000541258
15 *225:18 *2113:A2 0
16 *225:18 *2237:A1 0.000581573
17 *225:18 *2238:A1 9.91176e-05
18 *225:18 *291:69 0
19 *225:18 *291:90 0
20 *225:18 *298:12 0.000357618
21 *225:18 *333:12 0.000177494
22 *225:18 *333:14 3.54988e-05
23 *2258:D *2237:B 3.38758e-05
24 *2258:D *225:18 0.00108087
*RES
1 *2236:Z *225:18 21.2662 
2 *225:18 *2238:A3 4.5 
3 *225:18 *2237:B 16.4189 
*END

*D_NET *226 0.00288325
*CONN
*I *2239:A2 I *D gf180mcu_fd_sc_mcu7t5v0__nor3_1
*I *2237:ZN O *D gf180mcu_fd_sc_mcu7t5v0__aoi21_1
*CAP
1 *2239:A2 0.000487282
2 *2237:ZN 0.000487282
3 *2239:A2 *2237:A1 5.20236e-05
4 *2239:A2 *2239:A1 0.000372634
5 *2239:A2 *2292:CLK 0
6 *2239:A2 *296:12 0.001157
7 *2237:B *2239:A2 0.000137827
8 *2258:D *2239:A2 0.000189203
*RES
1 *2237:ZN *2239:A2 20.9977 
*END

*D_NET *227 0.000756082
*CONN
*I *2239:A3 I *D gf180mcu_fd_sc_mcu7t5v0__nor3_1
*I *2238:Z O *D gf180mcu_fd_sc_mcu7t5v0__and3_1
*CAP
1 *2239:A3 0.000120191
2 *2238:Z 0.000120191
3 *2239:A3 *2109:A2 5.65094e-05
4 *2258:D *2239:A3 0.000459191
*RES
1 *2238:Z *2239:A3 10.0449 
*END

*D_NET *228 0.00652728
*CONN
*I *2241:B I *D gf180mcu_fd_sc_mcu7t5v0__aoi21_1
*I *2242:A3 I *D gf180mcu_fd_sc_mcu7t5v0__and3_1
*I *2240:Z O *D gf180mcu_fd_sc_mcu7t5v0__xor2_1
*CAP
1 *2241:B 0.000515253
2 *2242:A3 0
3 *2240:Z 0.000293097
4 *228:10 0.00080835
5 *2241:B *2241:A1 6.04925e-05
6 *2241:B *2243:A1 0
7 *2241:B *325:14 1.95996e-05
8 *2241:B *326:14 0.00105199
9 *2241:B *326:16 0.00136715
10 *228:10 *2112:A2 0.00136759
11 *228:10 *2243:A1 0
12 *228:10 *286:10 0.000315598
13 *228:10 *304:16 0.000401013
14 *228:10 *326:16 0.000210399
15 *228:10 *337:14 0.000116751
*RES
1 *2240:Z *228:10 10.9378 
2 *228:10 *2242:A3 9 
3 *228:10 *2241:B 11.6037 
*END

*D_NET *229 0.00179666
*CONN
*I *2243:A2 I *D gf180mcu_fd_sc_mcu7t5v0__nor3_1
*I *2241:ZN O *D gf180mcu_fd_sc_mcu7t5v0__aoi21_1
*CAP
1 *2243:A2 0.000387171
2 *2241:ZN 0.000387171
3 *2243:A2 *2241:A1 0.000556848
4 *2243:A2 *2241:A2 0.000128244
5 *2243:A2 *2243:A1 6.77516e-05
6 *2243:A2 *2243:A3 0.000145133
7 *2243:A2 *303:16 5.27508e-05
8 *2243:A2 *325:14 0
9 *2257:D *2243:A2 7.15956e-05
*RES
1 *2241:ZN *2243:A2 11.9414 
*END

*D_NET *230 0.00202372
*CONN
*I *2243:A3 I *D gf180mcu_fd_sc_mcu7t5v0__nor3_1
*I *2242:Z O *D gf180mcu_fd_sc_mcu7t5v0__and3_1
*CAP
1 *2243:A3 0.000194289
2 *2242:Z 0.000194289
3 *2243:A3 *303:16 0.00149001
4 *2243:A2 *2243:A3 0.000145133
*RES
1 *2242:Z *2243:A3 10.6433 
*END

*D_NET *231 0.00837435
*CONN
*I *2246:A3 I *D gf180mcu_fd_sc_mcu7t5v0__and3_1
*I *2245:B I *D gf180mcu_fd_sc_mcu7t5v0__aoi21_1
*I *2244:Z O *D gf180mcu_fd_sc_mcu7t5v0__xor2_1
*CAP
1 *2246:A3 0.000262752
2 *2245:B 0.000211964
3 *2244:Z 0.000353204
4 *231:10 0.00082792
5 *2245:B *2115:A1 3.38758e-05
6 *2245:B *2245:A1 6.04925e-05
7 *2245:B *2247:A2 0.000280484
8 *2245:B *295:16 0.00283997
9 *2245:B *320:20 6.04925e-05
10 *2245:B *369:107 0.00199847
11 *2246:A3 *2247:A3 0.000440385
12 *2246:A3 *2256:CLK 0.000195935
13 *2246:A3 *294:37 0.000158588
14 *2246:A3 *331:27 0
15 *231:10 *2117:A1 5.48789e-05
16 *231:10 *2244:A1 6.19546e-05
17 *231:10 *2244:A2 0
18 *231:10 *2247:A3 0.000472446
19 *231:10 *301:14 0
20 *231:10 *331:36 0
21 *231:10 *366:6 0
22 *2256:D *231:10 6.05325e-05
*RES
1 *2244:Z *231:10 6.96493 
2 *231:10 *2245:B 16.524 
3 *231:10 *2246:A3 6.07576 
*END

*D_NET *232 0.00849287
*CONN
*I *2247:A2 I *D gf180mcu_fd_sc_mcu7t5v0__nor3_1
*I *2245:ZN O *D gf180mcu_fd_sc_mcu7t5v0__aoi21_1
*CAP
1 *2247:A2 0.000781382
2 *2245:ZN 0.000781382
3 *2247:A2 *2117:A1 0
4 *2247:A2 *2247:A3 5.72765e-05
5 *2247:A2 *294:31 0.00283994
6 *2247:A2 *295:16 0.000252436
7 *2247:A2 *302:20 0.000245424
8 *2247:A2 *320:20 3.52864e-05
9 *2247:A2 *325:16 4.88508e-05
10 *2247:A2 *331:27 0.000423823
11 *2247:A2 *369:107 0.00241919
12 *2245:B *2247:A2 0.000280484
13 *2256:D *2247:A2 0.0003274
*RES
1 *2245:ZN *2247:A2 24.9821 
*END

*D_NET *233 0.00344668
*CONN
*I *2247:A3 I *D gf180mcu_fd_sc_mcu7t5v0__nor3_1
*I *2246:Z O *D gf180mcu_fd_sc_mcu7t5v0__and3_1
*CAP
1 *2247:A3 0.00040258
2 *2246:Z 0.00040258
3 *2247:A3 *331:27 3.89263e-05
4 *2246:A3 *2247:A3 0.000440385
5 *2247:A2 *2247:A3 5.72765e-05
6 *2256:D *2247:A3 0.00163248
7 *231:10 *2247:A3 0.000472446
*RES
1 *2246:Z *2247:A3 12.1459 
*END

*D_NET *234 0.00590922
*CONN
*I *2034:A3 I *D gf180mcu_fd_sc_mcu7t5v0__and3_1
*I *2033:B I *D gf180mcu_fd_sc_mcu7t5v0__aoi21_1
*I *2032:Z O *D gf180mcu_fd_sc_mcu7t5v0__xor2_1
*CAP
1 *2034:A3 0
2 *2033:B 0.000225801
3 *2032:Z 0.000379626
4 *234:14 0.000605427
5 *2033:B *2033:A1 0.000142973
6 *2033:B *2034:A2 0.000101627
7 *2033:B *2035:A2 0.000643905
8 *2033:B *306:18 5.94706e-05
9 *2033:B *310:18 0.000934285
10 *2033:B *365:20 8.34797e-05
11 *234:14 *2032:A1 0.000349068
12 *234:14 *2175:A2 0
13 *234:14 *306:18 1.98235e-05
14 *234:14 *310:18 0.00221035
15 *234:14 *324:12 7.6695e-05
16 *234:14 *330:12 7.6695e-05
*RES
1 *2032:Z *234:14 16.0212 
2 *234:14 *2033:B 6.5785 
3 *234:14 *2034:A3 4.5 
*END

*D_NET *235 0.00472245
*CONN
*I *2035:A2 I *D gf180mcu_fd_sc_mcu7t5v0__nor3_1
*I *2033:ZN O *D gf180mcu_fd_sc_mcu7t5v0__aoi21_1
*CAP
1 *2035:A2 0.000498884
2 *2033:ZN 0.000498884
3 *2035:A2 *2033:A1 1.5339e-05
4 *2035:A2 *2035:A3 0.000226479
5 *2035:A2 *2175:A2 0.000516656
6 *2035:A2 *306:18 6.76911e-05
7 *2035:A2 *310:18 5.51199e-05
8 *2035:A2 *324:12 0.00178809
9 *2035:A2 *365:20 0.000411401
10 *2033:B *2035:A2 0.000643905
*RES
1 *2033:ZN *2035:A2 21.5229 
*END

*D_NET *236 0.00051034
*CONN
*I *2035:A3 I *D gf180mcu_fd_sc_mcu7t5v0__nor3_1
*I *2034:Z O *D gf180mcu_fd_sc_mcu7t5v0__and3_1
*CAP
1 *2035:A3 0.000103855
2 *2034:Z 0.000103855
3 *2035:A3 *2175:A2 3.28366e-05
4 *2035:A3 *310:18 4.33151e-05
5 *2035:A2 *2035:A3 0.000226479
*RES
1 *2034:Z *2035:A3 10.0449 
*END

*D_NET *237 0.0062187
*CONN
*I *2038:A3 I *D gf180mcu_fd_sc_mcu7t5v0__and3_1
*I *2037:B I *D gf180mcu_fd_sc_mcu7t5v0__aoi21_1
*I *2036:Z O *D gf180mcu_fd_sc_mcu7t5v0__xor2_1
*CAP
1 *2038:A3 0.000235976
2 *2037:B 0.000364171
3 *2036:Z 0.00028033
4 *237:6 0.000880478
5 *2037:B *2037:A1 1.93576e-05
6 *2037:B *2039:A3 1.73875e-05
7 *2037:B *2160:A1 0.000525921
8 *2037:B *369:518 0.00157774
9 *2038:A3 *2038:A2 0.00106614
10 *2038:A3 *2039:A3 0.000130738
11 *237:6 *2037:A2 8.28208e-05
12 *237:6 *2038:A2 0.000814286
13 *237:6 *2039:A3 3.52793e-05
14 *237:6 *295:106 0.000188071
*RES
1 *2036:Z *237:6 5.81876 
2 *237:6 *2037:B 15.6835 
3 *237:6 *2038:A3 6.28586 
*END

*D_NET *238 0.00182129
*CONN
*I *2039:A2 I *D gf180mcu_fd_sc_mcu7t5v0__nor3_1
*I *2037:ZN O *D gf180mcu_fd_sc_mcu7t5v0__aoi21_1
*CAP
1 *2039:A2 0.000281859
2 *2037:ZN 0.000281859
3 *2039:A2 *2039:A1 0.000138729
4 *2039:A2 *2039:A3 0.00111884
5 *2039:A2 *295:106 0
*RES
1 *2037:ZN *2039:A2 11.0522 
*END

*D_NET *239 0.00335855
*CONN
*I *2039:A3 I *D gf180mcu_fd_sc_mcu7t5v0__nor3_1
*I *2038:Z O *D gf180mcu_fd_sc_mcu7t5v0__and3_1
*CAP
1 *2039:A3 0.000661406
2 *2038:Z 0.000661406
3 *2039:A3 *2037:A1 6.04925e-05
4 *2039:A3 *2037:A2 0.000672996
5 *2039:A3 *295:106 0
6 *2037:B *2039:A3 1.73875e-05
7 *2038:A3 *2039:A3 0.000130738
8 *2039:A2 *2039:A3 0.00111884
9 *237:6 *2039:A3 3.52793e-05
*RES
1 *2038:Z *2039:A3 12.5717 
*END

*D_NET *240 0.00831999
*CONN
*I *2041:B I *D gf180mcu_fd_sc_mcu7t5v0__aoi21_1
*I *2042:A3 I *D gf180mcu_fd_sc_mcu7t5v0__and3_1
*I *2040:Z O *D gf180mcu_fd_sc_mcu7t5v0__xor2_1
*CAP
1 *2041:B 0.000175789
2 *2042:A3 0.000141502
3 *2040:Z 0.000610168
4 *240:10 0.000927459
5 *2041:B *2043:A2 0.000129225
6 *2041:B *2043:A3 0.000116356
7 *2041:B *311:30 0.000414054
8 *2041:B *369:222 9.13899e-05
9 *2041:B *369:226 3.38758e-05
10 *2042:A3 *2043:A2 5.94706e-05
11 *2042:A3 *362:12 7.6695e-05
12 *240:10 *2124:B1 0.00058178
13 *240:10 *2125:A2 6.77516e-05
14 *240:10 *282:16 0.00139606
15 *240:10 *293:96 0
16 *240:10 *293:107 0
17 *240:10 *311:30 0.00341689
18 *240:10 *330:67 3.54988e-05
19 *240:10 *362:12 4.6017e-05
*RES
1 *2040:Z *240:10 13.097 
2 *240:10 *2042:A3 9.8404 
3 *240:10 *2041:B 10.8684 
*END

*D_NET *241 0.00574203
*CONN
*I *2043:A2 I *D gf180mcu_fd_sc_mcu7t5v0__nor3_1
*I *2041:ZN O *D gf180mcu_fd_sc_mcu7t5v0__aoi21_1
*CAP
1 *2043:A2 0.000672747
2 *2041:ZN 0.000672747
3 *2043:A2 *2042:A2 2.86383e-05
4 *2043:A2 *2043:A1 0.000336965
5 *2043:A2 *2043:A3 0.00147652
6 *2043:A2 *322:22 0.000542013
7 *2043:A2 *369:212 0.000232712
8 *2043:A2 *369:222 0.001591
9 *2041:B *2043:A2 0.000129225
10 *2042:A3 *2043:A2 5.94706e-05
*RES
1 *2041:ZN *2043:A2 14.2037 
*END

*D_NET *242 0.00650845
*CONN
*I *2043:A3 I *D gf180mcu_fd_sc_mcu7t5v0__nor3_1
*I *2042:Z O *D gf180mcu_fd_sc_mcu7t5v0__and3_1
*CAP
1 *2043:A3 0.000700675
2 *2042:Z 0.000700675
3 *2043:A3 *2040:A2 9.91176e-05
4 *2043:A3 *2043:A1 6.77516e-05
5 *2043:A3 *2124:A1 0.000273473
6 *2043:A3 *282:16 0
7 *2043:A3 *311:30 0.000101627
8 *2043:A3 *322:22 0.00139606
9 *2043:A3 *330:67 7.0121e-05
10 *2041:B *2043:A3 0.000116356
11 *2043:A2 *2043:A3 0.00147652
12 *2253:D *2043:A3 0.00150608
*RES
1 *2042:Z *2043:A3 22.8323 
*END

*D_NET *243 0.00972112
*CONN
*I *2045:B I *D gf180mcu_fd_sc_mcu7t5v0__aoi21_1
*I *2046:A3 I *D gf180mcu_fd_sc_mcu7t5v0__and3_1
*I *2044:Z O *D gf180mcu_fd_sc_mcu7t5v0__xor2_1
*CAP
1 *2045:B 0
2 *2046:A3 0.000643503
3 *2044:Z 0.00047293
4 *243:10 0.00111643
5 *2046:A3 *2046:A2 0.000244793
6 *2046:A3 *2047:A3 3.9647e-05
7 *2046:A3 *2127:A2 0.00105183
8 *2046:A3 *2175:A2 0.000257646
9 *2046:A3 *292:38 0.00159525
10 *2046:A3 *321:41 0.00199847
11 *2046:A3 *361:10 0.000350605
12 *2046:A3 *369:273 0
13 *2046:A3 *369:277 0
14 *243:10 *2044:A2 0.000814491
15 *243:10 *2175:A2 0.000885689
16 *2285:D *243:10 0.000249818
*RES
1 *2044:Z *243:10 8.3062 
2 *243:10 *2046:A3 18.1447 
3 *243:10 *2045:B 4.5 
*END

*D_NET *244 0.00272609
*CONN
*I *2047:A2 I *D gf180mcu_fd_sc_mcu7t5v0__nor3_1
*I *2045:ZN O *D gf180mcu_fd_sc_mcu7t5v0__aoi21_1
*CAP
1 *2047:A2 0.000618612
2 *2045:ZN 0.000618612
3 *2047:A2 *2047:A3 0.000225262
4 *2047:A2 *2127:A2 0.000175302
5 *2047:A2 *2175:A2 5.19631e-05
6 *2047:A2 *310:18 2.19645e-05
7 *2047:A2 *321:24 0.000218059
8 *2047:A2 *321:41 0.000666149
9 *2047:A2 *331:53 3.54988e-05
10 *2047:A2 *331:72 9.46635e-05
*RES
1 *2045:ZN *2047:A2 22.2583 
*END

*D_NET *245 0.0031054
*CONN
*I *2047:A3 I *D gf180mcu_fd_sc_mcu7t5v0__nor3_1
*I *2046:Z O *D gf180mcu_fd_sc_mcu7t5v0__and3_1
*CAP
1 *2047:A3 0.000669347
2 *2046:Z 0.000669347
3 *2047:A3 *2047:A1 6.77516e-05
4 *2047:A3 *292:38 0.000304822
5 *2047:A3 *310:18 5.72765e-05
6 *2047:A3 *321:24 0.000157423
7 *2047:A3 *331:72 0.000914526
8 *2046:A3 *2047:A3 3.9647e-05
9 *2047:A2 *2047:A3 0.000225262
*RES
1 *2046:Z *2047:A3 14.0424 
*END

*D_NET *246 0.00601152
*CONN
*I *2049:B I *D gf180mcu_fd_sc_mcu7t5v0__aoi21_1
*I *2050:A3 I *D gf180mcu_fd_sc_mcu7t5v0__and3_1
*I *2048:Z O *D gf180mcu_fd_sc_mcu7t5v0__xor2_1
*CAP
1 *2049:B 0.000224828
2 *2050:A3 0
3 *2048:Z 0.00067927
4 *246:12 0.000904098
5 *2049:B *2049:A2 7.92941e-05
6 *2049:B *304:16 0.00137134
7 *2049:B *308:26 0.000226038
8 *2049:B *320:28 1.98235e-05
9 *246:12 *2051:A3 0.000525913
10 *246:12 *2130:B1 0.000465425
11 *246:12 *280:16 0.000315545
12 *246:12 *292:23 0.000560968
13 *246:12 *320:28 0.00017355
14 *2132:A2 *246:12 0.000465425
*RES
1 *2048:Z *246:12 17.3869 
2 *246:12 *2050:A3 4.5 
3 *246:12 *2049:B 6.47345 
*END

*D_NET *247 0.00327011
*CONN
*I *2051:A2 I *D gf180mcu_fd_sc_mcu7t5v0__nor3_1
*I *2049:ZN O *D gf180mcu_fd_sc_mcu7t5v0__aoi21_1
*CAP
1 *2051:A2 0.000595752
2 *2049:ZN 0.000595752
3 *2051:A2 *2051:A3 0
4 *2051:A2 *293:14 0.000199352
5 *2051:A2 *304:16 0
6 *2051:A2 *313:20 0.000243425
7 *2051:A2 *328:18 0.00144551
8 *2051:A2 *369:329 0.000178482
9 *2051:A2 *369:350 1.18329e-05
*RES
1 *2049:ZN *2051:A2 21.8381 
*END

*D_NET *248 0.00352207
*CONN
*I *2051:A3 I *D gf180mcu_fd_sc_mcu7t5v0__nor3_1
*I *2050:Z O *D gf180mcu_fd_sc_mcu7t5v0__and3_1
*CAP
1 *2051:A3 0.000770202
2 *2050:Z 0.000770202
3 *2051:A3 *304:16 0.000736377
4 *2051:A3 *313:20 5.56531e-05
5 *2051:A3 *320:28 0
6 *2051:A3 *328:8 1.27437e-05
7 *2051:A3 *328:18 1.98235e-05
8 *2051:A3 *369:350 0.000525975
9 *2051:A2 *2051:A3 0
10 *2251:D *2051:A3 0.000105181
11 *246:12 *2051:A3 0.000525913
*RES
1 *2050:Z *2051:A3 21.4291 
*END

*D_NET *249 0.0133388
*CONN
*I *2053:B I *D gf180mcu_fd_sc_mcu7t5v0__aoi21_1
*I *2054:A3 I *D gf180mcu_fd_sc_mcu7t5v0__and3_1
*I *2052:Z O *D gf180mcu_fd_sc_mcu7t5v0__xor2_1
*CAP
1 *2053:B 0.000128178
2 *2054:A3 0
3 *2052:Z 0.000453781
4 *249:12 0.000581959
5 *2053:B *2053:A1 6.04925e-05
6 *2053:B *2282:CLK 6.04925e-05
7 *2053:B *317:14 0.00105183
8 *2053:B *317:16 0.00136742
9 *2053:B *334:233 0.00189332
10 *2053:B *334:248 0.000525921
11 *249:12 *2052:A2 0
12 *249:12 *2054:A1 0.000232712
13 *249:12 *2143:A2 0.00257564
14 *249:12 *317:16 0.000210373
15 *249:12 *334:173 0.0029089
16 *249:12 *334:177 0.000315545
17 *249:12 *334:233 0.000946666
18 *2145:A2 *249:12 2.55699e-05
*RES
1 *2052:Z *249:12 13.4121 
2 *249:12 *2054:A3 9 
3 *249:12 *2053:B 11.6037 
*END

*D_NET *250 0.00238397
*CONN
*I *2055:A2 I *D gf180mcu_fd_sc_mcu7t5v0__nor3_1
*I *2053:ZN O *D gf180mcu_fd_sc_mcu7t5v0__aoi21_1
*CAP
1 *2055:A2 0.000361268
2 *2053:ZN 0.000361268
3 *2055:A2 *2055:A1 6.77516e-05
4 *2055:A2 *2055:A3 0.000341473
5 *2055:A2 *2250:CLK 3.53992e-05
6 *2055:A2 *2282:CLK 0.000115638
7 *2250:D *2055:A2 0.00110117
*RES
1 *2053:ZN *2055:A2 12.1027 
*END

*D_NET *251 0.00186971
*CONN
*I *2055:A3 I *D gf180mcu_fd_sc_mcu7t5v0__nor3_1
*I *2054:Z O *D gf180mcu_fd_sc_mcu7t5v0__and3_1
*CAP
1 *2055:A3 0.000468424
2 *2054:Z 0.000468424
3 *2055:A3 *2053:A1 1.09758e-05
4 *2055:A3 *2250:CLK 0.000580413
5 *2055:A3 *334:173 0
6 *2055:A2 *2055:A3 0.000341473
*RES
1 *2054:Z *2055:A3 11.8364 
*END

*D_NET *252 0.00486036
*CONN
*I *2058:A3 I *D gf180mcu_fd_sc_mcu7t5v0__and3_1
*I *2057:B I *D gf180mcu_fd_sc_mcu7t5v0__aoi21_1
*I *2056:Z O *D gf180mcu_fd_sc_mcu7t5v0__xor2_1
*CAP
1 *2058:A3 0.000325826
2 *2057:B 0.000294841
3 *2056:Z 0.000127513
4 *252:6 0.00074818
5 *2057:B *2057:A1 3.38758e-05
6 *2057:B *2059:A2 0.000525777
7 *2057:B *2059:A3 1.45137e-05
8 *2057:B *305:34 1.55756e-05
9 *2057:B *306:20 0.00105169
10 *2057:B *306:22 0.000525911
11 *2058:A3 *2057:A2 0.000207779
12 *2058:A3 *2058:A2 0.000384116
13 *2058:A3 *2146:A2 4.86578e-06
14 *2058:A3 *305:34 0.00033218
15 *252:6 *2146:A2 0.000115834
16 *252:6 *305:34 0.000136799
17 *2249:D *2057:B 1.50862e-05
*RES
1 *2056:Z *252:6 5.60866 
2 *252:6 *2057:B 15.2633 
3 *252:6 *2058:A3 6.81111 
*END

*D_NET *253 0.00271415
*CONN
*I *2059:A2 I *D gf180mcu_fd_sc_mcu7t5v0__nor3_1
*I *2057:ZN O *D gf180mcu_fd_sc_mcu7t5v0__aoi21_1
*CAP
1 *2059:A2 0.000568716
2 *2057:ZN 0.000568716
3 *2059:A2 *305:34 0.000286734
4 *2059:A2 *306:20 0.000490847
5 *2059:A2 *313:20 9.91176e-05
6 *2057:B *2059:A2 0.000525777
7 *2249:D *2059:A2 0.000174245
*RES
1 *2057:ZN *2059:A2 21.3053 
*END

*D_NET *254 0.00244119
*CONN
*I *2059:A3 I *D gf180mcu_fd_sc_mcu7t5v0__nor3_1
*I *2058:Z O *D gf180mcu_fd_sc_mcu7t5v0__and3_1
*CAP
1 *2059:A3 0.000347804
2 *2058:Z 0.000347804
3 *2059:A3 *2057:A1 5.72112e-05
4 *2059:A3 *301:18 0.000107373
5 *2059:A3 *305:16 0.000147255
6 *2059:A3 *305:34 2.91947e-05
7 *2057:B *2059:A3 1.45137e-05
8 *2249:D *2059:A3 0.00139004
*RES
1 *2058:Z *2059:A3 20.4105 
*END

*D_NET *255 0.0133779
*CONN
*I *2139:A1 I *D gf180mcu_fd_sc_mcu7t5v0__nor2_1
*I *2138:A1 I *D gf180mcu_fd_sc_mcu7t5v0__nand2_1
*I *2140:A1 I *D gf180mcu_fd_sc_mcu7t5v0__xor3_1
*I *2281:Q O *D gf180mcu_fd_sc_mcu7t5v0__dffq_1
*CAP
1 *2139:A1 0
2 *2138:A1 0.000583319
3 *2140:A1 0.000275458
4 *2281:Q 0.000200034
5 *255:23 0.00101509
6 *255:8 0.000907258
7 *2138:A1 *2140:A2 5.72765e-05
8 *2138:A1 *296:12 0
9 *2138:A1 *303:16 0.000581781
10 *2138:A1 *325:14 0.000153661
11 *2138:A1 *337:31 0.000893782
12 *2138:A1 *369:67 7.16273e-05
13 *2140:A1 *2140:A2 0.000465425
14 *2140:A1 *2281:CLK 0.000736272
15 *2140:A1 *325:14 0.000107373
16 *255:8 *2281:CLK 0.0019985
17 *255:8 *294:65 0.000210366
18 *255:8 *309:12 0.000118329
19 *255:8 *325:14 0.00015339
20 *255:23 *2140:A2 2.86383e-05
21 *255:23 *325:14 0.000197544
22 *2140:A3 *2140:A1 0.00151263
23 *2149:A2 *2138:A1 0.000159313
24 *2149:A2 *2140:A1 0.000240975
25 *2149:B *2140:A1 3.38758e-05
26 *2149:B *255:23 0.00267598
27 *2347:I *255:23 0
*RES
1 *2281:Q *255:8 11.2061 
2 *255:8 *2140:A1 11.2061 
3 *255:8 *255:23 7.23131 
4 *255:23 *2138:A1 17.6607 
5 *255:23 *2139:A1 4.5 
*END

*D_NET *256 0.00546458
*CONN
*I *2236:A1 I *D gf180mcu_fd_sc_mcu7t5v0__xor2_1
*I *2109:B1 I *D gf180mcu_fd_sc_mcu7t5v0__aoi22_1
*I *2110:A1 I *D gf180mcu_fd_sc_mcu7t5v0__nor2_1
*I *2291:Q O *D gf180mcu_fd_sc_mcu7t5v0__dffq_1
*CAP
1 *2236:A1 0.000411181
2 *2109:B1 0.000248738
3 *2110:A1 0
4 *2291:Q 0.000852782
5 *256:15 0.000758988
6 *256:8 0.00095185
7 *2109:B1 *2109:A1 0.000101627
8 *2109:B1 *2110:A2 0.000180355
9 *2236:A1 *2109:A1 0.000108886
10 *2236:A1 *2109:A2 0.0017202
11 *256:15 *2110:A2 6.58547e-05
12 *2111:A3 *256:8 6.41221e-05
*RES
1 *2291:Q *256:8 8.38686 
2 *256:8 *2110:A1 4.5 
3 *256:8 *256:15 0.840403 
4 *256:15 *2109:B1 5.97071 
5 *256:15 *2236:A1 7.12626 
*END

*D_NET *257 0.00614948
*CONN
*I *2232:A1 I *D gf180mcu_fd_sc_mcu7t5v0__xor2_1
*I *2106:B1 I *D gf180mcu_fd_sc_mcu7t5v0__aoi22_1
*I *2107:A1 I *D gf180mcu_fd_sc_mcu7t5v0__nor2_1
*I *2292:Q O *D gf180mcu_fd_sc_mcu7t5v0__dffq_1
*CAP
1 *2232:A1 0.000137184
2 *2106:B1 2.81848e-05
3 *2107:A1 0.00020688
4 *2292:Q 0.000811587
5 *257:25 0.000218851
6 *257:10 0.00107195
7 *2107:A1 *2106:B2 3.38758e-05
8 *2107:A1 *297:33 0.00122476
9 *2107:A1 *298:12 5.78499e-05
10 *2232:A1 *2106:A1 0.000237131
11 *2232:A1 *2106:B2 0.000237882
12 *257:10 *2237:A2 6.04925e-05
13 *257:10 *2292:CLK 0
14 *257:10 *297:33 0.000946666
15 *257:10 *298:12 0.000220882
16 *257:25 *2106:A1 3.38758e-05
17 *257:25 *2106:B2 3.9647e-05
18 *222:10 *2232:A1 0.000581781
*RES
1 *2292:Q *257:10 14.8828 
2 *257:10 *2107:A1 10.3657 
3 *257:10 *257:25 4.81515 
4 *257:25 *2106:B1 4.7101 
5 *257:25 *2232:A1 5.7606 
*END

*D_NET *258 0.00710733
*CONN
*I *2228:A1 I *D gf180mcu_fd_sc_mcu7t5v0__xor2_1
*I *2103:B1 I *D gf180mcu_fd_sc_mcu7t5v0__aoi22_1
*I *2104:A1 I *D gf180mcu_fd_sc_mcu7t5v0__nor2_1
*I *2293:Q O *D gf180mcu_fd_sc_mcu7t5v0__dffq_1
*CAP
1 *2228:A1 0
2 *2103:B1 0.000209057
3 *2104:A1 0.000405685
4 *2293:Q 0.000341264
5 *258:23 0.000370242
6 *258:8 0.000908134
7 *2103:B1 *2103:A1 0
8 *2103:B1 *2103:B2 0.00040651
9 *2104:A1 *2104:A2 0
10 *2104:A1 *2293:CLK 4.15512e-05
11 *2104:A1 *299:10 0.000189327
12 *2104:A1 *335:43 3.15545e-05
13 *2104:A1 *340:12 3.54988e-05
14 *258:8 *2231:A1 0.000110441
15 *258:8 *299:10 0.0006942
16 *258:8 *335:43 4.20727e-05
17 *258:23 *2103:B2 3.38758e-05
18 *258:23 *2293:CLK 0
19 *2105:A2 *2103:B1 0.00139627
20 *2105:A2 *2104:A1 6.58547e-05
21 *2105:A2 *258:23 0.00139627
22 *2229:B *2103:B1 9.73157e-06
23 *2293:D *2104:A1 0.000372634
24 *219:10 *2103:B1 4.71557e-05
*RES
1 *2293:Q *258:8 12.4667 
2 *258:8 *2104:A1 11.8364 
3 *258:8 *258:23 5.7606 
4 *258:23 *2103:B1 6.39091 
5 *258:23 *2228:A1 4.5 
*END

*D_NET *259 0.0108422
*CONN
*I *2100:B1 I *D gf180mcu_fd_sc_mcu7t5v0__aoi22_1
*I *2101:A1 I *D gf180mcu_fd_sc_mcu7t5v0__nor2_1
*I *2224:A1 I *D gf180mcu_fd_sc_mcu7t5v0__xor2_1
*I *2294:Q O *D gf180mcu_fd_sc_mcu7t5v0__dffq_1
*CAP
1 *2100:B1 2.81848e-05
2 *2101:A1 0.000210799
3 *2224:A1 4.92632e-05
4 *2294:Q 0.00104174
5 *259:27 0.000442916
6 *259:18 0.00129493
7 *2101:A1 *2100:B2 1.55756e-05
8 *2101:A1 *2101:A2 0.000245423
9 *2224:A1 *2224:A2 0.000116356
10 *259:18 *2102:A1 0
11 *259:18 *2261:CLK 4.59896e-05
12 *259:18 *335:54 0.000105181
13 *259:18 *341:16 0.00252425
14 *259:18 *341:22 0.000315545
15 *259:27 *2100:A1 6.37185e-05
16 *259:27 *2100:B2 0.000440491
17 *259:27 *2224:A2 0.000349069
18 *259:27 *341:22 0.001047
19 *2102:A2 *2101:A1 2.36659e-05
20 *2102:A2 *259:27 0.000263687
21 *2102:A3 *2224:A1 4.86578e-06
22 *2102:A3 *259:27 4.86578e-06
23 *216:12 *259:18 0.00220868
*RES
1 *2294:Q *259:18 27.0172 
2 *259:18 *2224:A1 4.7101 
3 *259:18 *259:27 1.57576 
4 *259:27 *2101:A1 14.6556 
5 *259:27 *2100:B1 4.7101 
*END

*D_NET *260 0.00667246
*CONN
*I *2220:A1 I *D gf180mcu_fd_sc_mcu7t5v0__xor2_1
*I *2097:B1 I *D gf180mcu_fd_sc_mcu7t5v0__aoi22_1
*I *2098:A1 I *D gf180mcu_fd_sc_mcu7t5v0__nor2_1
*I *2295:Q O *D gf180mcu_fd_sc_mcu7t5v0__dffq_1
*CAP
1 *2220:A1 0
2 *2097:B1 0.000148012
3 *2098:A1 0.000162594
4 *2295:Q 0.000196109
5 *260:18 0.00107508
6 *260:6 0.000960579
7 *2097:B1 *2097:A1 2.86383e-05
8 *2097:B1 *2097:B2 0.000207779
9 *2098:A1 *2097:B2 0.000207779
10 *260:6 *2097:A1 0
11 *260:6 *290:70 0.000237811
12 *260:18 *2097:A2 0.000525907
13 *260:18 *290:44 9.90822e-05
14 *260:18 *290:52 0.00091151
15 *260:18 *290:70 1.98235e-05
16 *2099:A2 *2097:B1 0.000349068
17 *2099:A2 *260:18 0.000609764
18 *2099:A3 *2098:A1 0.000217983
19 *2099:A3 *260:18 0.000609764
20 *2295:D *260:18 0.000105182
*RES
1 *2295:Q *260:6 5.7606 
2 *260:6 *260:18 14.7778 
3 *260:18 *2098:A1 6.07576 
4 *260:18 *2097:B1 5.7606 
5 *260:6 *2220:A1 4.5 
*END

*D_NET *261 0.00743648
*CONN
*I *2216:A1 I *D gf180mcu_fd_sc_mcu7t5v0__xor2_1
*I *2094:B1 I *D gf180mcu_fd_sc_mcu7t5v0__aoi22_1
*I *2095:A1 I *D gf180mcu_fd_sc_mcu7t5v0__nor2_1
*I *2296:Q O *D gf180mcu_fd_sc_mcu7t5v0__dffq_1
*CAP
1 *2216:A1 0
2 *2094:B1 0.000195199
3 *2095:A1 0.000215744
4 *2296:Q 0.000380486
5 *261:18 0.000794059
6 *261:12 0.000763601
7 *2094:B1 *2094:A1 7.0121e-05
8 *2094:B1 *2094:A2 0.000525909
9 *2094:B1 *2095:A2 9.73157e-06
10 *2094:B1 *2216:A2 0
11 *2095:A1 *2218:A1 9.43683e-05
12 *2095:A1 *334:187 0.000440385
13 *261:12 *295:14 0.00136741
14 *261:12 *329:73 0.000153828
15 *261:18 *2216:A2 0
16 *261:18 *334:187 0
17 *2096:A2 *2094:B1 6.31091e-05
18 *2096:A3 *2094:B1 0.000315544
19 *2096:A3 *2095:A1 0.0015465
20 *2096:A3 *261:18 0.000272324
21 *2263:D *2094:B1 2.36659e-05
22 *210:6 *2095:A1 1.33277e-05
23 *210:6 *261:18 0.000191159
*RES
1 *2296:Q *261:12 16.1263 
2 *261:12 *261:18 2.10101 
3 *261:18 *2095:A1 6.81111 
4 *261:18 *2094:B1 14.8657 
5 *261:12 *2216:A1 4.5 
*END

*D_NET *262 0.0157346
*CONN
*I *2212:A1 I *D gf180mcu_fd_sc_mcu7t5v0__xor2_1
*I *2091:B1 I *D gf180mcu_fd_sc_mcu7t5v0__aoi22_1
*I *2092:A1 I *D gf180mcu_fd_sc_mcu7t5v0__nor2_1
*I *2297:Q O *D gf180mcu_fd_sc_mcu7t5v0__dffq_1
*CAP
1 *2212:A1 4.34927e-05
2 *2091:B1 0.000552749
3 *2092:A1 0.000326345
4 *2297:Q 0.000630868
5 *262:12 0.00132441
6 *262:10 0.00111968
7 *2091:B1 *2091:A1 0.000326809
8 *2091:B1 *2091:A2 0.000271006
9 *2091:B1 *2091:B2 0.000114553
10 *2091:B1 *2214:A1 0.000120032
11 *2091:B1 *2214:A2 0.000372634
12 *2091:B1 *2297:CLK 4.86578e-05
13 *2092:A1 *2092:A2 0.000175302
14 *2092:A1 *2214:A2 5.91647e-05
15 *2092:A1 *287:13 0
16 *2092:A1 *287:75 1.45974e-05
17 *2092:A1 *329:83 0.000465425
18 *2092:A1 *344:12 0.000245423
19 *2212:A1 *2213:A1 0.000465425
20 *262:10 *344:10 0.00365788
21 *262:10 *344:12 7.0121e-05
22 *262:12 *2214:A2 4.73318e-05
23 *262:12 *302:34 0.000272136
24 *262:12 *334:125 0
25 *2093:A2 *2091:B1 0.000207779
26 *2093:A3 *2092:A1 2.50109e-05
27 *2213:B *2212:A1 0.000116356
28 *2214:A3 *2092:A1 0.000315545
29 *2214:A3 *262:10 0.000315545
30 *2214:A3 *262:12 0.0036813
31 *207:6 *2212:A1 0.000349069
*RES
1 *2297:Q *262:10 14.8828 
2 *262:10 *262:12 3.67676 
3 *262:12 *2092:A1 10.996 
4 *262:12 *2091:B1 12.4667 
5 *262:10 *2212:A1 9.4202 
*END

*D_NET *263 0.00824154
*CONN
*I *2088:B1 I *D gf180mcu_fd_sc_mcu7t5v0__aoi22_1
*I *2208:A1 I *D gf180mcu_fd_sc_mcu7t5v0__xor2_1
*I *2089:A1 I *D gf180mcu_fd_sc_mcu7t5v0__nor2_1
*I *2298:Q O *D gf180mcu_fd_sc_mcu7t5v0__dffq_1
*CAP
1 *2088:B1 0.000302886
2 *2208:A1 2.62267e-05
3 *2089:A1 0.000194506
4 *2298:Q 0
5 *263:10 0.000980049
6 *263:4 0.0010622
7 *2088:B1 *2088:A2 2.71041e-05
8 *2088:B1 *2088:B2 0.000237847
9 *2089:A1 *2089:A2 0.00157777
10 *2089:A1 *288:29 2.19516e-05
11 *263:10 *2088:B2 0.000982398
12 *263:10 *2089:A2 0.000525909
13 *263:10 *345:12 0.000522361
14 *263:10 *345:14 0.0014726
15 *2090:A2 *2088:B1 7.50108e-05
16 *204:10 *2208:A1 0.000232712
*RES
1 *2298:Q *263:4 4.5 
2 *263:4 *263:10 10.1727 
3 *263:10 *2089:A1 10.7859 
4 *263:10 *2208:A1 9.2101 
5 *263:4 *2088:B1 6.39091 
*END

*D_NET *264 0.00707944
*CONN
*I *2204:A1 I *D gf180mcu_fd_sc_mcu7t5v0__xor2_1
*I *2085:B1 I *D gf180mcu_fd_sc_mcu7t5v0__aoi22_1
*I *2086:A1 I *D gf180mcu_fd_sc_mcu7t5v0__nor2_1
*I *2299:Q O *D gf180mcu_fd_sc_mcu7t5v0__dffq_1
*CAP
1 *2204:A1 2.90233e-05
2 *2085:B1 0.000149205
3 *2086:A1 0.000316422
4 *2299:Q 0.00016464
5 *264:19 0.000446613
6 *264:10 0.000749446
7 *2086:A1 *346:33 0.000356788
8 *2204:A1 *2204:A2 3.38758e-05
9 *264:10 *346:33 0.000147255
10 *264:19 *2204:A2 0.000169319
11 *264:19 *346:33 0.000138729
12 *2087:A2 *2085:B1 0.00070121
13 *2087:A3 *2086:A1 0.000131813
14 *2087:A3 *264:10 5.78499e-05
15 *2266:D *2085:B1 0.000631119
16 *2299:D *2085:B1 0.0027348
17 *2299:D *264:10 6.1356e-05
18 *201:6 *2204:A1 2.19516e-05
19 *201:6 *264:19 3.80232e-05
*RES
1 *2299:Q *264:10 14.6556 
2 *264:10 *2086:A1 6.39091 
3 *264:10 *264:19 1.15555 
4 *264:19 *2085:B1 16.2313 
5 *264:19 *2204:A1 4.7101 
*END

*D_NET *265 0.00602723
*CONN
*I *2083:A1 I *D gf180mcu_fd_sc_mcu7t5v0__nor2_1
*I *2082:B1 I *D gf180mcu_fd_sc_mcu7t5v0__aoi22_1
*I *2200:A1 I *D gf180mcu_fd_sc_mcu7t5v0__xor2_1
*I *2300:Q O *D gf180mcu_fd_sc_mcu7t5v0__dffq_1
*CAP
1 *2083:A1 0
2 *2082:B1 0.00040378
3 *2200:A1 0
4 *2300:Q 0.000295362
5 *265:12 0.000780123
6 *265:8 0.000671705
7 *2082:B1 *2082:A1 0.000108887
8 *2082:B1 *2200:A2 0.00095566
9 *2082:B1 *347:8 6.04925e-05
10 *265:12 *2083:A2 0.000412281
11 *265:12 *2084:A1 9.8782e-05
12 *265:12 *2200:A2 6.77516e-05
13 *2084:A2 *2082:B1 0.00206906
14 *2084:A2 *265:12 4.86578e-06
15 *2084:A3 *265:12 3.75231e-05
16 *198:6 *2082:B1 6.09548e-05
*RES
1 *2300:Q *265:8 6.28586 
2 *265:8 *265:12 2.73131 
3 *265:12 *2200:A1 4.5 
4 *265:12 *2082:B1 7.86161 
5 *265:8 *2083:A1 4.5 
*END

*D_NET *266 0.00412124
*CONN
*I *2147:A1 I *D gf180mcu_fd_sc_mcu7t5v0__nor2_1
*I *2056:A1 I *D gf180mcu_fd_sc_mcu7t5v0__xor2_1
*I *2146:B1 I *D gf180mcu_fd_sc_mcu7t5v0__aoi22_1
*I *2282:Q O *D gf180mcu_fd_sc_mcu7t5v0__dffq_1
*CAP
1 *2147:A1 0.000159966
2 *2056:A1 0.000258918
3 *2146:B1 0.000231978
4 *2282:Q 0
5 *266:6 0.000589543
6 *266:4 0.000258613
7 *2056:A1 *2056:A2 2.08534e-06
8 *2056:A1 *2146:A2 0.00172041
9 *2056:A1 *2147:A2 0.000372634
10 *2056:A1 *305:34 0
11 *2056:A1 *348:6 1.564e-05
12 *2146:B1 *2056:A2 3.9647e-05
13 *2146:B1 *2146:A1 2.19516e-05
14 *2146:B1 *348:6 0.000308203
15 *2147:A1 *305:34 0.000128872
16 *266:6 *2147:A2 0
17 *2148:A3 *2056:A1 1.27849e-05
*RES
1 *2282:Q *266:4 4.5 
2 *266:4 *266:6 0.735353 
3 *266:6 *2146:B1 6.60101 
4 *266:6 *2056:A1 7.23131 
5 *266:4 *2147:A1 5.97071 
*END

*D_NET *267 0.00732974
*CONN
*I *2079:B1 I *D gf180mcu_fd_sc_mcu7t5v0__aoi22_1
*I *2080:A1 I *D gf180mcu_fd_sc_mcu7t5v0__nor2_1
*I *2196:A1 I *D gf180mcu_fd_sc_mcu7t5v0__xor2_1
*I *2301:Q O *D gf180mcu_fd_sc_mcu7t5v0__dffq_1
*CAP
1 *2079:B1 0.000158781
2 *2080:A1 0.000272019
3 *2196:A1 0.000691029
4 *2301:Q 0
5 *267:8 0.00104704
6 *267:6 0.000242775
7 *2079:B1 *2079:B2 0.000101627
8 *2079:B1 *307:48 1.222e-05
9 *2079:B1 *328:32 0.000134464
10 *2079:B1 *349:10 3.15545e-05
11 *2079:B1 *369:316 1.64183e-05
12 *2080:A1 *2081:A1 0.00151242
13 *2080:A1 *305:34 0
14 *2080:A1 *313:20 0.000155327
15 *2196:A1 *289:71 0.00115701
16 *2196:A1 *305:34 0.000150002
17 *2196:A1 *328:120 7.88863e-05
18 *2196:A1 *349:10 3.15545e-05
19 *267:8 *349:10 2.10363e-05
20 *2081:A2 *2079:B1 0.000245423
21 *2081:A2 *2080:A1 0.000174245
22 *2081:A2 *2196:A1 0.000105181
23 *2081:A2 *267:8 0.000175302
24 *2081:A3 *2080:A1 0.000215899
25 *2301:D *2196:A1 0.000531209
26 *195:10 *2196:A1 6.83204e-05
*RES
1 *2301:Q *267:6 9 
2 *267:6 *267:8 0.525252 
3 *267:8 *2196:A1 13.3071 
4 *267:8 *2080:A1 11.3111 
5 *267:6 *2079:B1 10.3657 
*END

*D_NET *268 0.00696041
*CONN
*I *2077:A1 I *D gf180mcu_fd_sc_mcu7t5v0__nor2_1
*I *2192:A1 I *D gf180mcu_fd_sc_mcu7t5v0__xor2_1
*I *2076:B1 I *D gf180mcu_fd_sc_mcu7t5v0__aoi22_1
*I *2302:Q O *D gf180mcu_fd_sc_mcu7t5v0__dffq_1
*CAP
1 *2077:A1 4.42548e-05
2 *2192:A1 0.000122681
3 *2076:B1 4.01982e-05
4 *2302:Q 0.000809071
5 *268:16 0.000595895
6 *268:10 0.00128634
7 *2077:A1 *2078:A1 2.19516e-05
8 *2192:A1 *2076:A1 0.00162857
9 *2192:A1 *350:22 0.000440264
10 *268:10 *2192:A2 0
11 *268:10 *2270:CLK 0.000315548
12 *268:16 *2076:A1 0.000116356
13 *268:16 *2077:A2 0.00136744
14 *268:16 *2078:A1 2.19516e-05
15 *268:16 *2192:A2 0
16 *268:16 *350:22 6.04925e-05
17 *2078:A3 *268:10 0
18 *2078:A3 *268:16 8.94045e-05
*RES
1 *2302:Q *268:10 13.4121 
2 *268:10 *268:16 7.02121 
3 *268:16 *2076:B1 4.7101 
4 *268:16 *2192:A1 5.97071 
5 *268:10 *2077:A1 9.2101 
*END

*D_NET *269 0.0150225
*CONN
*I *2074:A1 I *D gf180mcu_fd_sc_mcu7t5v0__nor2_1
*I *2073:B1 I *D gf180mcu_fd_sc_mcu7t5v0__aoi22_1
*I *2188:A1 I *D gf180mcu_fd_sc_mcu7t5v0__xor2_1
*I *2303:Q O *D gf180mcu_fd_sc_mcu7t5v0__dffq_1
*CAP
1 *2074:A1 0.000367553
2 *2073:B1 0.000179135
3 *2188:A1 0.000144069
4 *2303:Q 0.000336546
5 *269:12 0.000647057
6 *269:8 0.00102795
7 *2073:B1 *2074:A2 0
8 *2073:B1 *351:14 0.00162878
9 *2073:B1 *369:291 3.38758e-05
10 *2074:A1 *307:28 0.00161236
11 *2188:A1 *351:14 0.00127992
12 *269:8 *2303:CLK 0.000841452
13 *269:8 *292:55 0.000175302
14 *269:8 *307:36 0
15 *269:12 *2303:CLK 0.000525907
16 *2075:A2 *2073:B1 3.29077e-05
17 *2075:A3 *2074:A1 0.00347821
18 *189:10 *2073:B1 0.00127992
19 *189:10 *2188:A1 0.00139606
20 *189:10 *269:12 3.54988e-05
*RES
1 *2303:Q *269:8 12.0465 
2 *269:8 *269:12 6.07576 
3 *269:12 *2188:A1 5.7606 
4 *269:12 *2073:B1 6.28586 
5 *269:8 *2074:A1 12.3466 
*END

*D_NET *270 0.0107201
*CONN
*I *2071:A1 I *D gf180mcu_fd_sc_mcu7t5v0__nor2_1
*I *2070:B1 I *D gf180mcu_fd_sc_mcu7t5v0__aoi22_1
*I *2184:A1 I *D gf180mcu_fd_sc_mcu7t5v0__xor2_1
*I *2304:Q O *D gf180mcu_fd_sc_mcu7t5v0__dffq_1
*CAP
1 *2071:A1 0.000264898
2 *2070:B1 0.000161336
3 *2184:A1 0.000217869
4 *2304:Q 0.000142495
5 *270:12 0.000656414
6 *270:8 0.000684601
7 *2070:B1 *2070:B2 0.00162898
8 *2071:A1 *2071:A2 0.000138729
9 *2071:A1 *293:53 0
10 *2184:A1 *2070:B2 0.000348861
11 *2184:A1 *2184:A2 0.000304822
12 *2184:A1 *331:87 9.73157e-06
13 *270:8 *352:10 0.00147254
14 *270:8 *369:230 0
15 *270:12 *2070:A2 0.00115701
16 *270:12 *2070:B2 0.000525909
17 *270:12 *352:10 0.000736272
18 *270:12 *352:12 0.00178809
19 *270:12 *369:230 0
20 *2072:A2 *2070:B1 0.000362605
21 *2072:A2 *2071:A1 0
22 *2304:D *2070:B1 5.94706e-05
23 *2304:D *2184:A1 5.94706e-05
*RES
1 *2304:Q *270:8 10.5758 
2 *270:8 *270:12 7.33636 
3 *270:12 *2184:A1 5.7606 
4 *270:12 *2070:B1 6.28586 
5 *270:8 *2071:A1 10.2606 
*END

*D_NET *271 0.00758828
*CONN
*I *2180:A1 I *D gf180mcu_fd_sc_mcu7t5v0__xor2_1
*I *2067:B1 I *D gf180mcu_fd_sc_mcu7t5v0__aoi22_1
*I *2068:A1 I *D gf180mcu_fd_sc_mcu7t5v0__nor2_1
*I *2305:Q O *D gf180mcu_fd_sc_mcu7t5v0__dffq_1
*CAP
1 *2180:A1 6.05917e-05
2 *2067:B1 0.000515183
3 *2068:A1 0
4 *2305:Q 0.00109542
5 *271:21 0.000812841
6 *271:14 0.00133248
7 *2067:B1 *2067:A2 2.86383e-05
8 *2067:B1 *2067:B2 0.00163827
9 *2067:B1 *2069:A1 0.000210238
10 *2067:B1 *293:53 2.40714e-05
11 *2180:A1 *2180:A2 1.43191e-05
12 *271:14 *2069:A1 2.36659e-05
13 *271:14 *2180:A2 0
14 *271:21 *2068:A2 0.0001805
15 *271:21 *2069:A1 6.76911e-05
16 *271:21 *2180:A2 3.29273e-05
17 *271:21 *353:20 5.94706e-05
18 *2069:A2 *271:14 0.000262107
19 *2069:A2 *271:21 0.000947469
20 *2069:A3 *271:14 2.65927e-05
21 *2069:A3 *271:21 0.000222291
22 *2182:A3 *2180:A1 4.86578e-06
23 *183:12 *2180:A1 2.86383e-05
*RES
1 *2305:Q *271:14 19.1577 
2 *271:14 *2068:A1 4.5 
3 *271:14 *271:21 1.48571 
4 *271:21 *2067:B1 16.2313 
5 *271:21 *2180:A1 5.02525 
*END

*D_NET *272 0.00453778
*CONN
*I *2177:A1 I *D gf180mcu_fd_sc_mcu7t5v0__nor2_1
*I *2178:A1 I *D gf180mcu_fd_sc_mcu7t5v0__xor3_1
*I *2176:A1 I *D gf180mcu_fd_sc_mcu7t5v0__nand2_1
*I *2306:Q O *D gf180mcu_fd_sc_mcu7t5v0__dffq_1
*CAP
1 *2177:A1 0.000243502
2 *2178:A1 3.12128e-05
3 *2176:A1 0.000475171
4 *2306:Q 0.000170184
5 *272:16 0.000865907
6 *272:10 0.00077321
7 *2176:A1 *2176:A2 7.06447e-05
8 *2176:A1 *292:76 0
9 *2176:A1 *355:10 0
10 *2177:A1 *2065:C 3.128e-06
11 *2177:A1 *2177:A2 9.87624e-05
12 *2178:A1 *2177:A2 0.000232712
13 *272:10 *355:10 0.000385665
14 *272:16 *2177:A2 0.000131709
15 *272:16 *355:10 0
16 *2065:A2 *2176:A1 0.000303357
17 *2065:B *2177:A1 0.000220246
18 *2178:A3 *2177:A1 0.000274662
19 *2178:A3 *272:16 0.000257706
*RES
1 *2306:Q *272:10 14.6556 
2 *272:10 *272:16 6.81111 
3 *272:16 *2176:A1 11.4799 
4 *272:16 *2178:A1 9.2101 
5 *272:10 *2177:A1 5.9557 
*END

*D_NET *273 0.0073945
*CONN
*I *2173:A1 I *D gf180mcu_fd_sc_mcu7t5v0__xor3_1
*I *2172:A1 I *D gf180mcu_fd_sc_mcu7t5v0__nor2_1
*I *2171:A1 I *D gf180mcu_fd_sc_mcu7t5v0__nand2_1
*I *2307:Q O *D gf180mcu_fd_sc_mcu7t5v0__dffq_1
*CAP
1 *2173:A1 0.000232643
2 *2172:A1 0
3 *2171:A1 0.000496992
4 *2307:Q 0.000246114
5 *273:23 0.000446966
6 *273:10 0.000957429
7 *2171:A1 *2064:C 0.000399251
8 *2171:A1 *2171:A2 0.000550677
9 *2173:A1 *2171:A2 0.000198355
10 *2173:A1 *2172:A2 0.00056495
11 *2173:A1 *2173:A2 0.00104699
12 *2173:A1 *328:83 0.00015751
13 *273:10 *292:78 0.000876512
14 *273:23 *2064:C 0.000203255
15 *273:23 *2171:A2 0.000614604
16 *273:23 *2172:A2 1.66223e-05
17 *2064:A1 *273:23 0
18 *2064:A2 *273:10 8.28306e-05
19 *2064:B *273:23 0.00025654
20 *2307:D *2171:A1 4.62551e-05
*RES
1 *2307:Q *273:10 16.1263 
2 *273:10 *2171:A1 7.92539 
3 *273:10 *273:23 1.90591 
4 *273:23 *2172:A1 4.5 
5 *273:23 *2173:A1 6.27085 
*END

*D_NET *274 0.00787177
*CONN
*I *2166:A1 I *D gf180mcu_fd_sc_mcu7t5v0__nand2_1
*I *2167:A1 I *D gf180mcu_fd_sc_mcu7t5v0__nor2_1
*I *2168:A1 I *D gf180mcu_fd_sc_mcu7t5v0__xor3_1
*I *2308:Q O *D gf180mcu_fd_sc_mcu7t5v0__dffq_1
*CAP
1 *2166:A1 0.000118622
2 *2167:A1 3.37765e-05
3 *2168:A1 0.000409594
4 *2308:Q 0.000447217
5 *274:12 0.000527444
6 *274:10 0.000649912
7 *2166:A1 *2166:A2 0.000116356
8 *2167:A1 *2167:A2 3.38758e-05
9 *2168:A1 *2063:C 0.000664614
10 *2168:A1 *2167:A2 0
11 *274:12 *356:19 0
12 *2063:A1 *2168:A1 3.38758e-05
13 *2063:A2 *2168:A1 0.00220888
14 *2063:A2 *274:12 0.00105186
15 *2169:A2 *2168:A1 0.00149291
16 *2169:A2 *274:12 8.28306e-05
*RES
1 *2308:Q *274:10 11.101 
2 *274:10 *274:12 1.15555 
3 *274:12 *2168:A1 12.4667 
4 *274:12 *2167:A1 9.19509 
5 *274:10 *2166:A1 9.58903 
*END

*D_NET *275 0.0138907
*CONN
*I *2162:A1 I *D gf180mcu_fd_sc_mcu7t5v0__nor2_1
*I *2161:A1 I *D gf180mcu_fd_sc_mcu7t5v0__nand2_1
*I *2163:A1 I *D gf180mcu_fd_sc_mcu7t5v0__xor3_1
*I *2309:Q O *D gf180mcu_fd_sc_mcu7t5v0__dffq_1
*CAP
1 *2162:A1 3.85162e-05
2 *2161:A1 0.000239666
3 *2163:A1 0.000704013
4 *2309:Q 0.000380886
5 *275:12 0.00112612
6 *275:10 0.00060184
7 *2161:A1 *2161:A2 0.000116356
8 *2161:A1 *357:17 0.00202101
9 *2162:A1 *2162:A2 1.98235e-05
10 *2162:A1 *332:77 1.22735e-05
11 *2163:A1 *2062:C 0.000874977
12 *2163:A1 *2163:A2 0.000386617
13 *2163:A1 *2309:CLK 0.000151309
14 *275:10 *2164:A1 0.00144065
15 *275:10 *295:80 0.00127992
16 *275:12 *2062:C 0.000841463
17 *275:12 *2164:A1 0.000946657
18 *2062:A2 *2161:A1 0.000840064
19 *2062:B *2161:A1 0.000232712
20 *2062:B *2163:A1 0.000105181
21 *2062:B *275:12 0.000525907
22 *2163:A3 *2163:A1 0.000651694
23 *2309:D *2161:A1 0
24 *2309:D *2163:A1 0.000338697
25 *167:12 *2161:A1 1.43191e-05
*RES
1 *2309:Q *275:10 12.3616 
2 *275:10 *275:12 1.78586 
3 *275:12 *2163:A1 13.9374 
4 *275:12 *2161:A1 11.69 
5 *275:10 *2162:A1 9.19509 
*END

*D_NET *276 0.0181644
*CONN
*I *2157:A1 I *D gf180mcu_fd_sc_mcu7t5v0__nor2_1
*I *2156:A1 I *D gf180mcu_fd_sc_mcu7t5v0__nand2_1
*I *2158:A1 I *D gf180mcu_fd_sc_mcu7t5v0__xor3_1
*I *2310:Q O *D gf180mcu_fd_sc_mcu7t5v0__dffq_1
*CAP
1 *2157:A1 0.000181035
2 *2156:A1 0.000790622
3 *2158:A1 0.000176149
4 *2310:Q 0.000338113
5 *276:12 0.00119701
6 *276:8 0.000749386
7 *2156:A1 *2150:A2 0
8 *2156:A1 *2155:A1 0.00111764
9 *2156:A1 *2155:A2 3.42636e-05
10 *2156:A1 *2156:A2 0.000877393
11 *2156:A1 *2279:CLK 9.73926e-05
12 *2156:A1 *295:123 8.62382e-06
13 *2157:A1 *332:60 0.00324134
14 *2158:A1 *295:123 0.000131709
15 *276:8 *2160:A2 0.00262961
16 *276:8 *358:10 0
17 *276:12 *2158:A2 0
18 *276:12 *2160:A2 0.00199849
19 *276:12 *358:10 0
20 *2061:A2 *2156:A1 0.000170588
21 *2061:B *2157:A1 0.00301279
22 *2158:A3 *2156:A1 9.73157e-06
23 *2158:A3 *2158:A1 5.83894e-05
24 *2279:D *2156:A1 0.001157
25 *2310:D *2156:A1 0.000187069
*RES
1 *2310:Q *276:8 11.6263 
2 *276:8 *276:12 6.49596 
3 *276:12 *2158:A1 5.7606 
4 *276:12 *2156:A1 18.186 
5 *276:8 *2157:A1 11.9264 
*END

*D_NET *277 0.00437152
*CONN
*I *2143:B1 I *D gf180mcu_fd_sc_mcu7t5v0__aoi22_1
*I *2052:A1 I *D gf180mcu_fd_sc_mcu7t5v0__xor2_1
*I *2144:A1 I *D gf180mcu_fd_sc_mcu7t5v0__nor2_1
*I *2283:Q O *D gf180mcu_fd_sc_mcu7t5v0__dffq_1
*CAP
1 *2143:B1 0.000105092
2 *2052:A1 0.000337573
3 *2144:A1 0.000305806
4 *2283:Q 0
5 *277:15 0.000513127
6 *277:4 0.000376268
7 *2052:A1 *2052:A2 0.00165392
8 *2052:A1 *359:10 0.000324135
9 *2143:B1 *2052:A2 0
10 *2143:B1 *293:14 0.000525911
11 *2143:B1 *334:183 7.6695e-05
12 *2144:A1 *334:183 4.39031e-05
13 *2144:A1 *359:10 3.40605e-05
14 *2145:A2 *2052:A1 0
15 *2145:A3 *2144:A1 7.50327e-05
*RES
1 *2283:Q *277:4 4.5 
2 *277:4 *2144:A1 6.49596 
3 *277:4 *277:15 0.525252 
4 *277:15 *2052:A1 6.39091 
5 *277:15 *2143:B1 14.2354 
*END

*D_NET *278 0.00637103
*CONN
*I *2151:A1 I *D gf180mcu_fd_sc_mcu7t5v0__nand2_1
*I *2152:A1 I *D gf180mcu_fd_sc_mcu7t5v0__nor2_1
*I *2153:A1 I *D gf180mcu_fd_sc_mcu7t5v0__xor3_1
*I *2311:Q O *D gf180mcu_fd_sc_mcu7t5v0__dffq_1
*CAP
1 *2151:A1 0.000431244
2 *2152:A1 0
3 *2153:A1 0.000103241
4 *2311:Q 0.000900613
5 *278:12 0.000120572
6 *278:10 0.00134919
7 *2151:A1 *2151:A2 0.000528704
8 *2151:A1 *2153:A2 2.12395e-06
9 *2151:A1 *360:6 7.92941e-05
10 *2153:A1 *2151:A2 0.000440385
11 *2153:A1 *2153:A2 0.000257706
12 *278:10 *2311:CLK 0.00115703
13 *278:10 *358:10 0
14 *278:12 *2151:A2 6.77516e-05
15 *278:12 *2153:A2 1.98235e-05
16 *2060:A2 *2151:A1 1.20357e-05
17 *2060:B *2151:A1 0.000306122
18 *2060:B *278:10 0.000525909
19 *2311:D *2151:A1 2.19516e-05
20 *159:12 *2151:A1 4.73318e-05
*RES
1 *2311:Q *278:10 19.698 
2 *278:10 *278:12 0.210101 
3 *278:12 *2153:A1 5.86566 
4 *278:12 *2152:A1 4.5 
5 *278:10 *2151:A1 16.5052 
*END

*D_NET *279 0.00945117
*CONN
*I *2134:B I *D gf180mcu_fd_sc_mcu7t5v0__aoi21_1
*I *2133:A3 I *D gf180mcu_fd_sc_mcu7t5v0__and3_1
*I *2312:Q O *D gf180mcu_fd_sc_mcu7t5v0__dffq_1
*CAP
1 *2134:B 0.000285925
2 *2133:A3 0.00015132
3 *2312:Q 0.000111936
4 *279:10 0.00054918
5 *2133:A3 *2133:A2 0.00040651
6 *2133:A3 *2136:A2 0.000581781
7 *2134:B *2136:A2 0.00139606
8 *2134:B *2155:A2 7.0121e-05
9 *2134:B *369:560 0.000905707
10 *2134:B *369:575 0.000525911
11 *279:10 *2160:A2 0.00241926
12 *279:10 *332:39 0.000420727
13 *279:10 *369:560 0.000105181
14 *2135:A3 *2134:B 0.000561308
15 *2142:A2 *2134:B 0.000248914
16 *149:8 *2133:A3 0.000575889
17 *149:8 *2134:B 0.000135443
*RES
1 *2312:Q *279:10 15.9162 
2 *279:10 *2133:A3 6.28586 
3 *279:10 *2134:B 15.7886 
*END

*D_NET *280 0.0106182
*CONN
*I *2131:A1 I *D gf180mcu_fd_sc_mcu7t5v0__nor2_1
*I *2130:B1 I *D gf180mcu_fd_sc_mcu7t5v0__aoi22_1
*I *2048:A1 I *D gf180mcu_fd_sc_mcu7t5v0__xor2_1
*I *2284:Q O *D gf180mcu_fd_sc_mcu7t5v0__dffq_1
*CAP
1 *2131:A1 0.000385269
2 *2130:B1 0.000170734
3 *2048:A1 0
4 *2284:Q 0.000474914
5 *280:16 0.000420553
6 *280:10 0.00111
7 *2130:B1 *2130:B2 0.00162898
8 *2131:A1 *2131:A2 0.000779083
9 *2131:A1 *309:18 0.000398864
10 *280:10 *292:23 0.00147257
11 *280:10 *309:18 0.000218023
12 *280:10 *320:20 0
13 *280:16 *2130:B2 0.000232712
14 *280:16 *292:23 0.00220888
15 *280:16 *320:20 0
16 *280:16 *320:28 0
17 *2132:A2 *2130:B1 0.000268928
18 *2132:A2 *280:16 6.77516e-05
19 *246:12 *2130:B1 0.000465425
20 *246:12 *280:16 0.000315545
*RES
1 *2284:Q *280:10 11.7313 
2 *280:10 *280:16 6.91616 
3 *280:16 *2048:A1 4.5 
4 *280:16 *2130:B1 6.39091 
5 *280:10 *2131:A1 11.9264 
*END

*D_NET *281 0.00502542
*CONN
*I *2127:B1 I *D gf180mcu_fd_sc_mcu7t5v0__aoi22_1
*I *2044:A1 I *D gf180mcu_fd_sc_mcu7t5v0__xor2_1
*I *2128:A1 I *D gf180mcu_fd_sc_mcu7t5v0__nor2_1
*I *2285:Q O *D gf180mcu_fd_sc_mcu7t5v0__dffq_1
*CAP
1 *2127:B1 5.13043e-05
2 *2044:A1 0.000541746
3 *2128:A1 0
4 *2285:Q 0.000399909
5 *281:19 0.000963153
6 *281:8 0.000770012
7 *2044:A1 *2044:A2 0.000260763
8 *2044:A1 *2175:A2 0.000232712
9 *2044:A1 *2285:CLK 6.77516e-05
10 *2044:A1 *362:14 4.6017e-05
11 *2127:B1 *2127:A2 1.29001e-05
12 *2127:B1 *2127:B2 4.12298e-05
13 *281:8 *2127:A2 3.30178e-05
14 *281:8 *2128:A2 0.000169379
15 *281:8 *2253:CLK 0
16 *281:19 *2127:A1 8.41455e-05
17 *281:19 *330:54 0.000946666
18 *281:19 *362:12 7.6695e-05
19 *281:19 *362:14 0.000245424
20 *2129:A2 *2127:B1 6.77516e-05
21 *2129:A3 *2044:A1 0
22 *2129:A3 *281:19 0
23 *2285:D *2127:B1 1.48386e-05
*RES
1 *2285:Q *281:8 6.72107 
2 *281:8 *2128:A1 4.5 
3 *281:8 *281:19 6.90115 
4 *281:19 *2044:A1 11.6263 
5 *281:19 *2127:B1 9.4202 
*END

*D_NET *282 0.0136555
*CONN
*I *2125:A1 I *D gf180mcu_fd_sc_mcu7t5v0__nor2_1
*I *2124:B1 I *D gf180mcu_fd_sc_mcu7t5v0__aoi22_1
*I *2040:A1 I *D gf180mcu_fd_sc_mcu7t5v0__xor2_1
*I *2286:Q O *D gf180mcu_fd_sc_mcu7t5v0__dffq_1
*CAP
1 *2125:A1 1.64805e-05
2 *2124:B1 0.000377041
3 *2040:A1 0
4 *2286:Q 0.000592653
5 *282:16 0.00101807
6 *282:12 0.00125016
7 *2124:B1 *2040:A2 9.73157e-06
8 *2124:B1 *2124:A1 0.00129556
9 *2124:B1 *311:30 0.000237131
10 *2124:B1 *330:67 1.05182e-05
11 *2125:A1 *2125:A2 6.77516e-05
12 *282:12 *2183:A1 0.000581781
13 *282:12 *2308:CLK 0.000420739
14 *282:12 *293:107 0.00410225
15 *282:16 *2125:A2 0.000214797
16 *282:16 *311:30 0
17 *2043:A3 *282:16 0
18 *2126:A3 *282:16 2.86383e-05
19 *2286:D *2125:A1 0.000118941
20 *2286:D *282:12 0.000178412
21 *171:10 *2124:B1 0.00115701
22 *240:10 *2124:B1 0.00058178
23 *240:10 *282:16 0.00139606
*RES
1 *2286:Q *282:12 19.1727 
2 *282:12 *282:16 3.25656 
3 *282:16 *2040:A1 4.5 
4 *282:16 *2124:B1 16.1263 
5 *282:12 *2125:A1 5.1303 
*END

*D_NET *283 0.0124997
*CONN
*I *2121:B1 I *D gf180mcu_fd_sc_mcu7t5v0__aoi22_1
*I *2036:A1 I *D gf180mcu_fd_sc_mcu7t5v0__xor2_1
*I *2122:A1 I *D gf180mcu_fd_sc_mcu7t5v0__nor2_1
*I *2287:Q O *D gf180mcu_fd_sc_mcu7t5v0__dffq_1
*CAP
1 *2121:B1 0.000309727
2 *2036:A1 0
3 *2122:A1 0
4 *2287:Q 0.00025486
5 *283:19 0.000413195
6 *283:8 0.000358328
7 *2121:B1 *2039:A1 0.000490847
8 *2121:B1 *2121:B2 0.00168292
9 *2121:B1 *295:106 6.77516e-05
10 *2121:B1 *314:22 0.000116356
11 *2121:B1 *330:27 0.000350605
12 *283:8 *295:31 0.00209441
13 *283:8 *314:22 0.00302525
14 *283:19 *2328:I 9.73157e-06
15 *283:19 *295:31 0.000232712
16 *283:19 *295:106 0.00143015
17 *283:19 *314:22 0.00166286
18 *2123:A3 *2121:B1 0
*RES
1 *2287:Q *283:8 7.54646 
2 *283:8 *2122:A1 4.5 
3 *283:8 *283:19 1.99596 
4 *283:19 *2036:A1 4.5 
5 *283:19 *2121:B1 16.2313 
*END

*D_NET *284 0.013998
*CONN
*I *2032:A1 I *D gf180mcu_fd_sc_mcu7t5v0__xor2_1
*I *2119:A1 I *D gf180mcu_fd_sc_mcu7t5v0__nor2_1
*I *2118:B1 I *D gf180mcu_fd_sc_mcu7t5v0__aoi22_1
*I *2288:Q O *D gf180mcu_fd_sc_mcu7t5v0__dffq_1
*CAP
1 *2032:A1 0.000442157
2 *2119:A1 0.000124283
3 *2118:B1 0.000268047
4 *2288:Q 0
5 *284:12 0.00065151
6 *284:6 0.000701337
7 *2032:A1 *2032:A2 9.2034e-05
8 *2032:A1 *306:18 0.00139627
9 *2032:A1 *310:18 0.000304882
10 *2032:A1 *324:12 6.31091e-05
11 *2032:A1 *324:14 8.41455e-05
12 *2032:A1 *330:12 4.73318e-05
13 *2032:A1 *365:26 0.000260763
14 *2032:A1 *369:27 0.000736272
15 *2032:A1 *369:29 0.00147259
16 *2118:B1 *2119:A2 2.62954e-05
17 *2118:B1 *300:22 0.000315557
18 *2118:B1 *365:26 0.000455786
19 *2119:A1 *326:14 0.000301443
20 *2119:A1 *331:23 0.001496
21 *2119:A1 *331:27 0.000116356
22 *284:12 *2118:A2 0.00139004
23 *284:12 *326:14 3.56906e-05
24 *284:12 *331:27 0.00151263
25 *284:12 *365:26 0.000168729
26 *284:12 *369:29 0.00115701
27 *2120:A2 *2118:B1 2.86383e-05
28 *234:14 *2032:A1 0.000349068
*RES
1 *2288:Q *284:6 9 
2 *284:6 *284:12 7.02121 
3 *284:12 *2118:B1 15.0758 
4 *284:12 *2119:A1 5.9557 
5 *284:6 *2032:A1 13.097 
*END

*D_NET *285 0.00740934
*CONN
*I *2244:A1 I *D gf180mcu_fd_sc_mcu7t5v0__xor2_1
*I *2115:B1 I *D gf180mcu_fd_sc_mcu7t5v0__aoi22_1
*I *2116:A1 I *D gf180mcu_fd_sc_mcu7t5v0__nor2_1
*I *2289:Q O *D gf180mcu_fd_sc_mcu7t5v0__dffq_1
*CAP
1 *2244:A1 0.000374642
2 *2115:B1 0.000261967
3 *2116:A1 0
4 *2289:Q 0.00036332
5 *285:16 0.000484846
6 *285:10 0.000960842
7 *2115:B1 *2115:A1 6.77516e-05
8 *2115:B1 *2115:B2 6.77516e-05
9 *2115:B1 *2116:A2 0.000139848
10 *2115:B1 *2289:CLK 6.50315e-05
11 *2115:B1 *320:20 0.000214231
12 *2244:A1 *301:14 4.29574e-05
13 *285:10 *306:20 0.000236659
14 *285:10 *331:53 0.0010472
15 *285:16 *2289:CLK 9.55779e-06
16 *285:16 *301:18 0.000138051
17 *285:16 *306:20 0.000118329
18 *2117:A2 *2115:B1 5.72765e-05
19 *2117:A2 *2244:A1 0.000304882
20 *2117:A3 *285:16 0.00137725
21 *2289:D *2115:B1 0.000482047
22 *2289:D *285:16 0.000532948
23 *231:10 *2244:A1 6.19546e-05
*RES
1 *2289:Q *285:10 12.1515 
2 *285:10 *285:16 6.90115 
3 *285:16 *2116:A1 4.5 
4 *285:16 *2115:B1 6.82612 
5 *285:10 *2244:A1 11.3111 
*END

*D_NET *286 0.009239
*CONN
*I *2240:A1 I *D gf180mcu_fd_sc_mcu7t5v0__xor2_1
*I *2112:B1 I *D gf180mcu_fd_sc_mcu7t5v0__aoi22_1
*I *2113:A1 I *D gf180mcu_fd_sc_mcu7t5v0__nor2_1
*I *2290:Q O *D gf180mcu_fd_sc_mcu7t5v0__dffq_1
*CAP
1 *2240:A1 3.3861e-05
2 *2112:B1 0.000268126
3 *2113:A1 0.000181616
4 *2290:Q 0.000315668
5 *286:12 0.00102994
6 *286:10 0.000929725
7 *2112:B1 *291:69 2.91947e-05
8 *2112:B1 *367:16 0.000465216
9 *2113:A1 *2113:A2 8.27883e-05
10 *2113:A1 *2240:A2 2.36659e-05
11 *2113:A1 *291:69 6.77516e-05
12 *2240:A1 *304:16 3.9647e-05
13 *2240:A1 *329:14 6.77516e-05
14 *286:10 *2112:A2 0.000280421
15 *286:10 *2243:A1 5.25909e-05
16 *286:10 *304:16 0.000372573
17 *286:10 *337:14 0.00127971
18 *286:12 *2112:A2 0.000595966
19 *286:12 *2114:A1 0.00136695
20 *286:12 *2240:A2 0.000118308
21 *286:12 *2243:A1 2.1027e-05
22 *2114:A2 *2112:B1 0.00018448
23 *2114:A3 *2113:A1 0.000959871
24 *2290:D *2112:B1 0.000144994
25 *2290:D *2113:A1 1.15638e-05
26 *228:10 *286:10 0.000315598
*RES
1 *2290:Q *286:10 11.3111 
2 *286:10 *286:12 2.83636 
3 *286:12 *2113:A1 10.4707 
4 *286:12 *2112:B1 10.8909 
5 *286:10 *2240:A1 9.2101 
*END

*D_NET *1 0.0313008
*CONN
*P clk I
*I *2313:I I *D gf180mcu_fd_sc_mcu7t5v0__clkbuf_16
*CAP
1 clk 0.000515709
2 *2313:I 0.000126606
3 *1:14 0.0038658
4 *1:10 0.0112382
5 *1:8 0.00801471
6 *2313:I *287:75 9.25101e-05
7 *1:8 *2339:I 0.000337
8 *1:8 *2360:I 0.00176154
9 *1:10 *2330:I 0
10 *1:10 *2332:I 0
11 *1:10 *2333:I 0
12 *1:10 *2334:I 0
13 *1:10 *2340:I 0.000946633
14 *1:10 *2341:I 0
15 *1:10 *2342:I 0
16 *1:10 *2345:I 1.05182e-05
17 *1:10 *2346:I 0
18 *1:10 *2350:I 0
19 *1:10 *2351:I 0.0001157
20 *1:10 *2356:I 0
21 *1:10 *2357:I 0.000153828
22 *1:14 *2102:A1 0
23 *1:14 *2102:A2 1.45974e-05
24 *1:14 *2102:A3 2.35243e-05
25 *1:14 *2294:D 0
26 *1:14 *2294:CLK 0.000934004
27 *1:14 *2295:D 0
28 *1:14 *2317:I 0.000271006
29 *1:14 *2321:I 7.44785e-05
30 *1:14 *287:75 0.000159933
31 *1:14 *287:79 7.68304e-05
32 *1:14 *287:86 3.29273e-05
33 *1:14 *287:91 0.000199916
34 *1:14 *287:107 0.000258119
35 *1:14 *287:112 0.000477286
36 *1:14 *287:116 0.000271006
37 *1:14 *287:123 0.000338758
38 *1:14 *287:128 0.000440385
39 *1:14 *290:52 0.000549272
*RES
1 clk *1:8 9.96262 
2 *1:8 *1:10 47.5878 
3 *1:10 *1:14 30.6125 
4 *1:14 *2313:I 5.38542 
*END

*D_NET *287 0.012584
*CONN
*I *2317:I I *D gf180mcu_fd_sc_mcu7t5v0__clkbuf_16
*I *2320:I I *D gf180mcu_fd_sc_mcu7t5v0__clkbuf_16
*I *2321:I I *D gf180mcu_fd_sc_mcu7t5v0__clkbuf_16
*I *2316:I I *D gf180mcu_fd_sc_mcu7t5v0__clkbuf_16
*I *2314:I I *D gf180mcu_fd_sc_mcu7t5v0__clkbuf_16
*I *2319:I I *D gf180mcu_fd_sc_mcu7t5v0__clkbuf_16
*I *2318:I I *D gf180mcu_fd_sc_mcu7t5v0__clkbuf_16
*I *2315:I I *D gf180mcu_fd_sc_mcu7t5v0__clkbuf_16
*I *2313:Z O *D gf180mcu_fd_sc_mcu7t5v0__clkbuf_16
*CAP
1 *2317:I 0.00010191
2 *2320:I 0
3 *2321:I 0.000185957
4 *2316:I 0
5 *2314:I 0
6 *2319:I 0
7 *2318:I 0
8 *2315:I 0.00015203
9 *2313:Z 0
10 *287:128 0.000252325
11 *287:123 0.000290329
12 *287:116 0.000241824
13 *287:112 0.000290494
14 *287:107 0.000274488
15 *287:91 0.000386696
16 *287:86 0.000322463
17 *287:79 0.000141278
18 *287:75 0.000409814
19 *287:48 0.00044197
20 *287:43 0.000441942
21 *287:41 0.000329583
22 *287:37 0.00044197
23 *287:32 0.000416392
24 *287:30 0.000352744
25 *287:26 0.000456614
26 *287:21 0.000388712
27 *287:19 0.00028487
28 *287:15 0.000485679
29 *287:13 0.00109641
30 *287:6 0.000458403
31 *287:13 *2092:A2 0
32 *287:13 *2214:A1 0.000175302
33 *287:13 *2214:A2 3.50605e-05
34 *287:15 *329:96 0
35 *287:19 *329:96 0
36 *287:21 *329:96 0
37 *287:26 *329:96 0
38 *287:30 *329:96 0
39 *287:32 *329:96 0
40 *287:37 *329:96 0
41 *287:75 *329:83 0
42 *287:79 *329:83 0
43 *287:86 *329:83 0
44 *287:91 *329:83 0
45 *2092:A1 *287:13 0
46 *2092:A1 *287:75 1.45974e-05
47 *2093:A2 *287:13 0.00015339
48 *2093:A3 *287:15 0.000394411
49 *2093:A3 *287:75 0.000473222
50 *2313:I *287:75 9.25101e-05
51 *1:14 *2317:I 0.000271006
52 *1:14 *2321:I 7.44785e-05
53 *1:14 *287:75 0.000159933
54 *1:14 *287:79 7.68304e-05
55 *1:14 *287:86 3.29273e-05
56 *1:14 *287:91 0.000199916
57 *1:14 *287:107 0.000258119
58 *1:14 *287:112 0.000477286
59 *1:14 *287:116 0.000271006
60 *1:14 *287:123 0.000338758
61 *1:14 *287:128 0.000440385
*RES
1 *2313:Z *287:6 9 
2 *287:6 *287:13 6.91616 
3 *287:13 *287:15 1.99596 
4 *287:15 *287:19 0.840403 
5 *287:19 *287:21 0.772871 
6 *287:21 *287:26 1.4557 
7 *287:26 *287:30 1.02799 
8 *287:30 *287:32 0.840403 
9 *287:32 *287:37 1.48571 
10 *287:37 *287:41 0.930446 
11 *287:41 *287:43 0.840403 
12 *287:43 *287:48 1.57576 
13 *287:48 *2315:I 5.3404 
14 *287:41 *2318:I 4.5 
15 *287:30 *2319:I 4.5 
16 *287:19 *2314:I 4.5 
17 *287:13 *287:75 2.62626 
18 *287:75 *287:79 0.840403 
19 *287:79 *2316:I 4.5 
20 *287:79 *287:86 0.420202 
21 *287:86 *287:91 2.01847 
22 *287:91 *2321:I 5.31789 
23 *2321:I *287:107 5.3404 
24 *287:107 *287:112 1.57576 
25 *287:112 *287:116 0.840403 
26 *287:116 *2320:I 4.5 
27 *287:116 *287:123 1.0505 
28 *287:123 *287:128 1.36566 
29 *287:128 *2317:I 5.3404 
*END

*D_NET *288 0.0208982
*CONN
*I *2251:CLK I *D gf180mcu_fd_sc_mcu7t5v0__dffq_1
*I *2322:I I *D gf180mcu_fd_sc_mcu7t5v0__inv_2
*I *2283:CLK I *D gf180mcu_fd_sc_mcu7t5v0__dffq_1
*I *2265:CLK I *D gf180mcu_fd_sc_mcu7t5v0__dffq_1
*I *2266:CLK I *D gf180mcu_fd_sc_mcu7t5v0__dffq_1
*I *2267:CLK I *D gf180mcu_fd_sc_mcu7t5v0__dffq_1
*I *2299:CLK I *D gf180mcu_fd_sc_mcu7t5v0__dffq_1
*I *2298:CLK I *D gf180mcu_fd_sc_mcu7t5v0__dffq_1
*I *2314:Z O *D gf180mcu_fd_sc_mcu7t5v0__clkbuf_16
*CAP
1 *2251:CLK 5.48597e-05
2 *2322:I 0.000527746
3 *2283:CLK 0.000393256
4 *2265:CLK 9.74922e-05
5 *2266:CLK 0
6 *2267:CLK 0.00138702
7 *2299:CLK 8.718e-05
8 *2298:CLK 1.51558e-05
9 *2314:Z 0.000956532
10 *288:86 0.00169775
11 *288:82 0.00157638
12 *288:35 0.00265038
13 *288:29 0.00259813
14 *288:10 0.00257734
15 *288:6 0.00144948
16 *2267:CLK *2085:B2 4.73318e-05
17 *2283:CLK *293:14 0
18 *2283:CLK *334:87 0.001157
19 *2322:I *293:14 0
20 *2322:I *334:85 0.00018935
21 *2322:I *334:87 0.002314
22 *288:10 *2090:A1 0.000415229
23 *288:29 *2089:A2 2.86383e-05
24 *2087:A3 *2267:CLK 0
25 *2089:A1 *288:29 2.19516e-05
26 *2090:A3 *288:10 0
27 *2090:A3 *288:29 0.00036862
28 *2211:A2 *288:10 3.68472e-05
29 *2211:A3 *288:10 3.25672e-05
30 *2251:D *288:82 0
31 *2265:D *288:10 0
32 *2266:D *2267:CLK 0
33 *2266:D *288:35 0
34 *2267:D *2267:CLK 0
35 *2283:D *2322:I 0.000116356
36 *2298:D *288:29 0.000101627
*RES
1 *2314:Z *288:6 5.65555 
2 *288:6 *288:10 6.82828 
3 *288:10 *2298:CLK 4.7101 
4 *288:10 *288:29 7.58614 
5 *288:29 *288:35 12.3563 
6 *288:35 *2299:CLK 9.39769 
7 *288:35 *2267:CLK 16.8563 
8 *288:29 *2266:CLK 4.5 
9 *288:6 *2265:CLK 5.1303 
10 *2314:Z *288:82 18.3323 
11 *288:82 *288:86 9.22727 
12 *288:86 *2283:CLK 12.024 
13 *288:86 *2322:I 12.6299 
14 *288:82 *2251:CLK 5.00274 
*END

*D_NET *289 0.0320544
*CONN
*I *2250:CLK I *D gf180mcu_fd_sc_mcu7t5v0__dffq_1
*I *2302:CLK I *D gf180mcu_fd_sc_mcu7t5v0__dffq_1
*I *2269:CLK I *D gf180mcu_fd_sc_mcu7t5v0__dffq_1
*I *2301:CLK I *D gf180mcu_fd_sc_mcu7t5v0__dffq_1
*I *2282:CLK I *D gf180mcu_fd_sc_mcu7t5v0__dffq_1
*I *2323:I I *D gf180mcu_fd_sc_mcu7t5v0__inv_2
*I *2300:CLK I *D gf180mcu_fd_sc_mcu7t5v0__dffq_1
*I *2268:CLK I *D gf180mcu_fd_sc_mcu7t5v0__dffq_1
*I *2315:Z O *D gf180mcu_fd_sc_mcu7t5v0__clkbuf_16
*CAP
1 *2250:CLK 0.000978173
2 *2302:CLK 0.00199529
3 *2269:CLK 3.00825e-05
4 *2301:CLK 5.4834e-05
5 *2282:CLK 0.00113228
6 *2323:I 0
7 *2300:CLK 0.00187639
8 *2268:CLK 4.22772e-05
9 *2315:Z 0.00153722
10 *289:71 0.00281546
11 *289:56 0.00115595
12 *289:42 0.00147102
13 *289:38 0.0010688
14 *289:34 0.00177727
15 *289:12 0.00238152
16 *289:10 0.00238014
17 *2250:CLK *2145:A1 3.68136e-05
18 *2250:CLK *293:14 0.000736272
19 *2250:CLK *328:128 0.000230491
20 *2250:CLK *328:152 0
21 *2250:CLK *334:173 9.24412e-05
22 *2269:CLK *305:34 0.000104948
23 *2282:CLK *2053:A1 2.86383e-05
24 *2282:CLK *328:128 4.91792e-05
25 *2300:CLK *328:161 0
26 *2300:CLK *328:173 0
27 *2300:CLK *346:14 0
28 *2302:CLK *305:34 0.00135497
29 *2302:CLK *334:25 0
30 *2302:CLK *334:29 0
31 *289:10 *334:57 0.00143748
32 *289:10 *345:12 0.000138051
33 *289:10 *345:14 0.000199407
34 *289:34 *2198:A1 0
35 *289:34 *328:152 0
36 *289:38 *292:12 5.25909e-05
37 *289:38 *328:122 4.73318e-05
38 *289:38 *328:128 0.000106496
39 *289:38 *334:57 0
40 *289:42 *328:128 2.38076e-05
41 *289:42 *328:152 0.000372573
42 *289:56 *328:120 0.000118329
43 *289:56 *328:122 0.000319489
44 *289:71 *2080:A2 0.000214787
45 *289:71 *305:34 0.00248156
46 *289:71 *328:120 0.000366821
47 *2053:B *2282:CLK 6.04925e-05
48 *2055:A2 *2250:CLK 3.53992e-05
49 *2055:A2 *2282:CLK 0.000115638
50 *2055:A3 *2250:CLK 0.000580413
51 *2196:A1 *289:71 0.00115701
52 *2198:A3 *289:56 5.78499e-05
53 *2199:A2 *289:12 1.14693e-05
54 *2199:A3 *289:12 0.00016669
55 *2199:A3 *289:34 1.43191e-05
56 *2199:A3 *289:38 0
57 *2203:A3 *2300:CLK 0
58 *2250:D *2282:CLK 0.000243425
59 *2268:D *2300:CLK 1.09758e-05
60 *2268:D *289:12 0.000120734
61 *2300:D *2300:CLK 0
62 *2301:D *289:71 7.09976e-05
63 *2302:D *2302:CLK 0
64 *195:10 *289:56 0.000131477
65 *195:10 *289:71 6.83681e-05
*RES
1 *2315:Z *289:10 26.001 
2 *289:10 *289:12 2.62626 
3 *289:12 *2268:CLK 4.9202 
4 *289:12 *2300:CLK 14.2697 
5 *289:10 *289:34 1.78586 
6 *289:34 *289:38 6.91616 
7 *289:38 *289:42 6.16955 
8 *289:42 *2323:I 4.5 
9 *289:42 *2282:CLK 10.4766 
10 *289:38 *289:56 3.88686 
11 *289:56 *2301:CLK 9.18759 
12 *289:56 *289:71 10.803 
13 *289:71 *2269:CLK 4.9202 
14 *289:71 *2302:CLK 17.001 
15 *289:34 *2250:CLK 18.9401 
*END

*D_NET *290 0.0451908
*CONN
*I *2296:CLK I *D gf180mcu_fd_sc_mcu7t5v0__dffq_1
*I *2264:CLK I *D gf180mcu_fd_sc_mcu7t5v0__dffq_1
*I *2260:CLK I *D gf180mcu_fd_sc_mcu7t5v0__dffq_1
*I *2293:CLK I *D gf180mcu_fd_sc_mcu7t5v0__dffq_1
*I *2261:CLK I *D gf180mcu_fd_sc_mcu7t5v0__dffq_1
*I *2294:CLK I *D gf180mcu_fd_sc_mcu7t5v0__dffq_1
*I *2295:CLK I *D gf180mcu_fd_sc_mcu7t5v0__dffq_1
*I *2262:CLK I *D gf180mcu_fd_sc_mcu7t5v0__dffq_1
*I *2263:CLK I *D gf180mcu_fd_sc_mcu7t5v0__dffq_1
*I *2297:CLK I *D gf180mcu_fd_sc_mcu7t5v0__dffq_1
*I *2316:Z O *D gf180mcu_fd_sc_mcu7t5v0__clkbuf_16
*CAP
1 *2296:CLK 0.00113915
2 *2264:CLK 0.000454812
3 *2260:CLK 0.000236943
4 *2293:CLK 0.000299396
5 *2261:CLK 0.000821902
6 *2294:CLK 0.000349492
7 *2295:CLK 0
8 *2262:CLK 0
9 *2263:CLK 0.000307836
10 *2297:CLK 0.00112928
11 *2316:Z 0.00091836
12 *290:112 0.00164995
13 *290:74 0.00164821
14 *290:70 0.00197434
15 *290:52 0.00161938
16 *290:44 0.00287347
17 *290:37 0.00125547
18 *290:4 0.00143712
19 *2260:CLK *2229:A2 2.10363e-05
20 *2260:CLK *300:28 0.0001157
21 *2260:CLK *333:26 7.09976e-05
22 *2260:CLK *333:32 0.000153828
23 *2261:CLK *2225:A2 7.50462e-05
24 *2261:CLK *335:43 0.0043126
25 *2261:CLK *335:54 7.36272e-05
26 *2261:CLK *341:16 0.000273473
27 *2263:CLK *302:34 7.30978e-05
28 *2293:CLK *2104:A2 0.000213811
29 *2293:CLK *341:16 0.000203255
30 *2294:CLK *2102:A1 0
31 *2296:CLK *2215:A1 0
32 *2297:CLK *2091:A1 0
33 *2297:CLK *2091:A2 0.000222433
34 *2297:CLK *2213:A1 0
35 *2297:CLK *302:34 4.86578e-06
36 *290:37 *2213:A1 3.37342e-05
37 *290:37 *2213:A2 0.000440491
38 *290:37 *302:34 0.00433905
39 *290:37 *342:18 0.000257646
40 *290:44 *2097:A2 0
41 *290:44 *2220:A2 0.000465425
42 *290:44 *342:18 0.00276719
43 *290:52 *2097:A2 9.2034e-05
44 *290:70 *2220:A2 0.000349069
45 *290:70 *2222:A1 0.000232712
46 *290:70 *2222:A2 0.00040651
47 *290:70 *2229:A2 1.57773e-05
48 *290:70 *300:28 2.62954e-05
49 *290:70 *333:43 0
50 *290:70 *333:49 0
51 *290:74 *2103:A1 0.000474261
52 *290:74 *2103:B2 0
53 *290:74 *2229:A2 0.000207779
54 *290:74 *333:39 6.77516e-05
55 *290:74 *341:16 0.0010651
56 *2091:B1 *2297:CLK 4.86578e-05
57 *2096:A2 *2296:CLK 9.30647e-05
58 *2096:A3 *2296:CLK 0.00113447
59 *2104:A1 *2293:CLK 4.15512e-05
60 *2213:B *2264:CLK 0
61 *2213:B *290:112 0
62 *2215:A2 *2296:CLK 0.00189332
63 *2215:A2 *290:37 0.000485707
64 *2215:A3 *2264:CLK 4.83885e-05
65 *2215:A3 *2297:CLK 5.94352e-05
66 *2223:A3 *290:37 0.000263419
67 *2225:B *2261:CLK 0.000101627
68 *2226:A3 *2261:CLK 2.66167e-05
69 *2231:A2 *290:74 0.000698137
70 *2263:D *2296:CLK 0.000377339
71 *2264:D *290:112 0
72 *2295:D *290:52 0.00136739
73 *2296:D *2296:CLK 5.83894e-05
74 *1:14 *2294:CLK 0.000934004
75 *1:14 *290:52 0.000549272
76 *216:12 *2261:CLK 0.00052604
77 *258:23 *2293:CLK 0
78 *259:18 *2261:CLK 4.59896e-05
79 *260:6 *290:70 0.000237811
80 *260:18 *290:44 9.90822e-05
81 *260:18 *290:52 0.00091151
82 *260:18 *290:70 1.98235e-05
*RES
1 *2316:Z *290:4 4.5 
2 *290:4 *2297:CLK 9.85757 
3 *290:4 *2263:CLK 6.28586 
4 *2316:Z *290:37 12.0861 
5 *290:37 *2262:CLK 4.5 
6 *290:37 *290:44 2.9189 
7 *290:44 *290:52 16.9013 
8 *290:52 *2295:CLK 4.5 
9 *290:52 *2294:CLK 7.50144 
10 *290:44 *290:70 11.6434 
11 *290:70 *290:74 8.59697 
12 *290:74 *2261:CLK 20.0957 
13 *290:74 *2293:CLK 6.3684 
14 *290:70 *2260:CLK 11.6037 
15 *2316:Z *290:112 4.81515 
16 *290:112 *2264:CLK 6.1583 
17 *290:112 *2296:CLK 20.9361 
*END

*D_NET *291 0.035723
*CONN
*I *2292:CLK I *D gf180mcu_fd_sc_mcu7t5v0__dffq_1
*I *2248:CLK I *D gf180mcu_fd_sc_mcu7t5v0__dffq_1
*I *2258:CLK I *D gf180mcu_fd_sc_mcu7t5v0__dffq_1
*I *2249:CLK I *D gf180mcu_fd_sc_mcu7t5v0__dffq_1
*I *2290:CLK I *D gf180mcu_fd_sc_mcu7t5v0__dffq_1
*I *2324:I I *D gf180mcu_fd_sc_mcu7t5v0__inv_2
*I *2291:CLK I *D gf180mcu_fd_sc_mcu7t5v0__dffq_1
*I *2259:CLK I *D gf180mcu_fd_sc_mcu7t5v0__dffq_1
*I *2317:Z O *D gf180mcu_fd_sc_mcu7t5v0__clkbuf_16
*CAP
1 *2292:CLK 0.00123562
2 *2248:CLK 0
3 *2258:CLK 0.000598605
4 *2249:CLK 0.00132733
5 *2290:CLK 5.88918e-05
6 *2324:I 0
7 *2291:CLK 0.000660509
8 *2259:CLK 4.92068e-05
9 *2317:Z 0.00259786
10 *291:90 0.00194212
11 *291:69 0.00230218
12 *291:47 0.00357262
13 *291:25 0.000912077
14 *291:23 0.00231015
15 *291:8 0.00351631
16 *2258:CLK *2109:A1 0.000349069
17 *2258:CLK *2237:A1 9.14228e-05
18 *2258:CLK *2238:A1 3.53992e-05
19 *2258:CLK *300:28 0
20 *2258:CLK *333:12 0.00105181
21 *2258:CLK *333:14 0.000105181
22 *2291:CLK *2235:A1 0
23 *2292:CLK *2239:A1 6.22125e-05
24 *2292:CLK *296:12 0
25 *2292:CLK *297:16 0.00767857
26 *2292:CLK *297:33 8.94045e-05
27 *2292:CLK *299:10 0.000560968
28 *2292:CLK *313:20 0.000197399
29 *291:8 *342:12 8.93951e-05
30 *291:25 *2235:A1 0
31 *291:47 *294:12 0
32 *291:69 *2113:A2 0.00104699
33 *291:69 *313:20 1.09562e-05
34 *291:69 *367:8 0.00010809
35 *291:69 *367:16 5.86824e-05
36 *291:90 *2239:A1 7.88952e-05
37 *291:90 *313:20 0.000483213
38 *2108:A3 *2292:CLK 6.04925e-05
39 *2111:A2 *291:47 0.00157776
40 *2111:A3 *291:47 0
41 *2112:B1 *291:69 2.91947e-05
42 *2113:A1 *291:69 6.77516e-05
43 *2114:A3 *291:69 0.000225632
44 *2235:A2 *2259:CLK 0.000128244
45 *2239:A2 *2292:CLK 0
46 *2258:D *291:90 0
47 *2259:D *2259:CLK 0.000101627
48 *2259:D *291:23 0
49 *2259:D *291:25 0
50 *2290:D *291:69 0
51 *2291:D *2291:CLK 0.000312202
52 *2291:D *291:25 3.90032e-05
53 *225:18 *291:69 0
54 *225:18 *291:90 0
55 *257:10 *2292:CLK 0
*RES
1 *2317:Z *291:8 21.2909 
2 *291:8 *2259:CLK 9.39769 
3 *291:8 *291:23 7.86161 
4 *291:23 *291:25 1.42381 
5 *291:25 *2291:CLK 8.11861 
6 *291:25 *2324:I 4.5 
7 *291:23 *291:47 16.2485 
8 *291:47 *2290:CLK 4.9202 
9 *291:47 *2249:CLK 10.698 
10 *291:47 *291:69 5.56767 
11 *291:69 *2258:CLK 17.6795 
12 *291:69 *291:90 4.01443 
13 *291:90 *2248:CLK 4.5 
14 *291:90 *2292:CLK 24.4853 
*END

*D_NET *292 0.0792826
*CONN
*I *2325:I I *D gf180mcu_fd_sc_mcu7t5v0__clkbuf_4
*I *2306:CLK I *D gf180mcu_fd_sc_mcu7t5v0__dffq_1
*I *2274:CLK I *D gf180mcu_fd_sc_mcu7t5v0__dffq_1
*I *2307:CLK I *D gf180mcu_fd_sc_mcu7t5v0__dffq_1
*I *2270:CLK I *D gf180mcu_fd_sc_mcu7t5v0__dffq_1
*I *2271:CLK I *D gf180mcu_fd_sc_mcu7t5v0__dffq_1
*I *2303:CLK I *D gf180mcu_fd_sc_mcu7t5v0__dffq_1
*I *2252:CLK I *D gf180mcu_fd_sc_mcu7t5v0__dffq_1
*I *2284:CLK I *D gf180mcu_fd_sc_mcu7t5v0__dffq_1
*I *2318:Z O *D gf180mcu_fd_sc_mcu7t5v0__clkbuf_16
*CAP
1 *2325:I 0
2 *2306:CLK 0
3 *2274:CLK 0.000276969
4 *2307:CLK 4.63674e-05
5 *2270:CLK 0.00090665
6 *2271:CLK 0.000227472
7 *2303:CLK 0.000657669
8 *2252:CLK 9.90252e-05
9 *2284:CLK 0
10 *2318:Z 0.00284027
11 *292:78 0.00181978
12 *292:76 0.00185187
13 *292:70 0.00187819
14 *292:55 0.00156609
15 *292:42 0.00150943
16 *292:38 0.001757
17 *292:23 0.00190033
18 *292:12 0.00356778
19 *2252:CLK *307:28 0
20 *2270:CLK *2078:A1 0
21 *2270:CLK *2192:A2 0
22 *2274:CLK *2174:A1 0.00021609
23 *2303:CLK *351:8 0.000736273
24 *2303:CLK *351:14 0.000301595
25 *292:12 *2079:B2 0.00037858
26 *292:12 *2170:A2 0.000184068
27 *292:12 *2210:A2 6.31091e-05
28 *292:12 *303:16 0.000797153
29 *292:12 *303:18 0.00504869
30 *292:12 *303:20 0.000504873
31 *292:12 *308:26 0.00156549
32 *292:12 *328:118 0.00115701
33 *292:12 *328:120 0.00641608
34 *292:12 *328:122 0.00326063
35 *292:12 *328:128 0.000946636
36 *292:23 *2048:A2 0.000736272
37 *292:23 *303:16 0.000233634
38 *292:23 *308:26 0.000365375
39 *292:23 *361:10 0.00389172
40 *292:23 *361:12 0.00199845
41 *292:38 *321:41 0.000280484
42 *292:38 *331:53 0
43 *292:38 *331:72 0.000644361
44 *292:38 *361:10 0.00420727
45 *292:38 *369:291 0.000460983
46 *292:42 *331:72 0.000200468
47 *292:42 *369:291 8.78062e-05
48 *292:55 *351:8 0.000294509
49 *292:70 *351:8 0.000336582
50 *292:76 *2174:A1 0.000315545
51 *292:76 *2176:A2 4.86578e-06
52 *292:76 *355:10 0
53 *292:78 *2064:C 0.00136737
54 *292:78 *2174:A1 0.00315556
55 *292:78 *2192:A2 0
56 *2046:A3 *292:38 0.00159525
57 *2047:A3 *292:38 0.000304822
58 *2064:A1 *2307:CLK 1.95996e-05
59 *2064:A2 *292:78 0
60 *2065:A2 *292:70 0
61 *2065:A2 *292:76 0
62 *2090:A2 *292:12 0.00262954
63 *2174:A2 *2274:CLK 3.38758e-05
64 *2176:A1 *292:76 0
65 *2187:A2 *292:70 0
66 *2187:A3 *292:42 0
67 *2191:A2 *2303:CLK 3.78836e-05
68 *2252:D *292:38 0
69 *2271:D *2271:CLK 0
70 *2271:D *292:70 0.000814492
71 *2274:D *2274:CLK 5.35236e-05
72 *2306:D *292:70 0
73 *179:12 *292:70 0.00570144
74 *189:10 *2303:CLK 0
75 *246:12 *292:23 0.000560968
76 *268:10 *2270:CLK 0.000315548
77 *269:8 *2303:CLK 0.000841452
78 *269:8 *292:55 0.000175302
79 *269:12 *2303:CLK 0.000525907
80 *273:10 *292:78 0.000876512
81 *280:10 *292:23 0.00147257
82 *280:16 *292:23 0.00220888
83 *289:38 *292:12 5.25909e-05
*RES
1 *2318:Z *292:12 46.4033 
2 *292:12 *2284:CLK 4.5 
3 *292:12 *292:23 12.9866 
4 *292:23 *2252:CLK 9.39769 
5 *292:23 *292:38 14.4798 
6 *292:38 *292:42 8.28181 
7 *292:42 *2303:CLK 14.7553 
8 *292:42 *292:55 1.57576 
9 *292:55 *2271:CLK 9.81789 
10 *292:55 *292:70 13.0316 
11 *292:70 *292:76 8.57446 
12 *292:76 *292:78 6.82828 
13 *292:78 *2270:CLK 14.7553 
14 *292:78 *2307:CLK 9.18759 
15 *292:76 *2274:CLK 10.6583 
16 *292:70 *2306:CLK 4.5 
17 *292:38 *2325:I 4.5 
*END

*D_NET *293 0.0571138
*CONN
*I *2308:CLK I *D gf180mcu_fd_sc_mcu7t5v0__dffq_1
*I *2275:CLK I *D gf180mcu_fd_sc_mcu7t5v0__dffq_1
*I *2286:CLK I *D gf180mcu_fd_sc_mcu7t5v0__dffq_1
*I *2272:CLK I *D gf180mcu_fd_sc_mcu7t5v0__dffq_1
*I *2305:CLK I *D gf180mcu_fd_sc_mcu7t5v0__dffq_1
*I *2273:CLK I *D gf180mcu_fd_sc_mcu7t5v0__dffq_1
*I *2253:CLK I *D gf180mcu_fd_sc_mcu7t5v0__dffq_1
*I *2326:I I *D gf180mcu_fd_sc_mcu7t5v0__clkbuf_4
*I *2304:CLK I *D gf180mcu_fd_sc_mcu7t5v0__dffq_1
*I *2319:Z O *D gf180mcu_fd_sc_mcu7t5v0__clkbuf_16
*CAP
1 *2308:CLK 0.000455
2 *2275:CLK 0.00139115
3 *2286:CLK 3.15159e-05
4 *2272:CLK 0.00042765
5 *2305:CLK 5.48597e-05
6 *2273:CLK 0.000875361
7 *2253:CLK 0.00122986
8 *2326:I 0
9 *2304:CLK 0.000523293
10 *2319:Z 0.0057428
11 *293:107 0.00234961
12 *293:96 0.00130665
13 *293:79 0.00156039
14 *293:53 0.00283266
15 *293:49 0.00269409
16 *293:31 0.00132774
17 *293:27 0.000894761
18 *293:16 0.00239069
19 *293:14 0.0072439
20 *2272:CLK *2181:A1 6.04925e-05
21 *2272:CLK *2182:A2 0
22 *2272:CLK *311:30 0.00137134
23 *2272:CLK *311:32 0.00166614
24 *2273:CLK *2179:A1 2.26943e-05
25 *2275:CLK *352:10 0.000101567
26 *2286:CLK *2183:A1 2.55699e-05
27 *2304:CLK *2070:B2 0.00020865
28 *2308:CLK *2169:A1 0.000197399
29 *293:14 *2132:A1 0.000967636
30 *293:14 *2144:A2 0
31 *293:14 *2145:A1 0
32 *293:14 *317:14 0
33 *293:14 *334:87 0
34 *293:14 *334:89 0
35 *293:14 *334:177 9.46635e-05
36 *293:14 *334:183 7.09976e-05
37 *293:14 *334:233 0.000307656
38 *293:14 *334:248 0.000473318
39 *293:16 *369:234 0.00017355
40 *293:16 *369:273 0
41 *293:16 *369:277 0
42 *293:27 *369:230 3.68136e-05
43 *293:27 *369:234 8.41454e-05
44 *293:49 *369:230 0.000178809
45 *293:53 *2067:A1 0
46 *293:53 *2067:A2 0
47 *293:53 *2067:B2 0.000440491
48 *293:53 *2068:A2 0
49 *293:53 *369:226 0.00015751
50 *293:53 *369:439 0
51 *293:79 *2181:A1 5.91647e-05
52 *293:79 *369:230 3.68136e-05
53 *293:79 *369:435 8.28306e-05
54 *293:96 *311:30 0.00372339
55 *293:107 *2183:A1 0.00157776
56 *293:107 *311:30 0
57 *2051:A2 *293:14 0.000199352
58 *2067:B1 *293:53 2.40714e-05
59 *2069:A2 *293:53 4.38835e-05
60 *2069:A3 *293:53 0
61 *2071:A1 *293:53 0
62 *2132:A3 *293:14 0.00199849
63 *2143:B1 *293:14 0.000525911
64 *2145:A2 *293:14 0.000946633
65 *2181:B *2272:CLK 0.000187659
66 *2183:A2 *2272:CLK 0.000199949
67 *2209:B *293:14 6.83681e-05
68 *2250:CLK *293:14 0.000736272
69 *2275:D *2275:CLK 0
70 *2283:D *293:14 0.00220889
71 *2283:CLK *293:14 0
72 *2322:I *293:14 0
73 *240:10 *293:96 0
74 *240:10 *293:107 0
75 *281:8 *2253:CLK 0
76 *282:12 *2308:CLK 0.000420739
77 *282:12 *293:107 0.00410225
*RES
1 *2319:Z *293:14 47.2383 
2 *293:14 *293:16 8.92928 
3 *293:16 *2304:CLK 11.7088 
4 *293:16 *293:27 2.41616 
5 *293:27 *293:31 4.9202 
6 *293:31 *2326:I 4.5 
7 *293:31 *2253:CLK 11.0431 
8 *293:27 *293:49 3.67676 
9 *293:49 *293:53 14.4798 
10 *293:53 *2273:CLK 9.33232 
11 *293:53 *2305:CLK 5.00274 
12 *293:49 *293:79 6.49596 
13 *293:79 *2272:CLK 8.17676 
14 *293:79 *293:96 9.54242 
15 *293:96 *2286:CLK 9.18759 
16 *293:96 *293:107 5.14747 
17 *293:107 *2275:CLK 16.5411 
18 *293:107 *2308:CLK 12.024 
*END

*D_NET *294 0.0912951
*CONN
*I *2257:CLK I *D gf180mcu_fd_sc_mcu7t5v0__dffq_1
*I *2256:CLK I *D gf180mcu_fd_sc_mcu7t5v0__dffq_1
*I *2255:CLK I *D gf180mcu_fd_sc_mcu7t5v0__dffq_1
*I *2285:CLK I *D gf180mcu_fd_sc_mcu7t5v0__dffq_1
*I *2327:I I *D gf180mcu_fd_sc_mcu7t5v0__clkinv_1
*I *2312:CLK I *D gf180mcu_fd_sc_mcu7t5v0__dffq_1
*I *2280:CLK I *D gf180mcu_fd_sc_mcu7t5v0__dffq_2
*I *2281:CLK I *D gf180mcu_fd_sc_mcu7t5v0__dffq_1
*I *2288:CLK I *D gf180mcu_fd_sc_mcu7t5v0__dffq_1
*I *2289:CLK I *D gf180mcu_fd_sc_mcu7t5v0__dffq_1
*I *2320:Z O *D gf180mcu_fd_sc_mcu7t5v0__clkbuf_16
*CAP
1 *2257:CLK 0
2 *2256:CLK 9.16657e-05
3 *2255:CLK 8.39505e-05
4 *2285:CLK 0.000963394
5 *2327:I 0.000131468
6 *2312:CLK 0.00090402
7 *2280:CLK 2.75155e-05
8 *2281:CLK 0.000790797
9 *2288:CLK 0
10 *2289:CLK 0.000821979
11 *2320:Z 0.00384721
12 *294:102 0.00188596
13 *294:87 0.00184612
14 *294:65 0.00160583
15 *294:52 0.00218352
16 *294:43 0.00161123
17 *294:37 0.00228368
18 *294:31 0.00108078
19 *294:18 0.00162775
20 *294:12 0.0041787
21 *2255:CLK *2175:A2 0.00015434
22 *2255:CLK *310:18 0.000134517
23 *2256:CLK *366:6 8.62382e-06
24 *2256:CLK *369:107 0.000135503
25 *2280:CLK *300:22 2.55699e-05
26 *2280:CLK *331:6 0.000207779
27 *2281:CLK *321:22 0
28 *2281:CLK *325:14 0.000283991
29 *2281:CLK *332:16 0
30 *2285:CLK *2175:A2 0.00212695
31 *2285:CLK *310:18 0.00209369
32 *2289:CLK *2115:A1 1.73875e-05
33 *2289:CLK *2115:A2 0.00118849
34 *2289:CLK *2115:B2 0.000207778
35 *2289:CLK *2116:A2 0.000237131
36 *2289:CLK *325:16 0.000556639
37 *2289:CLK *366:21 5.94706e-05
38 *2312:CLK *2155:A2 0.00546951
39 *2312:CLK *2175:A2 3.9647e-05
40 *2312:CLK *310:18 3.05754e-05
41 *2312:CLK *319:14 0
42 *2312:CLK *321:22 0
43 *2312:CLK *369:6 0.000465216
44 *2312:CLK *369:10 0.000905914
45 *2327:I *302:18 2.43289e-05
46 *2327:I *321:22 0.000169379
47 *294:12 *2243:A1 0
48 *294:12 *302:20 0
49 *294:12 *303:16 0.00125498
50 *294:12 *329:24 0
51 *294:12 *329:52 0.00725759
52 *294:12 *329:54 0.00494354
53 *294:12 *329:60 0.001157
54 *294:18 *295:16 0.000414153
55 *294:18 *302:20 0.000567982
56 *294:18 *303:16 0.00118849
57 *294:31 *295:16 0.000107373
58 *294:31 *302:20 0.000736273
59 *294:37 *2246:A2 1.09758e-05
60 *294:37 *369:97 0.00255983
61 *294:37 *369:107 0.00116335
62 *294:43 *2246:A2 0
63 *294:43 *309:18 0.000512395
64 *294:43 *320:20 0.00416367
65 *294:52 *309:18 0.000833552
66 *294:52 *320:20 0.00805329
67 *294:65 *2155:A2 0.00220888
68 *294:65 *309:12 3.15545e-05
69 *294:65 *321:22 0
70 *294:65 *332:16 0
71 *294:87 *2246:A2 0
72 p *2281:CLK 0.000207779
73 *2044:A1 *2285:CLK 6.77516e-05
74 *2111:A3 *294:12 0.00199852
75 *2115:B1 *2289:CLK 6.50315e-05
76 *2117:A2 *2289:CLK 0
77 *2117:A3 *2289:CLK 2.07756e-05
78 *2136:A1 *2312:CLK 0.00127971
79 *2140:A1 *2281:CLK 0.000736272
80 *2246:A3 *2256:CLK 0.000195935
81 *2246:A3 *294:37 0.000158588
82 *2247:A2 *294:31 0.00283994
83 *2257:D *294:12 5.35236e-05
84 *2257:D *294:18 1.04267e-06
85 *2280:D *2312:CLK 0.00210367
86 *2281:D *2281:CLK 0.000946647
87 *2289:D *2289:CLK 0
88 *2334:I *294:52 0.000131709
89 *2337:I *2281:CLK 6.04925e-05
90 *2354:I *2281:CLK 1.05182e-05
91 *2358:I *2281:CLK 0.000525911
92 *151:12 *2281:CLK 0
93 *255:8 *2281:CLK 0.0019985
94 *255:8 *294:65 0.000210366
95 *285:16 *2289:CLK 9.55779e-06
96 *291:47 *294:12 0
*RES
1 *2320:Z *294:12 42.7866 
2 *294:12 *294:18 8.40938 
3 *294:18 *2289:CLK 14.0199 
4 *294:18 *294:31 8.17676 
5 *294:31 *294:37 8.07171 
6 *294:37 *294:43 10.6755 
7 *294:43 *2288:CLK 4.5 
8 *294:43 *294:52 11.876 
9 *294:52 *2281:CLK 14.3351 
10 *294:52 *294:65 4.30707 
11 *294:65 *2280:CLK 9.18759 
12 *294:65 *2312:CLK 16.0159 
13 *294:37 *294:87 4.09697 
14 *294:87 *2327:I 9.73535 
15 *294:87 *294:102 7.75656 
16 *294:102 *2285:CLK 16.1606 
17 *294:102 *2255:CLK 5.31789 
18 *294:31 *2256:CLK 5.10779 
19 *294:12 *2257:CLK 4.5 
*END

*D_NET *295 0.063513
*CONN
*I *2277:CLK I *D gf180mcu_fd_sc_mcu7t5v0__dffq_1
*I *2279:CLK I *D gf180mcu_fd_sc_mcu7t5v0__dffq_1
*I *2310:CLK I *D gf180mcu_fd_sc_mcu7t5v0__dffq_1
*I *2328:I I *D gf180mcu_fd_sc_mcu7t5v0__clkinv_1
*I *2311:CLK I *D gf180mcu_fd_sc_mcu7t5v0__dffq_1
*I *2278:CLK I *D gf180mcu_fd_sc_mcu7t5v0__dffq_1
*I *2276:CLK I *D gf180mcu_fd_sc_mcu7t5v0__dffq_1
*I *2309:CLK I *D gf180mcu_fd_sc_mcu7t5v0__dffq_1
*I *2254:CLK I *D gf180mcu_fd_sc_mcu7t5v0__dffq_1
*I *2287:CLK I *D gf180mcu_fd_sc_mcu7t5v0__dffq_1
*I *2321:Z O *D gf180mcu_fd_sc_mcu7t5v0__clkbuf_16
*CAP
1 *2277:CLK 0.000556102
2 *2279:CLK 0.000814869
3 *2310:CLK 0
4 *2328:I 5.20406e-05
5 *2311:CLK 0.000642959
6 *2278:CLK 0
7 *2276:CLK 0.000427598
8 *2309:CLK 0.000235611
9 *2254:CLK 4.49171e-05
10 *2287:CLK 0.000191888
11 *2321:Z 0.0018496
12 *295:123 0.00194396
13 *295:119 0.00230742
14 *295:106 0.00109176
15 *295:80 0.00264401
16 *295:57 0.00322
17 *295:46 0.00210018
18 *295:35 0.00156998
19 *295:31 0.00212539
20 *295:16 0.0060953
21 *295:14 0.00649697
22 *2276:CLK *2163:A2 0
23 *2276:CLK *2164:A1 2.86383e-05
24 *2277:CLK *322:16 0.000207779
25 *2279:CLK *2150:A1 0.000631089
26 *2279:CLK *2155:A2 0.000525921
27 *2279:CLK *2160:A2 0.000212993
28 *2279:CLK *311:30 5.42081e-05
29 *2279:CLK *332:54 0.00326063
30 *2279:CLK *369:575 0.000175302
31 *2287:CLK *2175:A2 0.000399251
32 *2309:CLK *311:30 0
33 *2311:CLK *2060:C 0.000217855
34 *2311:CLK *2151:A2 0.00021751
35 *2311:CLK *358:10 0
36 *295:14 *302:20 0.000636349
37 *295:14 *329:73 0.000210363
38 *295:14 *329:75 0.000163032
39 *295:14 *329:77 0.000235344
40 *295:14 *329:83 5.91647e-05
41 *295:16 *2115:A2 6.1356e-05
42 *295:16 *302:20 0
43 *295:16 *307:28 0
44 *295:16 *366:21 0.000399691
45 *295:16 *369:107 0.000140242
46 *295:35 *2039:A1 0
47 *295:46 *363:12 0.000806391
48 *295:80 *2060:C 3.10743e-05
49 *295:80 *2164:A1 0.000186149
50 *295:106 *2038:A2 0.000348861
51 *295:106 *314:22 0.000198164
52 *295:119 *2038:A2 0.00197784
53 *295:119 *314:22 0.000297353
54 *295:119 *369:510 0.000232712
55 *295:119 *369:518 0.00162877
56 *2039:A2 *295:106 0
57 *2039:A3 *295:106 0
58 *2121:B1 *295:106 6.77516e-05
59 *2123:A3 *295:31 0
60 *2153:A3 *2311:CLK 0.000412281
61 *2153:A3 *295:80 0
62 *2156:A1 *2279:CLK 9.73926e-05
63 *2156:A1 *295:123 8.62382e-06
64 *2158:A1 *295:123 0.000131709
65 *2163:A1 *2309:CLK 0.000151309
66 *2163:A3 *2276:CLK 0.000164637
67 *2164:A2 *2276:CLK 0.00127991
68 *2245:B *295:16 0.00283997
69 *2247:A2 *295:16 0.000252436
70 *2254:D *2254:CLK 0.000116356
71 *2276:D *2276:CLK 8.39625e-05
72 *2276:D *295:80 0.000101627
73 *2279:D *2279:CLK 0.000168253
74 *2287:D *2287:CLK 0
75 *2311:D *2311:CLK 3.38758e-05
76 *163:10 *2279:CLK 0.00136738
77 *237:6 *295:106 0.000188071
78 *261:12 *295:14 0.00136741
79 *275:10 *295:80 0.00127992
80 *278:10 *2311:CLK 0.00115703
81 *283:8 *295:31 0.00209441
82 *283:19 *2328:I 9.73157e-06
83 *283:19 *295:31 0.000232712
84 *283:19 *295:106 0.00143015
85 *294:18 *295:16 0.000414153
86 *294:31 *295:16 0.000107373
*RES
1 *2321:Z *295:14 24.7576 
2 *295:14 *295:16 27.4182 
3 *295:16 *2287:CLK 10.2381 
4 *295:16 *295:31 11.8535 
5 *295:31 *295:35 7.54646 
6 *295:35 *2254:CLK 9.18759 
7 *295:35 *295:46 6.19797 
8 *295:46 *2309:CLK 10.4482 
9 *295:46 *295:57 4.09697 
10 *295:57 *2276:CLK 12.5492 
11 *295:57 *295:80 15.5078 
12 *295:80 *2278:CLK 4.5 
13 *295:80 *2311:CLK 18.2273 
14 *295:31 *295:106 2.62626 
15 *295:106 *2328:I 4.9202 
16 *295:106 *295:119 9.54242 
17 *295:119 *295:123 10.5704 
18 *295:123 *2310:CLK 4.5 
19 *295:123 *2279:CLK 20.3283 
20 *295:119 *2277:CLK 12.4442 
*END

*D_NET *296 0.0289502
*CONN
*I *2109:A2 I *D gf180mcu_fd_sc_mcu7t5v0__aoi22_1
*I *2237:A2 I *D gf180mcu_fd_sc_mcu7t5v0__aoi21_1
*I *2238:A2 I *D gf180mcu_fd_sc_mcu7t5v0__and3_1
*I *2329:Z O *D gf180mcu_fd_sc_mcu7t5v0__buf_1
*CAP
1 *2109:A2 0.000952282
2 *2237:A2 0.000104666
3 *2238:A2 0.000216884
4 *2329:Z 0.00259433
5 *296:16 0.000450589
6 *296:12 0.00367565
7 *2109:A2 *2109:A1 0.00277912
8 *2109:A2 *2237:A1 0.00267577
9 *2237:A2 *2237:A1 0.000830067
10 *2238:A2 *2237:A1 0.000101627
11 *296:12 *2367:I 0.00157772
12 *296:12 *298:12 0.000820381
13 *296:12 *300:22 0
14 *296:12 *301:14 0.000581779
15 *296:12 *309:12 9.2034e-05
16 *296:12 *309:18 0.000203255
17 *296:12 *314:22 0.000130162
18 *296:12 *332:26 0
19 *2138:A1 *296:12 0
20 *2141:A2 *296:12 0.0031905
21 *2236:A1 *2109:A2 0.0017202
22 *2237:B *2109:A2 9.90822e-05
23 *2237:B *2238:A2 0.000349069
24 *2237:B *296:12 0.000210363
25 *2237:B *296:16 0.000175302
26 *2239:A2 *296:12 0.001157
27 *2239:A3 *2109:A2 5.65094e-05
28 *2258:D *2109:A2 0.000132278
29 *2292:CLK *296:12 0
30 *2334:I *296:12 0.00315259
31 *2349:I *296:12 0.000319201
32 *225:18 *2109:A2 0.000541258
33 *257:10 *2237:A2 6.04925e-05
*RES
1 *2329:Z *296:12 27.5939 
2 *296:12 *296:16 5.02525 
3 *296:16 *2238:A2 5.7606 
4 *296:16 *2237:A2 5.31789 
5 *296:12 *2109:A2 17.5916 
*END

*D_NET *297 0.0323791
*CONN
*I *2233:A2 I *D gf180mcu_fd_sc_mcu7t5v0__aoi21_1
*I *2234:A2 I *D gf180mcu_fd_sc_mcu7t5v0__and3_1
*I *2106:A2 I *D gf180mcu_fd_sc_mcu7t5v0__aoi22_1
*I *2330:Z O *D gf180mcu_fd_sc_mcu7t5v0__buf_1
*CAP
1 *2233:A2 0
2 *2234:A2 0.000445828
3 *2106:A2 0
4 *2330:Z 0.00168008
5 *297:33 0.001613
6 *297:16 0.00284725
7 *2234:A2 *2234:A1 1.12507e-05
8 *297:16 *2363:I 0.00113821
9 *297:16 *299:10 0.0053645
10 *297:16 *323:12 0
11 *297:16 *329:14 2.19516e-05
12 *297:33 *2106:B2 0.000200468
13 *297:33 *2107:A2 0.00174534
14 *297:33 *2233:A1 0.00323303
15 *297:33 *2234:A1 0
16 *297:33 *298:12 0
17 *297:33 *339:10 0.000263419
18 *2107:A1 *297:33 0.00122476
19 *2108:A2 *297:16 0.000253458
20 *2141:A2 *297:16 0
21 *2234:A3 *2234:A2 0.00151263
22 *2234:A3 *297:33 9.73157e-06
23 *2235:A2 *2234:A2 7.03793e-05
24 *2235:A2 *297:33 3.38758e-05
25 *2235:A3 *2234:A2 1.43191e-05
26 *2292:D *297:16 0.000116356
27 *2292:CLK *297:16 0.00767857
28 *2292:CLK *297:33 8.94045e-05
29 *2331:I *297:16 0.000515396
30 *2342:I *297:16 0.000309254
31 *2344:I *297:16 0.000126218
32 *2354:I *297:16 0.000177494
33 *2358:I *297:16 0.000736282
34 *222:10 *297:33 0
35 *257:10 *297:33 0.000946666
*RES
1 *2330:Z *297:16 29.5671 
2 *297:16 *2106:A2 4.5 
3 *297:16 *297:33 18.0343 
4 *297:33 *2234:A2 8.17676 
5 *297:33 *2233:A2 4.5 
*END

*D_NET *298 0.0223774
*CONN
*I *2103:A2 I *D gf180mcu_fd_sc_mcu7t5v0__aoi22_1
*I *2229:A2 I *D gf180mcu_fd_sc_mcu7t5v0__aoi21_1
*I *2230:A2 I *D gf180mcu_fd_sc_mcu7t5v0__and3_1
*I *2331:Z O *D gf180mcu_fd_sc_mcu7t5v0__buf_1
*CAP
1 *2103:A2 0
2 *2229:A2 0.00026764
3 *2230:A2 9.49414e-06
4 *2331:Z 0.00315861
5 *298:22 0.000785564
6 *298:12 0.00366704
7 *2229:A2 *333:26 0.000525909
8 *2229:A2 *333:32 0.0013674
9 *2229:A2 *333:43 0.000140242
10 *2229:A2 *341:16 0.000207778
11 *298:12 *2231:A1 9.99226e-05
12 *298:12 *2367:I 0.00305033
13 *298:12 *333:10 0
14 *298:12 *333:12 0
15 *298:12 *333:14 0
16 *298:12 *333:16 0
17 *298:12 *333:18 0
18 *298:12 *333:20 0
19 *298:12 *333:26 0
20 *298:12 *339:10 0.000946655
21 *298:12 *339:25 0.000946655
22 *298:22 *2230:A1 0.000115947
23 *298:22 *2231:A1 0
24 *2107:A1 *298:12 5.78499e-05
25 *2229:B *2230:A2 6.77516e-05
26 *2229:B *298:22 3.9647e-05
27 *2230:A3 *298:22 0.000349069
28 *2231:A2 *2229:A2 0.00199847
29 *2231:A2 *298:12 0
30 *2231:A3 *298:22 0
31 *2237:B *298:12 0.00115702
32 *2260:D *298:22 4.86578e-06
33 *2260:CLK *2229:A2 2.10363e-05
34 *219:10 *298:12 0.000116356
35 *219:10 *298:22 0.00165367
36 *225:18 *298:12 0.000357618
37 *257:10 *298:12 0.000220882
38 *290:70 *2229:A2 1.57773e-05
39 *290:74 *2229:A2 0.000207779
40 *296:12 *298:12 0.000820381
41 *297:33 *298:12 0
*RES
1 *2331:Z *298:12 34.1949 
2 *298:12 *298:22 3.36161 
3 *298:22 *2230:A2 4.7101 
4 *298:22 *2229:A2 16.1037 
5 *298:12 *2103:A2 4.5 
*END

*D_NET *299 0.0217763
*CONN
*I *2226:A2 I *D gf180mcu_fd_sc_mcu7t5v0__and3_1
*I *2225:A2 I *D gf180mcu_fd_sc_mcu7t5v0__aoi21_1
*I *2100:A2 I *D gf180mcu_fd_sc_mcu7t5v0__aoi22_1
*I *2332:Z O *D gf180mcu_fd_sc_mcu7t5v0__buf_1
*CAP
1 *2226:A2 7.7393e-05
2 *2225:A2 0.000486641
3 *2100:A2 0.000246431
4 *2332:Z 0.00361457
5 *299:25 0.000627612
6 *299:10 0.00392458
7 *2100:A2 *2100:A1 6.77516e-05
8 *2100:A2 *2226:A1 3.38758e-05
9 *2100:A2 *341:16 0
10 *2225:A2 *2226:A1 0.000349068
11 *2225:A2 *333:49 4.42139e-05
12 *2225:A2 *333:57 0.000121451
13 *2225:A2 *333:61 0.00459837
14 *299:10 *2239:A1 0.000230472
15 *299:10 *323:12 9.73157e-06
16 *299:10 *335:16 0
17 *299:10 *335:22 0
18 *299:10 *340:12 0
19 *299:10 *341:16 0
20 *299:25 *2226:A1 0.000116356
21 *2104:A1 *299:10 0.000189327
22 *2225:B *2225:A2 0.000187721
23 *2226:A3 *2225:A2 0.000145037
24 *2226:A3 *299:25 1.09758e-05
25 *2261:CLK *2225:A2 7.50462e-05
26 *2292:CLK *299:10 0.000560968
27 *258:8 *299:10 0.0006942
28 *297:16 *299:10 0.0053645
*RES
1 *2332:Z *299:10 34.6323 
2 *299:10 *2100:A2 10.1556 
3 *299:10 *299:25 5.02525 
4 *299:25 *2225:A2 9.30981 
5 *299:25 *2226:A2 4.9202 
*END

*D_NET *300 0.0440315
*CONN
*I *2221:A2 I *D gf180mcu_fd_sc_mcu7t5v0__aoi21_1
*I *2097:A2 I *D gf180mcu_fd_sc_mcu7t5v0__aoi22_1
*I *2222:A2 I *D gf180mcu_fd_sc_mcu7t5v0__and3_1
*I *2333:Z O *D gf180mcu_fd_sc_mcu7t5v0__buf_1
*CAP
1 *2221:A2 0
2 *2097:A2 0.0009937
3 *2222:A2 0.000315449
4 *2333:Z 0.001579
5 *300:45 0.00102116
6 *300:28 0.00609654
7 *300:22 0.00733264
8 *2097:A2 *2097:A1 0.00232088
9 *2097:A2 *2221:A1 1.13277e-05
10 *2097:A2 *342:12 0.000385665
11 *2097:A2 *342:18 0
12 *2222:A2 *2220:A2 0.000116356
13 *300:22 *2118:A1 0
14 *300:22 *2119:A2 0.000228544
15 *300:22 *301:14 0
16 *300:22 *326:14 0.00523581
17 *300:22 *331:6 0.000177964
18 *300:22 *332:26 0.00227912
19 *300:22 *365:26 4.20727e-05
20 *300:22 *369:31 0
21 *300:28 *2112:A2 0
22 *300:28 *2113:A2 0.000199407
23 *300:28 *2240:A2 0.000322119
24 *300:28 *2242:A1 0.000138051
25 *300:28 *313:20 0
26 *300:28 *342:12 0.000378655
27 *300:28 *369:31 0.000105186
28 *300:28 *369:37 0.00452291
29 *300:28 *369:48 0.000276102
30 *300:45 *2221:A1 3.53992e-05
31 *2118:B1 *300:22 0.000315557
32 *2120:A2 *300:22 0.00105693
33 *2120:A3 *300:22 4.20727e-05
34 *2221:B *2097:A2 3.52793e-05
35 *2221:B *2222:A2 0.000315544
36 *2221:B *300:28 0.000350605
37 *2221:B *300:45 4.7039e-06
38 *2222:A3 *2222:A2 0.00151263
39 *2223:A2 *2097:A2 0.000187406
40 *2223:A3 *2097:A2 0.00113821
41 *2223:A3 *300:45 0.00014129
42 *2234:A3 *300:28 0.00199849
43 *2258:CLK *300:28 0
44 *2260:CLK *300:28 0.0001157
45 *2280:CLK *300:22 2.55699e-05
46 *2288:D *300:22 0.000257706
47 *2348:I *300:22 4.86492e-05
48 *2359:I *300:22 0.000163366
49 *222:10 *300:28 0.00115703
50 *260:18 *2097:A2 0.000525907
51 *290:44 *2097:A2 0
52 *290:52 *2097:A2 9.2034e-05
53 *290:70 *2222:A2 0.00040651
54 *290:70 *300:28 2.62954e-05
55 *296:12 *300:22 0
*RES
1 *2333:Z *300:22 29.7656 
2 *300:22 *300:28 35.6121 
3 *300:28 *2222:A2 11.5212 
4 *300:28 *300:45 4.73261 
5 *300:45 *2097:A2 20.09 
6 *300:45 *2221:A2 4.5 
*END

*D_NET *301 0.0519383
*CONN
*I *2218:A2 I *D gf180mcu_fd_sc_mcu7t5v0__and3_1
*I *2094:A2 I *D gf180mcu_fd_sc_mcu7t5v0__aoi22_1
*I *2217:A2 I *D gf180mcu_fd_sc_mcu7t5v0__aoi21_1
*I *2334:Z O *D gf180mcu_fd_sc_mcu7t5v0__buf_1
*CAP
1 *2218:A2 2.81848e-05
2 *2094:A2 0.000197391
3 *2217:A2 3.18552e-05
4 *2334:Z 0.00203489
5 *301:27 0.000359604
6 *301:18 0.00325659
7 *301:14 0.0051256
8 *2094:A2 *2094:A1 0.00115441
9 *2217:A2 *2217:A1 1.13277e-05
10 *2217:A2 *334:187 0.00044049
11 *2218:A2 *334:187 0
12 *301:14 *2244:A2 0.000135443
13 *301:14 *309:18 0.0163564
14 *301:14 *366:6 0.00088071
15 *301:14 *369:97 0.000570721
16 *301:18 *2057:A1 0.00157775
17 *301:18 *2059:A1 0.000736284
18 *301:18 *2146:A2 0.000946655
19 *301:18 *305:16 0
20 *301:18 *306:20 0.0120961
21 *301:18 *306:22 0.000736272
22 *301:18 *334:269 0.000212993
23 *301:27 *2218:A1 0.000349069
24 *301:27 *334:187 0.000930847
25 *2059:A3 *301:18 0.000107373
26 *2094:B1 *2094:A2 0.000525909
27 *2096:A3 *2094:A2 0.000207779
28 *2117:A2 *301:14 0.000374449
29 *2117:A3 *301:14 0.000226479
30 *2117:A3 *301:18 2.36659e-05
31 *2120:A2 *301:14 3.78791e-05
32 *2120:A3 *301:14 0.000191156
33 *2148:A3 *301:18 0
34 *2217:B *2217:A2 3.52793e-05
35 *2217:B *301:27 0.000281034
36 *2244:A1 *301:14 4.29574e-05
37 *2263:D *2094:A2 3.15545e-05
38 *2288:D *301:14 0.000963251
39 *2349:I *301:14 0
40 *231:10 *301:14 0
41 *285:16 *301:18 0.000138051
42 *296:12 *301:14 0.000581779
43 *300:22 *301:14 0
*RES
1 *2334:Z *301:14 27.0687 
2 *301:14 *301:18 28.5565 
3 *301:18 *2217:A2 4.89769 
4 *301:18 *301:27 1.15555 
5 *301:27 *2094:A2 14.8431 
6 *301:27 *2218:A2 4.7101 
*END

*D_NET *302 0.0399628
*CONN
*I *2213:A2 I *D gf180mcu_fd_sc_mcu7t5v0__aoi21_1
*I *2091:A2 I *D gf180mcu_fd_sc_mcu7t5v0__aoi22_1
*I *2214:A2 I *D gf180mcu_fd_sc_mcu7t5v0__and3_1
*I *2335:Z O *D gf180mcu_fd_sc_mcu7t5v0__buf_1
*CAP
1 *2213:A2 4.24381e-05
2 *2091:A2 0.000189495
3 *2214:A2 0.000379137
4 *2335:Z 0.00261591
5 *302:34 0.00222395
6 *302:20 0.00727684
7 *302:18 0.008195
8 *2091:A2 *2091:A1 0.000905914
9 *2213:A2 *2213:A1 4.29574e-05
10 *2214:A2 *2214:A1 0.000532419
11 *2214:A2 *334:125 4.6017e-05
12 *302:18 *321:22 0.0001849
13 *302:18 *331:6 0.000252443
14 *302:18 *331:23 0.000243425
15 *302:18 *331:27 0.00238417
16 *302:20 *2246:A2 0.001157
17 *302:20 *329:52 0.000357618
18 *302:20 *329:54 0.000241918
19 *302:20 *329:60 5.78499e-05
20 *302:34 *2213:A1 0.000574814
21 *302:34 *334:125 0.000337431
22 *2091:B1 *2091:A2 0.000271006
23 *2091:B1 *2214:A2 0.000372634
24 *2092:A1 *2214:A2 5.91647e-05
25 *2213:B *2213:A2 8.62382e-06
26 *2223:A3 *302:20 0.000946657
27 *2247:A2 *302:20 0.000245424
28 *2262:D *302:20 8.41455e-05
29 *2263:CLK *302:34 7.30978e-05
30 *2297:CLK *2091:A2 0.000222433
31 *2297:CLK *302:34 4.86578e-06
32 *2327:I *302:18 2.43289e-05
33 *2348:I *302:18 0.00134967
34 *2355:I *302:18 0.000984461
35 *262:12 *2214:A2 4.73318e-05
36 *262:12 *302:34 0.000272136
37 *287:13 *2214:A2 3.50605e-05
38 *290:37 *2213:A2 0.000440491
39 *290:37 *302:34 0.00433905
40 *294:12 *302:20 0
41 *294:18 *302:20 0.000567982
42 *294:31 *302:20 0.000736273
43 *295:14 *302:20 0.000636349
44 *295:16 *302:20 0
*RES
1 *2335:Z *302:18 27.0687 
2 *302:18 *302:20 39.1838 
3 *302:20 *302:34 19.4 
4 *302:34 *2214:A2 11.5212 
5 *302:34 *2091:A2 10.6583 
6 *302:20 *2213:A2 9.39769 
*END

*D_NET *303 0.0491217
*CONN
*I *2088:A2 I *D gf180mcu_fd_sc_mcu7t5v0__aoi22_1
*I *2209:A2 I *D gf180mcu_fd_sc_mcu7t5v0__aoi21_1
*I *2210:A2 I *D gf180mcu_fd_sc_mcu7t5v0__and3_1
*I *2336:Z O *D gf180mcu_fd_sc_mcu7t5v0__buf_1
*CAP
1 *2088:A2 7.69953e-05
2 *2209:A2 0.000323672
3 *2210:A2 0.000418368
4 *2336:Z 0.00365306
5 *303:20 0.000997276
6 *303:18 0.00293101
7 *303:16 0.00625184
8 *2088:A2 *2088:A1 0.000116356
9 *2209:A2 *2209:A1 7.50108e-05
10 *2210:A2 *334:95 0.000484864
11 *303:16 *2048:A2 0.000581781
12 *303:16 *2130:B2 1.12507e-05
13 *303:16 *2132:A1 0
14 *303:16 *2241:A1 7.15701e-05
15 *303:16 *2241:A2 0.000357693
16 *303:16 *2242:A2 4.36074e-05
17 *303:16 *308:18 7.15957e-05
18 *303:16 *308:26 0.0158687
19 *303:16 *337:31 0.000440385
20 *303:16 *369:37 8.59148e-05
21 *303:16 *369:67 0.000329254
22 *303:18 *2132:A1 0
23 *303:18 *2145:A1 0.0001157
24 *303:18 *2170:A2 0
25 *303:18 *334:87 0.000946637
26 *303:18 *334:173 0.000757309
27 *303:20 *334:87 4.20727e-05
28 *303:20 *334:89 0.000336582
29 *303:20 *334:95 0.000147255
30 *2088:B1 *2088:A2 2.71041e-05
31 *2090:A2 *2210:A2 0.000184068
32 *2132:A2 *303:16 0
33 *2132:A3 *303:16 1.80316e-05
34 *2138:A1 *303:16 0.000581781
35 *2149:A2 *303:16 0.000916118
36 *2211:A2 *2209:A2 6.77516e-05
37 *2243:A2 *303:16 5.27508e-05
38 *2243:A3 *303:16 0.00149001
39 *2257:D *303:16 0
40 *2284:D *303:16 0.00015751
41 *204:10 *2209:A2 0.000128304
42 *204:10 *2210:A2 0.000871561
43 *292:12 *2210:A2 6.31091e-05
44 *292:12 *303:16 0.000797153
45 *292:12 *303:18 0.00504869
46 *292:12 *303:20 0.000504873
47 *292:23 *303:16 0.000233634
48 *294:12 *303:16 0.00125498
49 *294:18 *303:16 0.00118849
*RES
1 *2336:Z *303:16 37.0485 
2 *303:16 *303:18 25.9474 
3 *303:18 *303:20 2.62626 
4 *303:20 *2210:A2 11.9414 
5 *303:20 *2209:A2 10.2381 
6 *303:18 *2088:A2 9.40895 
*END

*D_NET *304 0.0506341
*CONN
*I *2205:A2 I *D gf180mcu_fd_sc_mcu7t5v0__aoi21_1
*I *2206:A2 I *D gf180mcu_fd_sc_mcu7t5v0__and3_1
*I *2085:A2 I *D gf180mcu_fd_sc_mcu7t5v0__aoi22_1
*I *2337:Z O *D gf180mcu_fd_sc_mcu7t5v0__buf_1
*CAP
1 *2205:A2 0.000166549
2 *2206:A2 2.81848e-05
3 *2085:A2 0.000377428
4 *2337:Z 0.00444313
5 *304:35 0.000266265
6 *304:20 0.003856
7 *304:16 0.00785017
8 *2085:A2 *2085:A1 9.80556e-05
9 *2085:A2 *2207:A1 0.000625105
10 *2205:A2 *2085:A1 4.11349e-05
11 *2205:A2 *2205:A1 1.13277e-05
12 *2205:A2 *334:63 0.000493619
13 *2206:A2 *334:59 0
14 *304:16 *2049:A2 0.000785036
15 *304:16 *2059:A1 0
16 *304:16 *2079:B2 0.00232691
17 *304:16 *2130:A1 0.00186128
18 *304:16 *308:18 0.000279137
19 *304:16 *308:26 0.000815428
20 *304:16 *320:28 0.00139627
21 *304:16 *328:8 0.000450007
22 *304:16 *328:18 3.29273e-05
23 *304:16 *329:14 0.000825404
24 *304:16 *329:18 0.000120734
25 *304:16 *329:24 0
26 *304:16 *329:26 0
27 *304:16 *334:10 0.0070973
28 *304:16 *337:14 0.00183474
29 *304:16 *349:6 0.00127992
30 *304:16 *369:316 5.94706e-05
31 *304:16 *369:329 0.00467896
32 *304:16 *369:350 0.000736104
33 *304:20 *2207:A1 0.000981693
34 *304:20 *328:45 0.000595966
35 *304:20 *328:199 0.000757309
36 *304:20 *334:25 0
37 *304:35 *2085:A1 0.000169319
38 *2049:B *304:16 0.00137134
39 *2051:A2 *304:16 0
40 *2051:A3 *304:16 0.000736377
41 *2087:A2 *2085:A2 8.41455e-05
42 *2199:A2 *304:20 0
43 *2205:B *2205:A2 2.17222e-05
44 *2206:A3 *2205:A2 0.000116356
45 *2206:A3 *304:35 0.000581573
46 *2207:A2 *2205:A2 0.00032303
47 *2207:A3 *2085:A2 0.000596028
48 *2207:A3 *304:20 0.000245423
49 *2240:A1 *304:16 3.9647e-05
50 *2266:D *2085:A2 0.000304882
51 *2269:D *304:20 0
52 *2337:I *304:16 9.91176e-05
53 *228:10 *304:16 0.000401013
54 *286:10 *304:16 0.000372573
*RES
1 *2337:Z *304:16 48.5868 
2 *304:16 *304:20 23.5141 
3 *304:20 *2085:A2 11.8307 
4 *304:20 *304:35 5.02525 
5 *304:35 *2206:A2 4.7101 
6 *304:35 *2205:A2 6.1583 
*END

*D_NET *305 0.0563584
*CONN
*I *2082:A2 I *D gf180mcu_fd_sc_mcu7t5v0__aoi22_1
*I *2201:A2 I *D gf180mcu_fd_sc_mcu7t5v0__aoi21_1
*I *2202:A2 I *D gf180mcu_fd_sc_mcu7t5v0__and3_1
*I *2338:Z O *D gf180mcu_fd_sc_mcu7t5v0__buf_1
*CAP
1 *2082:A2 0
2 *2201:A2 0.000436614
3 *2202:A2 0.000141143
4 *2338:Z 0.00266889
5 *305:36 0.000800274
6 *305:34 0.00446943
7 *305:16 0.0069158
8 *2201:A2 *328:173 0.00098854
9 *2201:A2 *334:33 0.000420727
10 *2201:A2 *334:37 0.00178811
11 *2202:A2 *2202:A1 0.000169319
12 *305:16 *2057:A1 1.57773e-05
13 *305:16 *2059:A1 2.62954e-05
14 *305:16 *2112:A1 4.29574e-05
15 *305:16 *2141:A1 0.000560007
16 *305:16 *2240:A2 0.000372573
17 *305:16 *2367:I 4.29574e-05
18 *305:16 *313:20 0.0138457
19 *305:16 *329:14 0.000644361
20 *305:16 *329:18 0.000143191
21 *305:16 *329:24 0.00232712
22 *305:16 *329:26 0.00570123
23 *305:16 *333:10 0.00151263
24 *305:34 *2057:A1 0.000722863
25 *305:34 *2057:A2 6.04925e-05
26 *305:34 *2058:A1 4.86578e-06
27 *305:34 *2080:A2 5.83807e-05
28 *305:34 *2082:A1 3.38758e-05
29 *305:34 *2146:A2 0
30 *305:34 *317:12 0.000107435
31 *305:34 *334:33 0.000506187
32 *305:36 *2082:A1 0.000271006
33 *305:36 *2202:A1 6.77516e-05
34 *2056:A1 *305:34 0
35 *2057:B *305:34 1.55756e-05
36 *2058:A3 *305:34 0.00033218
37 *2059:A2 *305:34 0.000286734
38 *2059:A3 *305:16 0.000147255
39 *2059:A3 *305:34 2.91947e-05
40 *2080:A1 *305:34 0
41 *2141:A2 *305:16 0
42 *2147:A1 *305:34 0.000128872
43 *2148:A3 *305:34 0.000170295
44 *2196:A1 *305:34 0.000150002
45 *2201:B *2201:A2 0.000596028
46 *2201:B *2202:A2 0.000116356
47 *2203:A3 *2201:A2 0.00015339
48 *2248:D *305:16 0.000170295
49 *2249:D *305:34 0
50 *2269:CLK *305:34 0.000104948
51 *2301:D *305:34 9.73157e-06
52 *2302:CLK *305:34 0.00135497
53 *2331:I *305:16 0.00335759
54 *2358:I *305:16 0.000349069
55 *195:10 *305:34 0.000401013
56 *252:6 *305:34 0.000136799
57 *289:71 *305:34 0.00248156
58 *301:18 *305:16 0
*RES
1 *2338:Z *305:16 36.8212 
2 *305:16 *305:34 34.4222 
3 *305:34 *305:36 1.0505 
4 *305:36 *2202:A2 5.23535 
5 *305:36 *2201:A2 16.9442 
6 *305:34 *2082:A2 4.5 
*END

*D_NET *306 0.0505211
*CONN
*I *2057:A2 I *D gf180mcu_fd_sc_mcu7t5v0__aoi21_1
*I *2058:A2 I *D gf180mcu_fd_sc_mcu7t5v0__and3_1
*I *2146:A2 I *D gf180mcu_fd_sc_mcu7t5v0__aoi22_1
*I *2339:Z O *D gf180mcu_fd_sc_mcu7t5v0__buf_1
*CAP
1 *2057:A2 2.36346e-05
2 *2058:A2 0.000246475
3 *2146:A2 0.000524992
4 *2339:Z 0.00252209
5 *306:22 0.000844339
6 *306:20 0.00242349
7 *306:18 0.00484907
8 *2058:A2 *2057:A1 0.001047
9 *2058:A2 *2058:A1 0.000116356
10 *2146:A2 *2056:A2 7.23423e-05
11 *2146:A2 *334:269 7.78525e-05
12 *2146:A2 *348:6 6.27187e-06
13 *306:18 *2032:A2 0.000349069
14 *306:18 *2033:A2 0.00137113
15 *306:18 *2034:A1 0.000232712
16 *306:18 *2034:A2 0.000382944
17 *306:18 *2175:A2 0
18 *306:18 *307:28 0.00339544
19 *306:18 *310:18 0.00272439
20 *306:18 *321:22 2.19516e-05
21 *306:18 *321:24 7.78525e-05
22 *306:18 *365:20 0.0070975
23 *306:18 *369:16 0.000840608
24 *306:20 *307:28 0
25 *2032:A1 *306:18 0.00139627
26 *2033:B *306:18 5.94706e-05
27 *2035:A2 *306:18 6.76911e-05
28 *2056:A1 *2146:A2 0.00172041
29 *2057:B *306:20 0.00105169
30 *2057:B *306:22 0.000525911
31 *2058:A3 *2057:A2 0.000207779
32 *2058:A3 *2058:A2 0.000384116
33 *2058:A3 *2146:A2 4.86578e-06
34 *2059:A2 *306:20 0.000490847
35 *2142:A1 *306:18 0
36 *2148:A2 *2146:A2 0.000331499
37 *2280:D *306:18 0.00025767
38 *2343:I *306:18 0.000445191
39 *234:14 *306:18 1.98235e-05
40 *252:6 *2146:A2 0.000115834
41 *285:10 *306:20 0.000236659
42 *285:16 *306:20 0.000118329
43 *301:18 *2146:A2 0.000946655
44 *301:18 *306:20 0.0120961
45 *301:18 *306:22 0.000736272
46 *305:34 *2057:A2 6.04925e-05
47 *305:34 *2146:A2 0
*RES
1 *2339:Z *306:18 31.901 
2 *306:18 *306:20 18.804 
3 *306:20 *306:22 0.735353 
4 *306:22 *2146:A2 13.0745 
5 *306:22 *2058:A2 10.7859 
6 *306:20 *2057:A2 9.18759 
*END

*D_NET *307 0.0536019
*CONN
*I *2079:A2 I *D gf180mcu_fd_sc_mcu7t5v0__aoi22_1
*I *2198:A2 I *D gf180mcu_fd_sc_mcu7t5v0__and3_1
*I *2197:A2 I *D gf180mcu_fd_sc_mcu7t5v0__aoi21_1
*I *2340:Z O *D gf180mcu_fd_sc_mcu7t5v0__buf_1
*CAP
1 *2079:A2 0
2 *2198:A2 0.000121427
3 *2197:A2 0.000156737
4 *2340:Z 0.00481849
5 *307:48 0.00204009
6 *307:36 0.00316231
7 *307:28 0.00621887
8 *2197:A2 *328:152 0.00023707
9 *2197:A2 *328:161 0.000128244
10 *2197:A2 *334:51 0.00015434
11 *2198:A2 *328:152 0.000135503
12 *307:28 *2033:A1 0.000271006
13 *307:28 *2033:A2 0.00137113
14 *307:28 *2034:A1 0.000232712
15 *307:28 *2046:A2 1.45974e-05
16 *307:28 *321:22 0.00244604
17 *307:28 *321:24 6.8121e-05
18 *307:28 *322:16 0.000508137
19 *307:28 *331:36 9.91176e-05
20 *307:28 *331:53 0.000852412
21 *307:28 *365:20 0.00197785
22 *307:28 *369:16 0.00255983
23 *307:28 *369:291 0.000160571
24 *307:36 *2073:A2 0.00347105
25 *307:36 *2170:A2 0.00389182
26 *307:36 *2190:A2 0.00157777
27 *307:36 *334:10 6.59368e-05
28 *307:36 *369:291 0.000273473
29 *307:36 *369:297 0.000210363
30 *307:36 *369:299 0.000245423
31 *307:36 *369:303 0.00143748
32 *307:36 *369:316 0.000110123
33 *307:48 *2196:A2 0.000525907
34 *307:48 *328:32 0.000120734
35 *307:48 *334:10 0.000611579
36 *307:48 *334:51 0.000736272
37 *307:48 *349:10 0.00217364
38 *307:48 *369:316 0.000471657
39 *2074:A1 *307:28 0.00161236
40 *2079:B1 *307:48 1.222e-05
41 *2197:B *2197:A2 9.72288e-06
42 *2197:B *2198:A2 2.43202e-05
43 *2198:A3 *307:48 0.000126218
44 *2199:A3 *307:48 0.000736272
45 *2252:D *307:28 0.00139627
46 *2252:CLK *307:28 0
47 *2269:D *307:48 0.000130162
48 *2280:D *307:28 0.00151242
49 *195:10 *307:48 0.000988709
50 *269:8 *307:36 0
51 *295:16 *307:28 0
52 *306:18 *307:28 0.00339544
53 *306:20 *307:28 0
*RES
1 *2340:Z *307:28 49.4272 
2 *307:28 *307:36 20.4449 
3 *307:36 *307:48 22.5571 
4 *307:48 *2197:A2 5.52799 
5 *307:48 *2198:A2 5.23535 
6 *307:36 *2079:A2 4.5 
*END

*D_NET *308 0.0574512
*CONN
*I *2193:A2 I *D gf180mcu_fd_sc_mcu7t5v0__aoi21_1
*I *2194:A2 I *D gf180mcu_fd_sc_mcu7t5v0__and3_1
*I *2076:A2 I *D gf180mcu_fd_sc_mcu7t5v0__aoi22_1
*I *2341:Z O *D gf180mcu_fd_sc_mcu7t5v0__buf_1
*CAP
1 *2193:A2 4.16326e-05
2 *2194:A2 0.000219238
3 *2076:A2 0.000392545
4 *2341:Z 0.00221031
5 *308:28 0.000640365
6 *308:26 0.00409508
7 *308:18 0.00623517
8 *2076:A2 *2076:A1 0.00161716
9 *2076:A2 *2078:A1 0.000193974
10 *2076:A2 *334:29 0
11 *2193:A2 *2193:A1 6.04925e-05
12 *2194:A2 *2076:A1 0
13 *2194:A2 *2193:A1 2.86383e-05
14 *308:18 *2137:A1 0.00362903
15 *308:18 *2137:A2 0.000101627
16 *308:18 *2242:A1 0.00116335
17 *308:18 *2242:A2 0.000141274
18 *308:18 *321:22 0.00368111
19 *308:18 *323:12 0.000420726
20 *308:18 *329:14 0
21 *308:18 *337:14 0.00118559
22 *308:18 *369:67 0.00206512
23 *308:26 *2078:A1 0.000380859
24 *308:26 *2079:B2 0.000300676
25 *308:26 *2193:A1 0.000672995
26 *308:26 *320:28 0
27 *308:26 *334:10 0.00067035
28 *308:26 *337:14 0.000680498
29 *308:26 *349:6 0.00015751
30 p *308:18 0.000237882
31 *2049:B *308:26 0.000226038
32 *2078:A2 *2076:A2 0
33 *2193:B *308:26 9.14228e-05
34 *2195:A2 *2193:A2 6.77516e-05
35 *2195:A2 *2194:A2 0.00151263
36 *2195:A2 *308:26 3.23867e-05
37 *2195:A2 *308:28 3.23867e-05
38 *2195:A3 *2194:A2 0.000101627
39 *2337:I *308:18 6.81036e-05
40 *2344:I *308:18 0.00347077
41 *2354:I *308:18 0.00100251
42 *2358:I *308:18 0.000338758
43 *192:8 *2076:A2 5.30023e-05
44 *192:8 *308:26 0.000264909
45 *292:12 *308:26 0.00156549
46 *292:23 *308:26 0.000365375
47 *303:16 *308:18 7.15957e-05
48 *303:16 *308:26 0.0158687
49 *304:16 *308:18 0.000279137
50 *304:16 *308:26 0.000815428
*RES
1 *2341:Z *308:18 31.0434 
2 *308:18 *308:26 30.791 
3 *308:26 *308:28 0.525252 
4 *308:28 *2076:A2 7.32511 
5 *308:28 *2194:A2 7.03246 
6 *308:26 *2193:A2 5.14156 
*END

*D_NET *309 0.0587886
*CONN
*I *2189:A2 I *D gf180mcu_fd_sc_mcu7t5v0__aoi21_1
*I *2073:A2 I *D gf180mcu_fd_sc_mcu7t5v0__aoi22_1
*I *2190:A2 I *D gf180mcu_fd_sc_mcu7t5v0__and3_1
*I *2342:Z O *D gf180mcu_fd_sc_mcu7t5v0__buf_1
*CAP
1 *2189:A2 0
2 *2073:A2 0.000301074
3 *2190:A2 0.000117806
4 *2342:Z 0.000726703
5 *309:22 0.000468156
6 *309:18 0.0038322
7 *309:12 0.00450963
8 *2073:A2 *369:291 6.41221e-05
9 *2073:A2 *369:295 0.00241922
10 *2073:A2 *369:297 0.000631097
11 *2190:A2 *369:297 0.00157777
12 *309:12 *325:14 0.00494362
13 *309:12 *329:14 0.00127992
14 *309:18 *2189:A1 1.98235e-05
15 *309:18 *320:20 0.00925534
16 *309:22 *2189:A1 4.38949e-05
17 *2075:A2 *2073:A2 0.000220246
18 *2131:A1 *309:18 0.000398864
19 *2132:A3 *309:18 2.07756e-05
20 *2140:A3 *309:12 0.00136739
21 *2141:A2 *309:12 0.00154266
22 *2190:A3 *309:22 4.86578e-06
23 *2334:I *309:18 0.000349069
24 *2337:I *309:12 0.00127992
25 *255:8 *309:12 0.000118329
26 *280:10 *309:18 0.000218023
27 *294:43 *309:18 0.000512395
28 *294:52 *309:18 0.000833552
29 *294:65 *309:12 3.15545e-05
30 *296:12 *309:12 9.2034e-05
31 *296:12 *309:18 0.000203255
32 *301:14 *309:18 0.0163564
33 *307:36 *2073:A2 0.00347105
34 *307:36 *2190:A2 0.00157777
*RES
1 *2342:Z *309:12 21.2737 
2 *309:12 *309:18 30.0219 
3 *309:18 *309:22 4.73261 
4 *309:22 *2190:A2 10.7859 
5 *309:22 *2073:A2 12.6655 
6 *309:18 *2189:A2 4.5 
*END

*D_NET *310 0.031721
*CONN
*I *2070:A2 I *D gf180mcu_fd_sc_mcu7t5v0__aoi22_1
*I *2186:A2 I *D gf180mcu_fd_sc_mcu7t5v0__and3_1
*I *2185:A2 I *D gf180mcu_fd_sc_mcu7t5v0__aoi21_1
*I *2343:Z O *D gf180mcu_fd_sc_mcu7t5v0__buf_1
*CAP
1 *2070:A2 0.000974153
2 *2186:A2 0.000102566
3 *2185:A2 0.000152595
4 *2343:Z 0.00408063
5 *310:29 0.00119819
6 *310:18 0.0043547
7 *2070:A2 *2070:B2 8.36756e-05
8 *2070:A2 *331:87 0.000245424
9 *2070:A2 *369:234 0
10 *2185:A2 *2185:A1 0.000320397
11 *2186:A2 *2185:A1 0.000169319
12 *310:18 *2045:A1 0.000217855
13 *310:18 *2045:A2 9.58413e-05
14 *310:18 *2066:I 0.000575828
15 *310:18 *2175:A1 0
16 *310:18 *2175:A2 0.000576078
17 *310:18 *331:72 0.0019575
18 *310:18 *331:87 0.000107373
19 *310:18 *361:10 0.000101567
20 *310:18 *365:20 0.000761957
21 *310:18 *369:10 0.000161605
22 *310:29 *331:87 0.000122712
23 *2032:A1 *310:18 0.000304882
24 *2033:B *310:18 0.000934285
25 *2035:A2 *310:18 5.51199e-05
26 *2035:A3 *310:18 4.33151e-05
27 *2047:A2 *310:18 2.19645e-05
28 *2047:A3 *310:18 5.72765e-05
29 *2072:A2 *2070:A2 0.00111288
30 *2136:A1 *310:18 8.59148e-05
31 *2186:A3 *2186:A2 0.000251651
32 *2187:A3 *2070:A2 0.000946635
33 *2187:A3 *310:18 0.00184752
34 *2187:A3 *310:29 0.000946635
35 *2255:CLK *310:18 0.000134517
36 *2285:CLK *310:18 0.00209369
37 *2312:CLK *310:18 3.05754e-05
38 *179:12 *2185:A2 0.000331438
39 *179:12 *310:18 0
40 *186:14 *2070:A2 7.09976e-05
41 *234:14 *310:18 0.00221035
42 *270:12 *2070:A2 0.00115701
43 *306:18 *310:18 0.00272439
*RES
1 *2343:Z *310:18 43.4565 
2 *310:18 *2185:A2 10.028 
3 *310:18 *310:29 0.945454 
4 *310:29 *2186:A2 9.73535 
5 *310:29 *2070:A2 15.4081 
*END

*D_NET *311 0.0742902
*CONN
*I *2181:A2 I *D gf180mcu_fd_sc_mcu7t5v0__aoi21_1
*I *2182:A2 I *D gf180mcu_fd_sc_mcu7t5v0__and3_1
*I *2067:A2 I *D gf180mcu_fd_sc_mcu7t5v0__aoi22_1
*I *2344:Z O *D gf180mcu_fd_sc_mcu7t5v0__buf_1
*CAP
1 *2181:A2 0
2 *2182:A2 4.93234e-05
3 *2067:A2 0.000202926
4 *2344:Z 0.00343673
5 *311:32 0.000470712
6 *311:30 0.00528289
7 *311:12 0.00850116
8 *2067:A2 *2067:A1 0.00151263
9 *2067:A2 *369:439 0.000232712
10 *311:12 *2137:A2 0.000736273
11 *311:12 *2150:A2 0.0146208
12 *311:12 *2366:I 0.00115701
13 *311:12 *323:12 0.000843645
14 *311:12 *335:10 0.00262958
15 *311:12 *335:12 0.000350605
16 *311:12 *335:14 0.00073627
17 *311:30 *2124:A2 0.000140097
18 *311:30 *2125:A2 0.00116335
19 *311:30 *2150:A1 0
20 *311:30 *2150:A2 0
21 *311:30 *2160:A1 8.8319e-05
22 *311:30 *2160:A2 0.00953173
23 *311:30 *330:67 0.000291441
24 *311:30 *363:12 0
25 *311:30 *369:226 0.000575834
26 *311:30 *369:439 9.14228e-05
27 *311:32 *369:439 0.00316634
28 *2041:B *311:30 0.000414054
29 *2043:A3 *311:30 0.000101627
30 *2062:A2 *311:30 0
31 *2067:B1 *2067:A2 2.86383e-05
32 *2124:B1 *311:30 0.000237131
33 *2126:A2 *311:30 0
34 *2181:B *2067:A2 2.19516e-05
35 *2181:B *311:32 0.000130446
36 *2182:A3 *2067:A2 5.94706e-05
37 *2272:CLK *2182:A2 0
38 *2272:CLK *311:30 0.00137134
39 *2272:CLK *311:32 0.00166614
40 *2279:D *311:30 0.000349069
41 *2279:CLK *311:30 5.42081e-05
42 *2286:D *311:30 1.45974e-05
43 *2309:CLK *311:30 0
44 *2329:I *311:12 0.000736284
45 *2335:I *311:12 0.000946633
46 *2338:I *311:12 0.00206857
47 *2341:I *311:12 0.000217988
48 *2345:I *311:12 0
49 *2350:I *311:12 0.000372513
50 *2352:I *311:12 0.000245423
51 *2356:I *311:12 0.000105182
52 *2360:I *311:12 0.00206857
53 *159:12 *311:12 8.94045e-05
54 *183:12 *2067:A2 3.89263e-05
55 *240:10 *311:30 0.00341689
56 *282:16 *311:30 0
57 *293:53 *2067:A2 0
58 *293:96 *311:30 0.00372339
59 *293:107 *311:30 0
*RES
1 *2344:Z *311:12 48.3767 
2 *311:12 *311:30 43.0138 
3 *311:30 *311:32 2.96392 
4 *311:32 *2067:A2 6.60101 
5 *311:32 *2182:A2 4.9202 
6 *311:30 *2181:A2 4.5 
*END

*D_NET *312 0.0212714
*CONN
*I *2175:A2 I *D gf180mcu_fd_sc_mcu7t5v0__nand2_1
*I *2345:Z O *D gf180mcu_fd_sc_mcu7t5v0__buf_1
*CAP
1 *2175:A2 0.0044478
2 *2345:Z 0.0044478
3 *2175:A2 *2044:A2 0.000814491
4 *2175:A2 *2045:A1 0.00183676
5 *2175:A2 *2045:A2 1.73875e-05
6 *2175:A2 *2175:A1 1.98235e-05
7 *2175:A2 *323:18 0.000214077
8 *2175:A2 *324:12 0
9 *2175:A2 *330:12 0.000428429
10 *2175:A2 *330:27 0.000191849
11 *2175:A2 *369:6 0.000169319
12 *2175:A2 *369:10 0.00138885
13 *2175:A2 *369:236 0.000198235
14 *2175:A2 *369:273 0.000555059
15 *2035:A2 *2175:A2 0.000516656
16 *2035:A3 *2175:A2 3.28366e-05
17 *2044:A1 *2175:A2 0.000232712
18 *2046:A3 *2175:A2 0.000257646
19 *2047:A2 *2175:A2 5.19631e-05
20 *2129:A2 *2175:A2 0
21 *2129:A3 *2175:A2 7.99379e-06
22 *2136:A1 *2175:A2 0.00015751
23 *2142:A1 *2175:A2 0.000157423
24 *2142:A2 *2175:A2 2.19516e-05
25 *2187:A2 *2175:A2 0
26 *2255:D *2175:A2 0.000528203
27 *2255:CLK *2175:A2 0.00015434
28 *2285:D *2175:A2 3.6754e-05
29 *2285:CLK *2175:A2 0.00212695
30 *2287:D *2175:A2 0
31 *2287:CLK *2175:A2 0.000399251
32 *2312:D *2175:A2 0.000357953
33 *2312:CLK *2175:A2 3.9647e-05
34 *234:14 *2175:A2 0
35 *243:10 *2175:A2 0.000885689
36 *306:18 *2175:A2 0
37 *310:18 *2175:A2 0.000576078
*RES
1 *2345:Z *2175:A2 43.0363 
*END

*D_NET *313 0.0448585
*CONN
*I *2170:A2 I *D gf180mcu_fd_sc_mcu7t5v0__nand2_1
*I *2346:Z O *D gf180mcu_fd_sc_mcu7t5v0__buf_1
*CAP
1 *2170:A2 0.000760583
2 *2346:Z 0.00511415
3 *313:20 0.00587473
4 *2170:A2 *2079:B2 0.00199825
5 *2170:A2 *328:118 0.000168291
6 *2170:A2 *369:303 4.20727e-05
7 *313:20 *2059:A1 0.000701471
8 *313:20 *2081:A1 0.000814283
9 *313:20 *2112:A1 0.000463773
10 *313:20 *2112:A2 0.0013836
11 *313:20 *2141:A1 0.000116761
12 *313:20 *2367:I 4.29574e-05
13 *313:20 *328:8 0.000508806
14 *313:20 *328:18 3.9614e-05
15 *313:20 *328:20 0.000400936
16 *313:20 *328:32 0.000235262
17 *313:20 *329:26 5.38383e-05
18 *313:20 *333:10 0.000210363
19 *313:20 *333:12 0.000315544
20 *313:20 *367:8 0.001047
21 *2051:A2 *313:20 0.000243425
22 *2051:A3 *313:20 5.56531e-05
23 *2059:A2 *313:20 9.91176e-05
24 *2080:A1 *313:20 0.000155327
25 *2081:A2 *2170:A2 0.00157747
26 *2114:A2 *313:20 7.92941e-05
27 *2141:A2 *313:20 0.00174534
28 *2248:D *313:20 1.27849e-05
29 *2249:D *313:20 0.000252443
30 *2290:D *313:20 0.00013169
31 *2292:CLK *313:20 0.000197399
32 *2341:I *313:20 0.00151221
33 *2350:I *313:20 4.86578e-05
34 *175:16 *2170:A2 3.9647e-05
35 *291:69 *313:20 1.09562e-05
36 *291:90 *313:20 0.000483213
37 *292:12 *2170:A2 0.000184068
38 *300:28 *313:20 0
39 *303:18 *2170:A2 0
40 *305:16 *313:20 0.0138457
41 *307:36 *2170:A2 0.00389182
*RES
1 *2346:Z *313:20 49.6373 
2 *313:20 *2170:A2 19.9081 
*END

*D_NET *314 0.0185831
*CONN
*I *2165:A2 I *D gf180mcu_fd_sc_mcu7t5v0__nand2_1
*I *2347:Z O *D gf180mcu_fd_sc_mcu7t5v0__buf_1
*CAP
1 *2165:A2 0
2 *2347:Z 0.00517789
3 *314:22 0.00517789
4 *314:22 *2120:A1 0.000291441
5 *314:22 *2122:A2 0.000174024
6 *314:22 *2136:A2 0
7 *314:22 *2160:A2 0
8 *314:22 *2165:A1 7.06447e-05
9 *314:22 *322:16 0
10 *314:22 *364:10 0.000740125
11 *314:22 *369:170 0.000257719
12 *314:22 *369:174 0.000440207
13 *314:22 *369:510 3.38758e-05
14 *314:22 *369:518 0.000474201
15 *2120:A3 *314:22 9.46635e-05
16 *2121:B1 *314:22 0.000116356
17 *2123:A3 *314:22 0.000220246
18 *283:8 *314:22 0.00302525
19 *283:19 *314:22 0.00166286
20 *295:106 *314:22 0.000198164
21 *295:119 *314:22 0.000297353
22 *296:12 *314:22 0.000130162
*RES
1 *2347:Z *314:22 45.8555 
2 *314:22 *2165:A2 4.5 
*END

*D_NET *315 0.0331335
*CONN
*I *2160:A2 I *D gf180mcu_fd_sc_mcu7t5v0__nand2_1
*I *2348:Z O *D gf180mcu_fd_sc_mcu7t5v0__buf_1
*CAP
1 *2160:A2 0.00322966
2 *2348:Z 0.00322966
3 *2160:A2 *2136:A2 0.00536437
4 *2160:A2 *2158:A2 0
5 *2160:A2 *2160:A1 7.06449e-05
6 *2160:A2 *332:26 0.000245424
7 *2160:A2 *332:39 4.6017e-05
8 *2160:A2 *332:54 0.000828306
9 *2160:A2 *369:560 0.000546946
10 *2136:A1 *2160:A2 0.0026296
11 *2159:A2 *2160:A2 0
12 *2277:D *2160:A2 0.000150839
13 *2279:D *2160:A2 0
14 *2279:CLK *2160:A2 0.000212993
15 *276:8 *2160:A2 0.00262961
16 *276:12 *2160:A2 0.00199849
17 *279:10 *2160:A2 0.00241926
18 *311:30 *2160:A2 0.00953173
19 *314:22 *2160:A2 0
*RES
1 *2348:Z *2160:A2 46.4687 
*END

*D_NET *316 0.0296341
*CONN
*I *2155:A2 I *D gf180mcu_fd_sc_mcu7t5v0__nand2_1
*I *2349:Z O *D gf180mcu_fd_sc_mcu7t5v0__buf_1
*CAP
1 *2155:A2 0.00161095
2 *2349:Z 0.00161095
3 *2155:A2 *2155:A1 1.20357e-05
4 *2155:A2 *319:14 0
5 *2155:A2 *332:26 0.00599536
6 *2155:A2 *332:39 0.00599536
7 *2155:A2 *332:54 0.000911573
8 *2155:A2 *369:575 0.00518916
9 *2134:B *2155:A2 7.0121e-05
10 *2142:A2 *2155:A2 0
11 *2156:A1 *2155:A2 3.42636e-05
12 *2279:CLK *2155:A2 0.000525921
13 *2312:CLK *2155:A2 0.00546951
14 *294:65 *2155:A2 0.00220888
*RES
1 *2349:Z *2155:A2 35.0182 
*END

*D_NET *317 0.0208884
*CONN
*I *2053:A2 I *D gf180mcu_fd_sc_mcu7t5v0__aoi21_1
*I *2054:A2 I *D gf180mcu_fd_sc_mcu7t5v0__and3_1
*I *2143:A2 I *D gf180mcu_fd_sc_mcu7t5v0__aoi22_1
*I *2350:Z O *D gf180mcu_fd_sc_mcu7t5v0__buf_1
*CAP
1 *2053:A2 5.12787e-05
2 *2054:A2 2.81848e-05
3 *2143:A2 0.000442331
4 *2350:Z 0.00507529
5 *317:16 0.000595145
6 *317:14 0.00137892
7 *317:12 0.00627831
8 *2053:A2 *2053:A1 1.13277e-05
9 *2143:A2 *2052:A2 5.90845e-06
10 *2143:A2 *2054:A1 3.38758e-05
11 *2143:A2 *2143:A1 0.000304882
12 *2143:A2 *334:177 7.0121e-05
13 *2143:A2 *359:8 4.86578e-06
14 *2143:A2 *359:10 3.30178e-05
15 *317:14 *334:248 0.00126218
16 *2053:B *317:14 0.00105183
17 *2053:B *317:16 0.00136742
18 *2251:D *2143:A2 0
19 *2251:D *317:14 0
20 *2251:D *317:16 0
21 *249:12 *2143:A2 0.00257564
22 *249:12 *317:16 0.000210373
23 *293:14 *317:14 0
24 *305:34 *317:12 0.000107435
*RES
1 *2350:Z *317:12 42.6868 
2 *317:12 *317:14 8.50908 
3 *317:14 *317:16 1.57576 
4 *317:16 *2143:A2 11.8364 
5 *317:16 *2054:A2 9.2101 
6 *317:14 *2053:A2 9.18759 
*END

*D_NET *318 0.0188177
*CONN
*I *2150:A2 I *D gf180mcu_fd_sc_mcu7t5v0__nand2_1
*I *2351:Z O *D gf180mcu_fd_sc_mcu7t5v0__buf_1
*CAP
1 *2150:A2 0.00150044
2 *2351:Z 0.00150044
3 *2150:A2 *2150:A1 2.05675e-05
4 *2150:A2 *2156:A2 0
5 *2150:A2 *319:14 9.2034e-05
6 *2150:A2 *323:12 0.000988709
7 *2061:A2 *2150:A2 0
8 *2142:A2 *2150:A2 9.46635e-05
9 *2156:A1 *2150:A2 0
10 *311:12 *2150:A2 0.0146208
11 *311:30 *2150:A2 0
*RES
1 *2351:Z *2150:A2 34.1778 
*END

*D_NET *319 0.0290912
*CONN
*I *2134:A2 I *D gf180mcu_fd_sc_mcu7t5v0__aoi21_1
*I *2133:A2 I *D gf180mcu_fd_sc_mcu7t5v0__and3_1
*I *2352:Z O *D gf180mcu_fd_sc_mcu7t5v0__buf_1
*CAP
1 *2134:A2 0
2 *2133:A2 0.00028655
3 *2352:Z 0.00128058
4 *319:14 0.00156713
5 *2133:A2 *2136:A2 0.00188642
6 *2133:A2 *324:12 0.00328269
7 *319:14 *2136:A2 0.00206947
8 *319:14 *321:22 0.00410215
9 *319:14 *323:12 0.00936142
10 *319:14 *324:12 0.00195312
11 *2133:A3 *2133:A2 0.00040651
12 *2142:A2 *319:14 0.00157776
13 *2150:A2 *319:14 9.2034e-05
14 *2155:A2 *319:14 0
15 *2280:D *319:14 0
16 *2312:CLK *319:14 0
17 *2349:I *319:14 0.000178376
18 *2359:I *319:14 0.001047
*RES
1 *2352:Z *319:14 26.2936 
2 *319:14 *2133:A2 7.67402 
3 *319:14 *2134:A2 4.5 
*END

*D_NET *320 0.0489663
*CONN
*I *2130:A2 I *D gf180mcu_fd_sc_mcu7t5v0__aoi22_1
*I *2050:A2 I *D gf180mcu_fd_sc_mcu7t5v0__and3_1
*I *2049:A2 I *D gf180mcu_fd_sc_mcu7t5v0__aoi21_1
*I *2353:Z O *D gf180mcu_fd_sc_mcu7t5v0__buf_1
*CAP
1 *2130:A2 3.41845e-05
2 *2050:A2 3.01486e-05
3 *2049:A2 0.000297107
4 *2353:Z 0.00333157
5 *320:28 0.00127486
6 *320:20 0.00431336
7 *2049:A2 *328:18 0.000104285
8 *2049:A2 *369:329 4.0509e-05
9 *2049:A2 *369:350 0.000556639
10 *2130:A2 *2130:A1 4.8682e-05
11 *320:20 *2115:A1 0.000128847
12 *320:20 *2115:A2 0
13 *320:20 *2137:A2 0.000581572
14 *320:20 *325:14 0.00198232
15 *320:20 *325:16 0.000178412
16 *320:28 *2130:A1 0.00431257
17 *320:28 *369:350 5.25909e-06
18 *2049:B *2049:A2 7.92941e-05
19 *2049:B *320:28 1.98235e-05
20 *2051:A3 *320:28 0
21 *2115:B1 *320:20 0.000214231
22 *2117:A2 *320:20 0.000814493
23 *2245:B *320:20 6.04925e-05
24 *2247:A2 *320:20 3.52864e-05
25 *2289:D *320:20 0.00197805
26 *2329:I *320:20 0.00065389
27 *2334:I *320:20 0.000318571
28 *2347:I *320:20 0.00347463
29 *2362:I *320:20 0.000270058
30 *246:12 *320:28 0.00017355
31 *280:10 *320:20 0
32 *280:16 *320:20 0
33 *280:16 *320:28 0
34 *294:43 *320:20 0.00416367
35 *294:52 *320:20 0.00805329
36 *304:16 *2049:A2 0.000785036
37 *304:16 *320:28 0.00139627
38 *308:26 *320:28 0
39 *309:18 *320:20 0.00925534
*RES
1 *2353:Z *320:20 37.8889 
2 *320:20 *320:28 11.3283 
3 *320:28 *2049:A2 6.7886 
4 *320:28 *2050:A2 4.7101 
5 *320:20 *2130:A2 9.20447 
*END

*D_NET *321 0.0498643
*CONN
*I *2127:A2 I *D gf180mcu_fd_sc_mcu7t5v0__aoi22_1
*I *2045:A2 I *D gf180mcu_fd_sc_mcu7t5v0__aoi21_1
*I *2046:A2 I *D gf180mcu_fd_sc_mcu7t5v0__and3_1
*I *2354:Z O *D gf180mcu_fd_sc_mcu7t5v0__buf_1
*CAP
1 *2127:A2 0.00116637
2 *2045:A2 3.02412e-05
3 *2046:A2 0.000407262
4 *2354:Z 0.00434613
5 *321:41 0.00147586
6 *321:24 0.001824
7 *321:22 0.00548361
8 *2045:A2 *2045:A1 1.13277e-05
9 *2127:A2 *2044:A2 0
10 *2127:A2 *2127:B2 7.68304e-05
11 *2127:A2 *2128:A2 7.15957e-05
12 *2127:A2 *362:14 0
13 *2127:A2 *369:273 0
14 *321:22 *2033:A1 0.00174534
15 *321:22 *322:16 0.00174534
16 *321:22 *323:12 0.00988694
17 *321:22 *331:27 0
18 *321:22 *332:16 0.00248933
19 *321:22 *365:20 0.000338758
20 *321:41 *331:53 0
21 *2046:A3 *2046:A2 0.000244793
22 *2046:A3 *2127:A2 0.00105183
23 *2046:A3 *321:41 0.00199847
24 *2047:A2 *2127:A2 0.000175302
25 *2047:A2 *321:24 0.000218059
26 *2047:A2 *321:41 0.000666149
27 *2047:A3 *321:24 0.000157423
28 *2127:B1 *2127:A2 1.29001e-05
29 *2136:A1 *321:22 6.77516e-05
30 *2175:A2 *2045:A2 1.73875e-05
31 *2252:D *321:41 5.91647e-05
32 *2280:D *321:22 0
33 *2281:CLK *321:22 0
34 *2285:D *2127:A2 0
35 *2312:CLK *321:22 0
36 *2327:I *321:22 0.000169379
37 *2340:I *321:22 0.000349069
38 *2355:I *321:22 0.00120426
39 *151:12 *321:22 0.00136739
40 *281:8 *2127:A2 3.30178e-05
41 *292:38 *321:41 0.000280484
42 *294:65 *321:22 0
43 *302:18 *321:22 0.0001849
44 *306:18 *321:22 2.19516e-05
45 *306:18 *321:24 7.78525e-05
46 *307:28 *2046:A2 1.45974e-05
47 *307:28 *321:22 0.00244604
48 *307:28 *321:24 6.8121e-05
49 *308:18 *321:22 0.00368111
50 *310:18 *2045:A2 9.58413e-05
51 *319:14 *321:22 0.00410215
*RES
1 *2354:Z *321:22 48.0616 
2 *321:22 *321:24 6.19797 
3 *321:24 *2046:A2 6.91616 
4 *321:24 *321:41 7.33636 
5 *321:41 *2045:A2 9.18759 
6 *321:41 *2127:A2 15.8058 
*END

*D_NET *322 0.028178
*CONN
*I *2124:A2 I *D gf180mcu_fd_sc_mcu7t5v0__aoi22_1
*I *2042:A2 I *D gf180mcu_fd_sc_mcu7t5v0__and3_1
*I *2041:A2 I *D gf180mcu_fd_sc_mcu7t5v0__aoi21_1
*I *2355:Z O *D gf180mcu_fd_sc_mcu7t5v0__buf_1
*CAP
1 *2124:A2 0.000714006
2 *2042:A2 0.000183227
3 *2041:A2 0.000242229
4 *2355:Z 0.00481908
5 *322:22 0.00124218
6 *322:16 0.00634982
7 *2041:A2 *369:222 0.00176516
8 *2041:A2 *369:226 1.55756e-05
9 *2042:A2 *362:12 2.10363e-05
10 *2042:A2 *369:212 0.000315545
11 *2124:A2 *2040:A2 8.62382e-06
12 *2124:A2 *363:12 8.58267e-05
13 *322:16 *2039:A1 0
14 *322:16 *2158:A2 0
15 *322:16 *330:12 3.15545e-05
16 *322:16 *358:10 0
17 *322:16 *363:12 0
18 *322:16 *369:16 0.00241918
19 *322:16 *369:160 0.00199845
20 *322:22 *363:12 0
21 *322:22 *369:212 0.00255983
22 *322:22 *369:222 0.000232712
23 *2043:A2 *2042:A2 2.86383e-05
24 *2043:A2 *322:22 0.000542013
25 *2043:A3 *322:22 0.00139606
26 *2126:A2 *2124:A2 0.000274574
27 *2254:D *322:16 0
28 *2277:D *322:16 0
29 *2277:CLK *322:16 0.000207779
30 *171:10 *2124:A2 0.000248492
31 *171:10 *322:22 8.28306e-05
32 *307:28 *322:16 0.000508137
33 *311:30 *2124:A2 0.000140097
34 *314:22 *322:16 0
35 *321:22 *322:16 0.00174534
*RES
1 *2355:Z *322:16 46.6788 
2 *322:16 *322:22 9.33232 
3 *322:22 *2041:A2 6.5785 
4 *322:22 *2042:A2 14.4455 
5 *322:16 *2124:A2 12.6543 
*END

*D_NET *323 0.0586298
*CONN
*I *2037:A2 I *D gf180mcu_fd_sc_mcu7t5v0__aoi21_1
*I *2038:A2 I *D gf180mcu_fd_sc_mcu7t5v0__and3_1
*I *2121:A2 I *D gf180mcu_fd_sc_mcu7t5v0__aoi22_1
*I *2356:Z O *D gf180mcu_fd_sc_mcu7t5v0__buf_1
*CAP
1 *2037:A2 0.00018918
2 *2038:A2 0.000177555
3 *2121:A2 0.000208263
4 *2356:Z 0.00212238
5 *323:29 0.00076144
6 *323:18 0.00239568
7 *323:12 0.00391509
8 *2037:A2 *2039:A1 0.000350605
9 *2037:A2 *369:518 0.000385665
10 *2121:A2 *2121:A1 0.000581572
11 *2121:A2 *2121:B2 7.44785e-06
12 *2121:A2 *330:31 0.000685463
13 *2121:A2 *369:170 3.96116e-05
14 *2121:A2 *369:174 3.9647e-05
15 *323:12 *2137:A2 0.00410218
16 *323:12 *2239:A1 0.000581571
17 *323:12 *2366:I 0.000147255
18 *323:12 *335:10 0.000504798
19 *323:12 *335:12 0.000350605
20 *323:12 *335:14 0.00108687
21 *323:18 *2121:A1 0.000315545
22 *323:18 *2133:A1 0.00221076
23 *323:18 *324:12 0.00159204
24 *323:18 *330:12 0.000143191
25 *323:18 *330:27 0.00188443
26 *323:18 *369:166 0.00430496
27 *323:29 *2039:A1 0.000560968
28 *323:29 *2121:A1 0.00063109
29 *323:29 *369:166 0
30 *323:29 *369:510 0
31 *323:29 *369:518 0.000175302
32 *2038:A3 *2038:A2 0.00106614
33 *2039:A3 *2037:A2 0.000672996
34 *2150:A2 *323:12 0.000988709
35 *2175:A2 *323:18 0.000214077
36 *2312:D *323:18 0.000846835
37 *2329:I *323:12 0.000126218
38 *2344:I *323:12 0.000378655
39 *2350:I *323:12 0.000138694
40 *237:6 *2037:A2 8.28208e-05
41 *237:6 *2038:A2 0.000814286
42 *295:106 *2038:A2 0.000348861
43 *295:119 *2038:A2 0.00197784
44 *297:16 *323:12 0
45 *299:10 *323:12 9.73157e-06
46 *308:18 *323:12 0.000420726
47 *311:12 *323:12 0.000843645
48 *319:14 *323:12 0.00936142
49 *321:22 *323:12 0.00988694
*RES
1 *2356:Z *323:12 37.2414 
2 *323:12 *323:18 19.6273 
3 *323:18 *2121:A2 10.0392 
4 *323:18 *323:29 2.41616 
5 *323:29 *2038:A2 11.2061 
6 *323:29 *2037:A2 10.7633 
*END

*D_NET *324 0.0298227
*CONN
*I *2034:A2 I *D gf180mcu_fd_sc_mcu7t5v0__and3_1
*I *2033:A2 I *D gf180mcu_fd_sc_mcu7t5v0__aoi21_1
*I *2118:A2 I *D gf180mcu_fd_sc_mcu7t5v0__aoi22_1
*I *2357:Z O *D gf180mcu_fd_sc_mcu7t5v0__buf_1
*CAP
1 *2034:A2 5.6375e-05
2 *2033:A2 0.000124648
3 *2118:A2 0.000679888
4 *2357:Z 0.00220378
5 *324:14 0.000872713
6 *324:12 0.00232834
7 *2118:A2 *2033:A1 2.36659e-05
8 *2118:A2 *326:14 0.00208818
9 *2118:A2 *331:27 0.000203255
10 *2118:A2 *365:20 0.000525909
11 *2118:A2 *369:27 0.000210363
12 *2118:A2 *369:29 0.000946633
13 *324:12 *2033:A1 1.18329e-05
14 *324:12 *2133:A1 0.00232691
15 *324:12 *2136:A2 0.000271006
16 *324:12 *330:12 0
17 *324:12 *369:166 0.00317688
18 *324:14 *365:20 0.000280484
19 *324:14 *369:27 3.50605e-05
20 *2032:A1 *324:12 6.31091e-05
21 *2032:A1 *324:14 8.41455e-05
22 *2033:B *2034:A2 0.000101627
23 *2035:A2 *324:12 0.00178809
24 *2133:A2 *324:12 0.00328269
25 *2175:A2 *324:12 0
26 *234:14 *324:12 7.6695e-05
27 *284:12 *2118:A2 0.00139004
28 *306:18 *2033:A2 0.00137113
29 *306:18 *2034:A2 0.000382944
30 *307:28 *2033:A2 0.00137113
31 *319:14 *324:12 0.00195312
32 *323:18 *324:12 0.00159204
*RES
1 *2357:Z *324:12 23.8121 
2 *324:12 *324:14 0.525252 
3 *324:14 *2118:A2 14.3519 
4 *324:14 *2033:A2 10.2381 
5 *324:12 *2034:A2 9.52525 
*END

*D_NET *325 0.0222428
*CONN
*I *2246:A2 I *D gf180mcu_fd_sc_mcu7t5v0__and3_1
*I *2245:A2 I *D gf180mcu_fd_sc_mcu7t5v0__aoi21_1
*I *2115:A2 I *D gf180mcu_fd_sc_mcu7t5v0__aoi22_1
*I *2358:Z O *D gf180mcu_fd_sc_mcu7t5v0__buf_1
*CAP
1 *2246:A2 0.000609451
2 *2245:A2 0
3 *2115:A2 0.000489882
4 *2358:Z 0.00269396
5 *325:16 0.000822569
6 *325:14 0.0036361
7 *2115:A2 *2115:A1 0.00022271
8 *2115:A2 *2116:A2 0.000361562
9 *2115:A2 *2245:A1 1.55756e-05
10 *2115:A2 *366:21 0.000770148
11 *325:14 *2241:A1 0
12 *325:14 *329:14 9.8782e-05
13 *325:14 *369:37 0
14 *2117:A2 *2115:A2 0.000220245
15 *2138:A1 *325:14 0.000153661
16 *2140:A1 *325:14 0.000107373
17 *2141:A2 *325:14 0.000252436
18 *2241:B *325:14 1.95996e-05
19 *2243:A2 *325:14 0
20 *2247:A2 *325:16 4.88508e-05
21 *2257:D *325:14 0
22 *2257:D *325:16 0
23 *2281:CLK *325:14 0.000283991
24 *2289:CLK *2115:A2 0.00118849
25 *2289:CLK *325:16 0.000556639
26 *2331:I *325:14 0.000304882
27 *2347:I *325:14 0.000508077
28 *2358:I *325:14 0.00019325
29 *255:8 *325:14 0.00015339
30 *255:23 *325:14 0.000197544
31 *294:37 *2246:A2 1.09758e-05
32 *294:43 *2246:A2 0
33 *294:87 *2246:A2 0
34 *295:16 *2115:A2 6.1356e-05
35 *302:20 *2246:A2 0.001157
36 *309:12 *325:14 0.00494362
37 *320:20 *2115:A2 0
38 *320:20 *325:14 0.00198232
39 *320:20 *325:16 0.000178412
*RES
1 *2358:Z *325:14 32.7242 
2 *325:14 *325:16 1.6583 
3 *325:16 *2115:A2 16.7678 
4 *325:16 *2245:A2 4.5 
5 *325:14 *2246:A2 17.1768 
*END

*D_NET *326 0.0255463
*CONN
*I *2241:A2 I *D gf180mcu_fd_sc_mcu7t5v0__aoi21_1
*I *2242:A2 I *D gf180mcu_fd_sc_mcu7t5v0__and3_1
*I *2112:A2 I *D gf180mcu_fd_sc_mcu7t5v0__aoi22_1
*I *2359:Z O *D gf180mcu_fd_sc_mcu7t5v0__buf_1
*CAP
1 *2241:A2 5.41719e-05
2 *2242:A2 9.43798e-05
3 *2112:A2 0.000942005
4 *2359:Z 0.00221599
5 *326:16 0.00117973
6 *326:14 0.00241351
7 *2112:A2 *2112:A1 4.6852e-05
8 *2112:A2 *2240:A2 0.000189327
9 *2112:A2 *2242:A1 0.000147255
10 *2112:A2 *367:8 2.35195e-06
11 *2112:A2 *367:16 1.58416e-05
12 *326:14 *2118:A1 0.00178499
13 *326:14 *2119:A2 9.45259e-05
14 *326:14 *331:6 0.000529782
15 *326:14 *331:23 2.74394e-06
16 *326:14 *331:27 0.000158588
17 *326:14 *369:29 1.05182e-05
18 *326:14 *369:31 8.41454e-05
19 *326:14 *369:37 0.000220882
20 *326:14 *369:48 0.000147255
21 *326:14 *369:97 0
22 *326:16 *2242:A1 6.31091e-05
23 *326:16 *369:48 0.000252436
24 *2114:A2 *2112:A2 0.000269378
25 *2118:A2 *326:14 0.00208818
26 *2119:A1 *326:14 0.000301443
27 *2120:A3 *326:14 3.75231e-05
28 *2241:B *326:14 0.00105199
29 *2241:B *326:16 0.00136715
30 *2243:A2 *2241:A2 0.000128244
31 *228:10 *2112:A2 0.00136759
32 *228:10 *326:16 0.000210399
33 *284:12 *326:14 3.56906e-05
34 *286:10 *2112:A2 0.000280421
35 *286:12 *2112:A2 0.000595966
36 *300:22 *326:14 0.00523581
37 *300:28 *2112:A2 0
38 *303:16 *2241:A2 0.000357693
39 *303:16 *2242:A2 4.36074e-05
40 *308:18 *2242:A2 0.000141274
41 *313:20 *2112:A2 0.0013836
*RES
1 *2359:Z *326:14 24.9677 
2 *326:14 *326:16 1.57576 
3 *326:16 *2112:A2 14.1362 
4 *326:16 *2242:A2 9.52525 
5 *326:14 *2241:A2 9.39769 
*END

*D_NET *327 0.0146026
*CONN
*I *2136:A2 I *D gf180mcu_fd_sc_mcu7t5v0__and2_1
*I *2360:Z O *D gf180mcu_fd_sc_mcu7t5v0__buf_1
*CAP
1 *2136:A2 0.00136069
2 *2360:Z 0.00136069
3 *2133:A2 *2136:A2 0.00188642
4 *2133:A3 *2136:A2 0.000581781
5 *2134:B *2136:A2 0.00139606
6 *2135:A3 *2136:A2 8.34797e-05
7 *2142:A2 *2136:A2 0.000228679
8 *2160:A2 *2136:A2 0.00536437
9 *314:22 *2136:A2 0
10 *319:14 *2136:A2 0.00206947
11 *324:12 *2136:A2 0.000271006
*RES
1 *2360:Z *2136:A2 28.6101 
*END

*D_NET *328 0.0903372
*CONN
*I *2051:A1 I *D gf180mcu_fd_sc_mcu7t5v0__nor3_1
*I *2132:A1 I *D gf180mcu_fd_sc_mcu7t5v0__nor3_1
*I *2081:A1 I *D gf180mcu_fd_sc_mcu7t5v0__nor3_1
*I *2148:A1 I *D gf180mcu_fd_sc_mcu7t5v0__nor3_1
*I *2207:A1 I *D gf180mcu_fd_sc_mcu7t5v0__nor3_1
*I *2087:A1 I *D gf180mcu_fd_sc_mcu7t5v0__nor3_1
*I *2084:A1 I *D gf180mcu_fd_sc_mcu7t5v0__nor3_1
*I *2203:A1 I *D gf180mcu_fd_sc_mcu7t5v0__nor3_1
*I *2199:A1 I *D gf180mcu_fd_sc_mcu7t5v0__nor3_1
*I *2055:A1 I *D gf180mcu_fd_sc_mcu7t5v0__nor3_1
*I *2145:A1 I *D gf180mcu_fd_sc_mcu7t5v0__nor3_1
*I *2075:A1 I *D gf180mcu_fd_sc_mcu7t5v0__nor3_1
*I *2174:A1 I *D gf180mcu_fd_sc_mcu7t5v0__nor2_1
*I *2064:C I *D gf180mcu_fd_sc_mcu7t5v0__aoi211_1
*I *2191:A1 I *D gf180mcu_fd_sc_mcu7t5v0__nor3_1
*I *2078:A1 I *D gf180mcu_fd_sc_mcu7t5v0__nor3_1
*I *2195:A1 I *D gf180mcu_fd_sc_mcu7t5v0__nor3_1
*I *2376:Z O *D gf180mcu_fd_sc_mcu7t5v0__buf_4
*CAP
1 *2051:A1 2.4442e-05
2 *2132:A1 0.00124791
3 *2081:A1 0.000311132
4 *2148:A1 0.00178472
5 *2207:A1 0.000506957
6 *2087:A1 5.31068e-05
7 *2084:A1 0.000256743
8 *2203:A1 0
9 *2199:A1 5.63696e-05
10 *2055:A1 1.65403e-05
11 *2145:A1 0.000799368
12 *2075:A1 0.000179418
13 *2174:A1 0.000434869
14 *2064:C 0.000423063
15 *2191:A1 0.000351455
16 *2078:A1 0.00111944
17 *2195:A1 8.73808e-05
18 *2376:Z 0.000785147
19 *328:199 0.000944883
20 *328:173 0.00125477
21 *328:161 0.00187085
22 *328:152 0.00119171
23 *328:128 0.00125136
24 *328:122 0.00126429
25 *328:120 0.00253932
26 *328:118 0.00103631
27 *328:83 0.0017929
28 *328:79 0.00180264
29 *328:64 0.00182669
30 *328:45 0.00246729
31 *328:32 0.00200618
32 *328:20 0.00199903
33 *328:18 0.00239041
34 *328:8 0.00146308
35 *2078:A1 *2076:A1 2.86383e-05
36 *2078:A1 *2077:A2 2.19516e-05
37 *2145:A1 *334:173 0.0006942
38 *2148:A1 *334:248 0.00105015
39 *2148:A1 *334:269 0.00040651
40 *2148:A1 *348:6 0.000277529
41 *2174:A1 *355:10 0
42 *2195:A1 *334:10 0
43 *2207:A1 *2085:A1 0.000202037
44 *328:8 *2059:A1 0.000178376
45 *328:8 *2130:A1 0.000229106
46 *328:18 *369:329 0.000172065
47 *328:20 *2368:I 0.000417636
48 *328:20 *369:316 5.93672e-05
49 *328:20 *369:329 0
50 *328:32 *2079:B2 0.000574379
51 *328:32 *334:10 0
52 *328:32 *369:316 1.45974e-05
53 *328:45 *334:25 0
54 *328:83 *2171:A2 0.000575828
55 *328:118 *2079:B2 3.50605e-05
56 *328:152 *2198:A1 0.00093064
57 *328:161 *334:43 0.000107039
58 *328:161 *334:51 1.33277e-05
59 *328:173 *2200:A2 1.78991e-05
60 *328:173 *2201:A1 0.000229811
61 *328:173 *334:43 0.000233135
62 *2049:A2 *328:18 0.000104285
63 *2051:A2 *328:18 0.00144551
64 *2051:A3 *328:8 1.27437e-05
65 *2051:A3 *328:18 1.98235e-05
66 *2055:A2 *2055:A1 6.77516e-05
67 *2064:B *2064:C 0.00162898
68 *2075:A3 *328:79 0.000138051
69 *2076:A2 *2078:A1 0.000193974
70 *2077:A1 *2078:A1 2.19516e-05
71 *2078:A2 *2078:A1 0.000193987
72 *2078:A3 *2078:A1 0.000196111
73 *2079:B1 *328:32 0.000134464
74 *2080:A1 *2081:A1 0.00151242
75 *2081:A2 *2081:A1 0.000237882
76 *2081:A2 *328:118 1.5339e-05
77 *2081:A2 *328:120 7.6695e-05
78 *2084:A2 *2084:A1 0.00105246
79 *2084:A2 *328:173 0.000135503
80 *2084:A3 *2084:A1 5.91647e-05
81 *2085:A2 *2207:A1 0.000625105
82 *2087:A2 *2207:A1 0.00368149
83 *2132:A2 *2132:A1 0.000116356
84 *2132:A3 *2132:A1 0.000254634
85 *2145:A2 *2145:A1 0.000272158
86 *2170:A2 *328:118 0.000168291
87 *2171:A1 *2064:C 0.000399251
88 *2173:A1 *328:83 0.00015751
89 *2173:A3 *328:79 0
90 *2174:A2 *2174:A1 3.9647e-05
91 *2174:A2 *328:83 0
92 *2191:A2 *2191:A1 6.77516e-05
93 *2191:A3 *2191:A1 3.25672e-05
94 *2193:B *2078:A1 6.04925e-05
95 *2195:A2 *2195:A1 9.73157e-06
96 *2196:A1 *328:120 7.88863e-05
97 *2197:A2 *328:152 0.00023707
98 *2197:A2 *328:161 0.000128244
99 *2197:B *328:152 0
100 *2198:A2 *328:152 0.000135503
101 *2199:A2 *328:161 0.000127756
102 *2199:A3 *328:152 3.29273e-05
103 *2199:A3 *328:161 2.19516e-05
104 *2201:A2 *328:173 0.00098854
105 *2203:A2 *2084:A1 3.50605e-05
106 *2203:A2 *328:173 0.00169132
107 *2203:A3 *328:173 0.000185551
108 *2250:D *328:128 0.000169379
109 *2250:CLK *2145:A1 3.68136e-05
110 *2250:CLK *328:128 0.000230491
111 *2250:CLK *328:152 0
112 *2266:D *2207:A1 2.86383e-05
113 *2267:D *328:173 6.77516e-05
114 *2268:D *328:161 0.000143191
115 *2269:D *2195:A1 5.94706e-05
116 *2269:D *328:32 0.000436082
117 *2270:D *2191:A1 0.00064364
118 *2270:CLK *2078:A1 0
119 *2274:CLK *2174:A1 0.00021609
120 *2282:D *2148:A1 0
121 *2282:CLK *328:128 4.91792e-05
122 *2300:CLK *328:161 0
123 *2300:CLK *328:173 0
124 *2307:D *2064:C 7.50462e-05
125 *175:16 *2191:A1 0
126 *175:16 *328:64 0.00157777
127 *175:16 *328:79 0.00252446
128 *192:8 *2078:A1 0.000575889
129 *265:12 *2084:A1 9.8782e-05
130 *268:16 *2078:A1 2.19516e-05
131 *273:23 *2064:C 0.000203255
132 *289:34 *328:152 0
133 *289:38 *328:122 4.73318e-05
134 *289:38 *328:128 0.000106496
135 *289:42 *328:128 2.38076e-05
136 *289:42 *328:152 0.000372573
137 *289:56 *328:120 0.000118329
138 *289:56 *328:122 0.000319489
139 *289:71 *328:120 0.000366821
140 *292:12 *328:118 0.00115701
141 *292:12 *328:120 0.00641608
142 *292:12 *328:122 0.00326063
143 *292:12 *328:128 0.000946636
144 *292:76 *2174:A1 0.000315545
145 *292:78 *2064:C 0.00136737
146 *292:78 *2174:A1 0.00315556
147 *293:14 *2132:A1 0.000967636
148 *293:14 *2145:A1 0
149 *303:16 *2132:A1 0
150 *303:18 *2132:A1 0
151 *303:18 *2145:A1 0.0001157
152 *304:16 *328:8 0.000450007
153 *304:16 *328:18 3.29273e-05
154 *304:20 *2207:A1 0.000981693
155 *304:20 *328:45 0.000595966
156 *304:20 *328:199 0.000757309
157 *307:48 *328:32 0.000120734
158 *308:26 *2078:A1 0.000380859
159 *313:20 *2081:A1 0.000814283
160 *313:20 *328:8 0.000508806
161 *313:20 *328:18 3.9614e-05
162 *313:20 *328:20 0.000400936
163 *313:20 *328:32 0.000235262
*RES
1 *2376:Z *328:8 11.0131 
2 *328:8 *328:18 4.72727 
3 *328:18 *328:20 3.04646 
4 *328:20 *328:32 8.19393 
5 *328:32 *2195:A1 5.02525 
6 *328:32 *328:45 7.33636 
7 *328:45 *2078:A1 16.8788 
8 *328:45 *328:64 4.62222 
9 *328:64 *2191:A1 11.6263 
10 *328:64 *328:79 9.64747 
11 *328:79 *328:83 9.43737 
12 *328:83 *2064:C 12.2341 
13 *328:83 *2174:A1 12.8719 
14 *328:79 *2075:A1 5.23535 
15 *328:20 *328:118 5.65555 
16 *328:118 *328:120 6.40807 
17 *328:120 *328:122 3.25656 
18 *328:122 *328:128 7.65151 
19 *328:128 *2145:A1 19.4879 
20 *328:128 *2055:A1 4.7101 
21 *328:122 *328:152 8.17676 
22 *328:152 *2199:A1 4.9202 
23 *328:152 *328:161 3.04646 
24 *328:161 *328:173 15.6182 
25 *328:173 *2203:A1 4.5 
26 *328:173 *2084:A1 15.3909 
27 *328:161 *328:199 8.38686 
28 *328:199 *2087:A1 9.2101 
29 *328:199 *2207:A1 14.5677 
30 *328:120 *2148:A1 18.6646 
31 *328:118 *2081:A1 12.0465 
32 *328:18 *2132:A1 19.803 
33 *328:8 *2051:A1 4.7101 
*END

*D_NET *329 0.0738381
*CONN
*I *2114:A1 I *D gf180mcu_fd_sc_mcu7t5v0__nor3_1
*I *2243:A1 I *D gf180mcu_fd_sc_mcu7t5v0__nor3_1
*I *2111:A1 I *D gf180mcu_fd_sc_mcu7t5v0__nor3_1
*I *2235:A1 I *D gf180mcu_fd_sc_mcu7t5v0__nor3_1
*I *2096:A1 I *D gf180mcu_fd_sc_mcu7t5v0__nor3_1
*I *2215:A1 I *D gf180mcu_fd_sc_mcu7t5v0__nor3_1
*I *2223:A1 I *D gf180mcu_fd_sc_mcu7t5v0__nor3_1
*I *2211:A1 I *D gf180mcu_fd_sc_mcu7t5v0__nor3_1
*I *2090:A1 I *D gf180mcu_fd_sc_mcu7t5v0__nor3_1
*I *2093:A1 I *D gf180mcu_fd_sc_mcu7t5v0__nor3_1
*I *2219:A1 I *D gf180mcu_fd_sc_mcu7t5v0__nor3_1
*I *2376:I I *D gf180mcu_fd_sc_mcu7t5v0__buf_4
*I *2059:A1 I *D gf180mcu_fd_sc_mcu7t5v0__nor3_1
*I *2363:Z O *D gf180mcu_fd_sc_mcu7t5v0__buf_4
*CAP
1 *2114:A1 0.000236978
2 *2243:A1 0.000900186
3 *2111:A1 0.000128082
4 *2235:A1 0.00041886
5 *2096:A1 2.23626e-05
6 *2215:A1 0.00047484
7 *2223:A1 0.000622175
8 *2211:A1 0.000525224
9 *2090:A1 0.000465332
10 *2093:A1 5.63696e-05
11 *2219:A1 2.81848e-05
12 *2376:I 0
13 *2059:A1 0.000320903
14 *2363:Z 0.0016833
15 *329:96 0.002429
16 *329:83 0.00356373
17 *329:77 0.00279889
18 *329:75 0.000946853
19 *329:73 0.00116952
20 *329:60 0.00176337
21 *329:54 0.00174061
22 *329:52 0.00111165
23 *329:26 0.00107306
24 *329:24 0.00174549
25 *329:18 0.00146245
26 *329:14 0.00210327
27 *2223:A1 *342:12 0.000131376
28 *329:14 *2240:A2 0.000372573
29 *329:83 *2091:B2 0.00314161
30 *329:96 *2091:B2 0.000581781
31 *2090:A2 *2090:A1 0.00023707
32 *2092:A1 *329:83 0.000465425
33 *2093:A3 *329:83 0.000241376
34 *2093:A3 *329:96 3.99832e-05
35 *2211:A2 *2211:A1 1.98235e-05
36 *2211:A3 *2211:A1 0.00073634
37 *2213:B *2223:A1 0
38 *2215:A3 *329:83 0
39 *2219:A2 *329:73 1.43191e-05
40 *2223:A3 *2223:A1 1.09758e-05
41 *2235:A3 *2235:A1 2.78712e-05
42 *2240:A1 *329:14 6.77516e-05
43 *2241:B *2243:A1 0
44 *2243:A2 *2243:A1 6.77516e-05
45 *2249:D *2059:A1 4.29574e-05
46 *2259:D *2235:A1 0.000169379
47 *2262:D *2223:A1 5.94706e-05
48 *2263:D *329:73 0.00161278
49 *2263:D *329:75 0.00105181
50 *2263:D *329:77 0.00196348
51 *2263:D *329:83 0.00241925
52 *2264:D *2215:A1 7.15957e-05
53 *2291:CLK *2235:A1 0
54 *2296:D *2096:A1 3.38758e-05
55 *2296:CLK *2215:A1 0
56 *2331:I *329:14 0.000138765
57 *2337:I *329:14 0.000914526
58 *2342:I *329:14 0.00151242
59 *2344:I *329:14 0.000349069
60 *228:10 *2243:A1 0
61 *261:12 *329:73 0.000153828
62 *286:10 *2243:A1 5.25909e-05
63 *286:12 *2114:A1 0.00136695
64 *286:12 *2243:A1 2.1027e-05
65 *287:15 *329:96 0
66 *287:19 *329:96 0
67 *287:21 *329:96 0
68 *287:26 *329:96 0
69 *287:30 *329:96 0
70 *287:32 *329:96 0
71 *287:37 *329:96 0
72 *287:75 *329:83 0
73 *287:79 *329:83 0
74 *287:86 *329:83 0
75 *287:91 *329:83 0
76 *288:10 *2090:A1 0.000415229
77 *291:25 *2235:A1 0
78 *294:12 *2243:A1 0
79 *294:12 *329:24 0
80 *294:12 *329:52 0.00725759
81 *294:12 *329:54 0.00494354
82 *294:12 *329:60 0.001157
83 *295:14 *329:73 0.000210363
84 *295:14 *329:75 0.000163032
85 *295:14 *329:77 0.000235344
86 *295:14 *329:83 5.91647e-05
87 *297:16 *329:14 2.19516e-05
88 *301:18 *2059:A1 0.000736284
89 *302:20 *329:52 0.000357618
90 *302:20 *329:54 0.000241918
91 *302:20 *329:60 5.78499e-05
92 *304:16 *2059:A1 0
93 *304:16 *329:14 0.000825404
94 *304:16 *329:18 0.000120734
95 *304:16 *329:24 0
96 *304:16 *329:26 0
97 *305:16 *2059:A1 2.62954e-05
98 *305:16 *329:14 0.000644361
99 *305:16 *329:18 0.000143191
100 *305:16 *329:24 0.00232712
101 *305:16 *329:26 0.00570123
102 *308:18 *329:14 0
103 *309:12 *329:14 0.00127992
104 *313:20 *2059:A1 0.000701471
105 *313:20 *329:26 5.38383e-05
106 *325:14 *329:14 9.8782e-05
107 *328:8 *2059:A1 0.000178376
*RES
1 *2363:Z *329:14 16.7909 
2 *329:14 *329:18 5.65555 
3 *329:18 *329:24 7.44141 
4 *329:24 *329:26 5.41948 
5 *329:26 *2059:A1 15.8543 
6 *329:26 *2376:I 4.5 
7 *329:24 *329:52 11.7485 
8 *329:52 *329:54 4.93737 
9 *329:54 *329:60 9.33232 
10 *329:60 *2219:A1 4.7101 
11 *329:60 *329:73 10.3828 
12 *329:73 *329:75 3.25656 
13 *329:75 *329:77 2.20606 
14 *329:77 *329:83 17.3161 
15 *329:83 *2093:A1 4.9202 
16 *329:83 *329:96 12.2737 
17 *329:96 *2090:A1 12.2566 
18 *329:96 *2211:A1 11.4162 
19 *329:77 *2223:A1 12.2566 
20 *329:75 *2215:A1 10.996 
21 *329:73 *2096:A1 9.2101 
22 *329:54 *2235:A1 11.4162 
23 *329:52 *2111:A1 9.52525 
24 *329:18 *2243:A1 13.097 
25 *329:14 *2114:A1 15.0758 
*END

*D_NET *330 0.0571516
*CONN
*I *2039:A1 I *D gf180mcu_fd_sc_mcu7t5v0__nor3_1
*I *2123:A1 I *D gf180mcu_fd_sc_mcu7t5v0__nor3_1
*I *2063:C I *D gf180mcu_fd_sc_mcu7t5v0__aoi211_1
*I *2169:A1 I *D gf180mcu_fd_sc_mcu7t5v0__nor2_1
*I *2126:A1 I *D gf180mcu_fd_sc_mcu7t5v0__nor3_1
*I *2183:A1 I *D gf180mcu_fd_sc_mcu7t5v0__nor3_1
*I *2043:A1 I *D gf180mcu_fd_sc_mcu7t5v0__nor3_1
*I *2129:A1 I *D gf180mcu_fd_sc_mcu7t5v0__nor3_1
*I *2035:A1 I *D gf180mcu_fd_sc_mcu7t5v0__nor3_1
*I *2364:Z O *D gf180mcu_fd_sc_mcu7t5v0__buf_4
*CAP
1 *2039:A1 0.000687688
2 *2123:A1 2.81848e-05
3 *2063:C 0.00022755
4 *2169:A1 0.00117789
5 *2126:A1 5.30771e-05
6 *2183:A1 0.0014869
7 *2043:A1 0.000315604
8 *2129:A1 0.000188636
9 *2035:A1 2.81848e-05
10 *2364:Z 0.000871123
11 *330:97 0.00207317
12 *330:69 0.00153997
13 *330:67 0.00160479
14 *330:54 0.00192547
15 *330:37 0.00175431
16 *330:31 0.00112704
17 *330:27 0.00163438
18 *330:12 0.00164001
19 *2039:A1 *2121:A1 0.000525909
20 *2039:A1 *2160:A1 9.2034e-05
21 *2039:A1 *369:518 9.2034e-05
22 *2043:A1 *2040:A2 3.52793e-05
23 *2043:A1 *363:12 8.62382e-06
24 *2129:A1 *2127:A1 0
25 *330:12 *2032:A2 0.000736272
26 *330:12 *365:26 0.000946647
27 *330:12 *369:16 0.000272158
28 *330:12 *369:160 9.46635e-05
29 *330:27 *2121:A1 0.000525909
30 *330:27 *2121:B2 6.31091e-05
31 *330:31 *2121:B2 5.38712e-06
32 *330:31 *369:174 0.000575828
33 *330:37 *369:174 0.00165713
34 *330:54 *2127:A1 0.000484923
35 *330:54 *362:12 0.00624143
36 *330:54 *369:174 2.86383e-05
37 *330:54 *369:189 0.00032431
38 *330:54 *369:200 0.000199407
39 *330:67 *2124:A1 0.000212993
40 *330:67 *362:12 0.0006311
41 *2032:A1 *330:12 4.73318e-05
42 *2037:A2 *2039:A1 0.000350605
43 *2039:A2 *2039:A1 0.000138729
44 *2043:A2 *2043:A1 0.000336965
45 *2043:A3 *2043:A1 6.77516e-05
46 *2043:A3 *330:67 7.0121e-05
47 *2063:A1 *2169:A1 0.000207779
48 *2063:A2 *2063:C 0.000315545
49 *2063:A2 *2169:A1 0.000349069
50 *2063:A2 *330:97 0.000315545
51 *2121:A2 *330:31 0.000685463
52 *2121:B1 *2039:A1 0.000490847
53 *2121:B1 *330:27 0.000350605
54 *2123:A2 *330:31 0.000297623
55 *2123:A2 *330:37 3.38758e-05
56 *2123:A3 *330:37 3.25672e-05
57 *2124:B1 *330:67 1.05182e-05
58 *2129:A2 *2129:A1 1.94631e-05
59 *2129:A2 *330:54 0
60 *2129:A3 *330:54 0.00151242
61 *2168:A1 *2063:C 0.000664614
62 *2168:A3 *2063:C 1.18329e-05
63 *2169:A2 *2063:C 0.000103312
64 *2169:A2 *2169:A1 0.00398974
65 *2175:A2 *330:12 0.000428429
66 *2175:A2 *330:27 0.000191849
67 *2253:D *2043:A1 0.00127971
68 *2253:D *330:54 0.00347109
69 *2253:D *330:67 0.000315545
70 *2254:D *2039:A1 0.000169379
71 *2255:D *330:27 0.000846835
72 *2272:D *2183:A1 3.9647e-05
73 *2275:D *2169:A1 0.000319979
74 *2286:D *2183:A1 0.000495588
75 *2286:CLK *2183:A1 2.55699e-05
76 *2287:D *330:37 0
77 *2308:D *2063:C 0.000440491
78 *2308:CLK *2169:A1 0.000197399
79 *171:10 *2063:C 2.23511e-05
80 *171:10 *330:67 0
81 *171:10 *330:97 0.000257695
82 *234:14 *330:12 7.6695e-05
83 *240:10 *330:67 3.54988e-05
84 *281:19 *330:54 0.000946666
85 *282:12 *2183:A1 0.000581781
86 *293:107 *2183:A1 0.00157776
87 *295:35 *2039:A1 0
88 *311:30 *330:67 0.000291441
89 *322:16 *2039:A1 0
90 *322:16 *330:12 3.15545e-05
91 *323:18 *330:12 0.000143191
92 *323:18 *330:27 0.00188443
93 *323:29 *2039:A1 0.000560968
94 *324:12 *330:12 0
*RES
1 *2364:Z *330:12 19.1727 
2 *330:12 *2035:A1 4.7101 
3 *330:12 *330:27 12.1687 
4 *330:27 *330:31 6.28586 
5 *330:31 *330:37 6.61818 
6 *330:37 *2129:A1 5.97071 
7 *330:37 *330:54 14.1646 
8 *330:54 *2043:A1 10.996 
9 *330:54 *330:67 4.93737 
10 *330:67 *330:69 4.5 
11 *330:69 *2183:A1 22.4293 
12 *330:69 *2126:A1 4.7101 
13 *330:67 *330:97 5.46262 
14 *330:97 *2169:A1 26.5991 
15 *330:97 *2063:C 10.7633 
16 *330:31 *2123:A1 4.7101 
17 *330:27 *2039:A1 14.7778 
*END

*D_NET *331 0.0541787
*CONN
*I *2364:I I *D gf180mcu_fd_sc_mcu7t5v0__buf_4
*I *2069:A1 I *D gf180mcu_fd_sc_mcu7t5v0__nor3_1
*I *2179:A1 I *D gf180mcu_fd_sc_mcu7t5v0__nor2_1
*I *2072:A1 I *D gf180mcu_fd_sc_mcu7t5v0__nor3_1
*I *2065:C I *D gf180mcu_fd_sc_mcu7t5v0__aoi211_1
*I *2187:A1 I *D gf180mcu_fd_sc_mcu7t5v0__nor3_1
*I *2047:A1 I *D gf180mcu_fd_sc_mcu7t5v0__nor3_1
*I *2117:A1 I *D gf180mcu_fd_sc_mcu7t5v0__nor3_1
*I *2247:A1 I *D gf180mcu_fd_sc_mcu7t5v0__nor3_1
*I *2120:A1 I *D gf180mcu_fd_sc_mcu7t5v0__nor3_1
*I *2365:Z O *D gf180mcu_fd_sc_mcu7t5v0__buf_4
*CAP
1 *2364:I 2.81848e-05
2 *2069:A1 0.00118821
3 *2179:A1 0.00138892
4 *2072:A1 0.000110124
5 *2065:C 0.00112349
6 *2187:A1 1.43758e-05
7 *2047:A1 1.65403e-05
8 *2117:A1 0.000318717
9 *2247:A1 1.40924e-05
10 *2120:A1 0.000230581
11 *2365:Z 0.000646416
12 *331:111 0.00292423
13 *331:98 0.000906957
14 *331:87 0.00246344
15 *331:72 0.00249401
16 *331:53 0.00274151
17 *331:36 0.00166383
18 *331:27 0.0017801
19 *331:23 0.00174034
20 *331:6 0.0010327
21 *2069:A1 *2067:B2 0.00199847
22 *2069:A1 *2180:A2 0.000495553
23 *331:72 *361:10 0.000348861
24 *331:98 *351:8 0.000107373
25 *2047:A2 *331:53 3.54988e-05
26 *2047:A2 *331:72 9.46635e-05
27 *2047:A3 *2047:A1 6.77516e-05
28 *2047:A3 *331:72 0.000914526
29 *2065:A1 *2065:C 2.55699e-05
30 *2067:B1 *2069:A1 0.000210238
31 *2069:A2 *2069:A1 0.0046744
32 *2070:A2 *331:87 0.000245424
33 *2072:A2 *331:87 0
34 *2072:A3 *331:87 0
35 *2072:A3 *331:98 0
36 *2072:A3 *331:111 0
37 *2117:A2 *2117:A1 4.29574e-05
38 *2118:A2 *331:27 0.000203255
39 *2119:A1 *331:23 0.001496
40 *2119:A1 *331:27 0.000116356
41 *2120:A3 *2120:A1 0.00178813
42 *2120:A3 *331:23 6.41221e-05
43 *2177:A1 *2065:C 3.128e-06
44 *2178:A3 *2179:A1 0
45 *2184:A1 *331:87 9.73157e-06
46 *2187:A2 *331:72 0.000315544
47 *2187:A2 *331:87 0.000350605
48 *2187:A3 *331:72 3.89263e-05
49 *2246:A3 *331:27 0
50 *2247:A2 *2117:A1 0
51 *2247:A2 *331:27 0.000423823
52 *2247:A3 *331:27 3.89263e-05
53 *2252:D *331:53 0.000666149
54 *2256:D *2117:A1 3.29273e-05
55 *2256:D *331:27 1.09758e-05
56 *2256:D *331:36 7.15956e-05
57 *2271:D *2187:A1 6.77516e-05
58 *2273:D *2179:A1 0.000220246
59 *2273:CLK *2179:A1 2.26943e-05
60 *2280:CLK *331:6 0.000207779
61 *2306:D *2065:C 2.19516e-05
62 *2348:I *331:6 0.00360683
63 *179:12 *2187:A1 4.86578e-06
64 *186:14 *331:87 0.00157777
65 *186:14 *331:98 0
66 *231:10 *2117:A1 5.48789e-05
67 *231:10 *331:36 0
68 *271:14 *2069:A1 2.36659e-05
69 *271:21 *2069:A1 6.76911e-05
70 *284:12 *331:27 0.00151263
71 *285:10 *331:53 0.0010472
72 *292:38 *331:53 0
73 *292:38 *331:72 0.000644361
74 *292:42 *331:72 0.000200468
75 *300:22 *331:6 0.000177964
76 *302:18 *331:6 0.000252443
77 *302:18 *331:23 0.000243425
78 *302:18 *331:27 0.00238417
79 *307:28 *331:36 9.91176e-05
80 *307:28 *331:53 0.000852412
81 *310:18 *331:72 0.0019575
82 *310:18 *331:87 0.000107373
83 *310:29 *331:87 0.000122712
84 *314:22 *2120:A1 0.000291441
85 *321:22 *331:27 0
86 *321:41 *331:53 0
87 *326:14 *331:6 0.000529782
88 *326:14 *331:23 2.74394e-06
89 *326:14 *331:27 0.000158588
*RES
1 *2365:Z *331:6 10.2778 
2 *331:6 *2120:A1 15.7061 
3 *331:6 *331:23 2.10101 
4 *331:23 *331:27 10.7151 
5 *331:27 *2247:A1 4.7101 
6 *331:27 *331:36 1.57576 
7 *331:36 *2117:A1 7.23131 
8 *331:36 *331:53 12.2737 
9 *331:53 *2047:A1 9.2101 
10 *331:53 *331:72 21.2909 
11 *331:72 *2187:A1 9.2101 
12 *331:72 *331:87 9.96262 
13 *331:87 *2065:C 9.94011 
14 *331:87 *331:98 6.91616 
15 *331:98 *2072:A1 9.52525 
16 *331:98 *331:111 1.57576 
17 *331:111 *2179:A1 15.9183 
18 *331:111 *2069:A1 17.404 
19 *331:23 *2364:I 4.7101 
*END

*D_NET *332 0.0615349
*CONN
*I *2149:C I *D gf180mcu_fd_sc_mcu7t5v0__aoi211_1
*I *2365:I I *D gf180mcu_fd_sc_mcu7t5v0__buf_4
*I *2061:C I *D gf180mcu_fd_sc_mcu7t5v0__aoi211_1
*I *2154:A1 I *D gf180mcu_fd_sc_mcu7t5v0__nor2_1
*I *2060:C I *D gf180mcu_fd_sc_mcu7t5v0__aoi211_1
*I *2164:A1 I *D gf180mcu_fd_sc_mcu7t5v0__nor2_1
*I *2062:C I *D gf180mcu_fd_sc_mcu7t5v0__aoi211_1
*I *2159:A1 I *D gf180mcu_fd_sc_mcu7t5v0__nor2_1
*I *2135:A1 I *D gf180mcu_fd_sc_mcu7t5v0__nor3_1
*I *2066:I I *D gf180mcu_fd_sc_mcu7t5v0__clkinv_1
*I *2366:Z O *D gf180mcu_fd_sc_mcu7t5v0__buf_4
*CAP
1 *2149:C 0
2 *2365:I 0
3 *2061:C 0.000135564
4 *2154:A1 0.000683199
5 *2060:C 0.000744934
6 *2164:A1 0.000683832
7 *2062:C 0.000209841
8 *2159:A1 1.99508e-05
9 *2135:A1 0.000168357
10 *2066:I 0.000213237
11 *2366:Z 0.000443238
12 *332:109 0.00211325
13 *332:77 0.00194671
14 *332:71 0.00278233
15 *332:60 0.00186349
16 *332:54 0.00136426
17 *332:39 0.00105052
18 *332:26 0.00166995
19 *332:16 0.00175564
20 *332:8 0.001195
21 *2061:C *2156:A2 8.2126e-05
22 *2062:C *357:17 8.0316e-05
23 *2154:A1 *358:10 0
24 *332:39 *369:560 0.00305027
25 *332:60 *358:10 0
26 *332:71 *358:10 0
27 *332:77 *2162:A2 0.000349069
28 *332:77 *357:17 0.000574882
29 *332:109 *358:10 0
30 *2060:B *2060:C 0.000423867
31 *2061:B *2061:C 2.17773e-05
32 *2061:B *332:60 0.000338697
33 *2062:A2 *2062:C 4.29574e-05
34 *2062:B *332:77 3.75231e-05
35 *2136:A1 *2066:I 0.000575828
36 *2136:A1 *332:26 0.000441764
37 *2136:A1 *332:39 8.41455e-05
38 *2149:B *332:8 3.3803e-05
39 *2149:B *332:16 3.53992e-05
40 *2153:A3 *2060:C 0.00074559
41 *2154:A2 *2060:C 0
42 *2155:A2 *332:26 0.00599536
43 *2155:A2 *332:39 0.00599536
44 *2155:A2 *332:54 0.000911573
45 *2157:A1 *332:60 0.00324134
46 *2159:A2 *332:60 0.000297353
47 *2160:A2 *332:26 0.000245424
48 *2160:A2 *332:39 4.6017e-05
49 *2160:A2 *332:54 0.000828306
50 *2162:A1 *332:77 1.22735e-05
51 *2163:A1 *2062:C 0.000874977
52 *2163:A3 *2062:C 0.00138294
53 *2163:A3 *2164:A1 0.000420727
54 *2164:A2 *2164:A1 1.98235e-05
55 *2276:D *2164:A1 0.000169379
56 *2276:CLK *2164:A1 2.86383e-05
57 *2277:D *2159:A1 0.00021609
58 *2277:D *332:60 1.04267e-05
59 *2278:D *2060:C 0
60 *2278:D *2154:A1 0.0013838
61 *2279:CLK *332:54 0.00326063
62 *2281:CLK *332:16 0
63 *2309:D *2062:C 0.000237578
64 *2311:CLK *2060:C 0.000217855
65 *2336:I *332:8 0
66 *2347:I *332:8 0.000281742
67 *2347:I *332:16 3.53992e-05
68 *2359:I *332:26 0.00022974
69 *167:12 *2062:C 1.98235e-05
70 *275:10 *2164:A1 0.00144065
71 *275:12 *2062:C 0.000841463
72 *275:12 *2164:A1 0.000946657
73 *279:10 *332:39 0.000420727
74 *294:65 *332:16 0
75 *295:80 *2060:C 3.10743e-05
76 *295:80 *2164:A1 0.000186149
77 *296:12 *332:26 0
78 *300:22 *332:26 0.00227912
79 *310:18 *2066:I 0.000575828
80 *321:22 *332:16 0.00248933
*RES
1 *2366:Z *332:8 6.72857 
2 *332:8 *332:16 13.9149 
3 *332:16 *332:26 12.5457 
4 *332:26 *2066:I 10.996 
5 *332:26 *332:39 5.98787 
6 *332:39 *2135:A1 9.52525 
7 *332:39 *332:54 10.2778 
8 *332:54 *332:60 9.75252 
9 *332:60 *2159:A1 9.19509 
10 *332:60 *332:71 5.77777 
11 *332:71 *332:77 15.198 
12 *332:77 *2062:C 11.1835 
13 *332:77 *2164:A1 14.5677 
14 *332:71 *332:109 3.88686 
15 *332:109 *2060:C 13.5997 
16 *332:109 *2154:A1 13.082 
17 *332:54 *2061:C 5.10779 
18 *332:16 *2365:I 4.5 
19 *332:8 *2149:C 4.5 
*END

*D_NET *333 0.0597909
*CONN
*I *2112:A1 I *D gf180mcu_fd_sc_mcu7t5v0__aoi22_1
*I *2237:A1 I *D gf180mcu_fd_sc_mcu7t5v0__aoi21_1
*I *2109:A1 I *D gf180mcu_fd_sc_mcu7t5v0__aoi22_1
*I *2238:A1 I *D gf180mcu_fd_sc_mcu7t5v0__and3_1
*I *2106:A1 I *D gf180mcu_fd_sc_mcu7t5v0__aoi22_1
*I *2233:A1 I *D gf180mcu_fd_sc_mcu7t5v0__aoi21_1
*I *2234:A1 I *D gf180mcu_fd_sc_mcu7t5v0__and3_1
*I *2230:A1 I *D gf180mcu_fd_sc_mcu7t5v0__and3_1
*I *2103:A1 I *D gf180mcu_fd_sc_mcu7t5v0__aoi22_1
*I *2221:A1 I *D gf180mcu_fd_sc_mcu7t5v0__aoi21_1
*I *2225:A1 I *D gf180mcu_fd_sc_mcu7t5v0__aoi21_1
*I *2222:A1 I *D gf180mcu_fd_sc_mcu7t5v0__and3_1
*I *2097:A1 I *D gf180mcu_fd_sc_mcu7t5v0__aoi22_1
*I *2226:A1 I *D gf180mcu_fd_sc_mcu7t5v0__and3_1
*I *2100:A1 I *D gf180mcu_fd_sc_mcu7t5v0__aoi22_1
*I *2229:A1 I *D gf180mcu_fd_sc_mcu7t5v0__aoi21_1
*I *2367:Z O *D gf180mcu_fd_sc_mcu7t5v0__buf_2
*CAP
1 *2112:A1 0.000398403
2 *2237:A1 0.000331854
3 *2109:A1 0.000977428
4 *2238:A1 0.000242902
5 *2106:A1 0.000443208
6 *2233:A1 0.000400132
7 *2234:A1 0.000747587
8 *2230:A1 6.86651e-05
9 *2103:A1 0.000681278
10 *2221:A1 0.000671033
11 *2225:A1 0
12 *2222:A1 0.000155791
13 *2097:A1 0.000759873
14 *2226:A1 3.88221e-06
15 *2100:A1 0.000176357
16 *2229:A1 0
17 *2367:Z 0.000284659
18 *333:179 0.00130928
19 *333:81 0.00108473
20 *333:61 0.000716046
21 *333:57 0.000819173
22 *333:49 0.000606473
23 *333:43 0.0017999
24 *333:39 0.0013724
25 *333:32 0.000159044
26 *333:26 0.00095921
27 *333:20 0.00199086
28 *333:18 0.0011955
29 *333:16 0.00134395
30 *333:14 0.00100097
31 *333:12 0.00110121
32 *333:10 0.00158891
33 *2097:A1 *2099:A1 0.000440385
34 *2103:A1 *2103:B2 1.09758e-05
35 *2103:A1 *335:43 0.000248492
36 *2109:A1 *2110:A2 4.29574e-05
37 *2109:A1 *338:6 0.000157112
38 *2112:A1 *367:8 0.000551618
39 *2112:A1 *367:16 1.29001e-05
40 *2234:A1 *339:10 0.00015751
41 *333:10 *367:8 1.94631e-05
42 *333:18 *339:25 0
43 *333:20 *339:10 0
44 *333:49 *335:54 0.000177494
45 *333:61 *2099:A1 0.000186588
46 *333:61 *2224:A2 1.45974e-05
47 *333:81 *2099:A1 4.37921e-05
48 *2097:A2 *2097:A1 0.00232088
49 *2097:A2 *2221:A1 1.13277e-05
50 *2097:B1 *2097:A1 2.86383e-05
51 *2099:A2 *2097:A1 0.000552829
52 *2100:A2 *2100:A1 6.77516e-05
53 *2100:A2 *2226:A1 3.38758e-05
54 *2102:A2 *2100:A1 0.000207778
55 *2102:A2 *333:61 6.58351e-05
56 *2103:B1 *2103:A1 0
57 *2109:A2 *2109:A1 0.00277912
58 *2109:A2 *2237:A1 0.00267577
59 *2109:B1 *2109:A1 0.000101627
60 *2111:A2 *2109:A1 0.000228557
61 *2112:A2 *2112:A1 4.6852e-05
62 *2114:A2 *2112:A1 1.43191e-05
63 *2221:B *2221:A1 1.93576e-05
64 *2222:A3 *2221:A1 9.73157e-06
65 *2223:A3 *2221:A1 0.000143191
66 *2225:A2 *2226:A1 0.000349068
67 *2225:A2 *333:49 4.42139e-05
68 *2225:A2 *333:57 0.000121451
69 *2225:A2 *333:61 0.00459837
70 *2225:B *333:49 0.000128244
71 *2225:B *333:57 3.38758e-05
72 *2227:A2 *2221:A1 0
73 *2227:A2 *2222:A1 5.48789e-05
74 *2227:A2 *333:57 0.000185279
75 *2227:A2 *333:81 2.09673e-05
76 *2229:A2 *333:26 0.000525909
77 *2229:A2 *333:32 0.0013674
78 *2229:A2 *333:43 0.000140242
79 *2229:B *2103:A1 1.98235e-05
80 *2229:B *2230:A1 4.38949e-05
81 *2229:B *333:32 4.38949e-05
82 *2229:B *333:39 7.50462e-05
83 *2230:A3 *2230:A1 4.2479e-06
84 *2231:A2 *2103:A1 0
85 *2231:A2 *333:26 0.00189334
86 *2231:A2 *333:32 0.000490358
87 *2231:A2 *333:39 9.14228e-05
88 *2231:A2 *333:43 0.000315545
89 *2232:A1 *2106:A1 0.000237131
90 *2233:B *2233:A1 6.04925e-05
91 *2234:A2 *2234:A1 1.12507e-05
92 *2234:A3 *2234:A1 0.000297353
93 *2236:A1 *2109:A1 0.000108886
94 *2237:A2 *2237:A1 0.000830067
95 *2237:B *2237:A1 0.000691879
96 *2237:B *2238:A1 1.55756e-05
97 *2238:A2 *2237:A1 0.000101627
98 *2239:A2 *2237:A1 5.20236e-05
99 *2258:CLK *2109:A1 0.000349069
100 *2258:CLK *2237:A1 9.14228e-05
101 *2258:CLK *2238:A1 3.53992e-05
102 *2258:CLK *333:12 0.00105181
103 *2258:CLK *333:14 0.000105181
104 *2260:CLK *333:26 7.09976e-05
105 *2260:CLK *333:32 0.000153828
106 *216:12 *333:61 4.96056e-05
107 *219:10 *2103:A1 2.86383e-05
108 *222:10 *2106:A1 0.00232712
109 *222:10 *2233:A1 0
110 *225:18 *2237:A1 0.000581573
111 *225:18 *2238:A1 9.91176e-05
112 *225:18 *333:12 0.000177494
113 *225:18 *333:14 3.54988e-05
114 *257:25 *2106:A1 3.38758e-05
115 *259:27 *2100:A1 6.37185e-05
116 *260:6 *2097:A1 0
117 *290:70 *2222:A1 0.000232712
118 *290:70 *333:43 0
119 *290:70 *333:49 0
120 *290:74 *2103:A1 0.000474261
121 *290:74 *333:39 6.77516e-05
122 *297:33 *2233:A1 0.00323303
123 *297:33 *2234:A1 0
124 *298:12 *333:10 0
125 *298:12 *333:12 0
126 *298:12 *333:14 0
127 *298:12 *333:16 0
128 *298:12 *333:18 0
129 *298:12 *333:20 0
130 *298:12 *333:26 0
131 *298:22 *2230:A1 0.000115947
132 *299:25 *2226:A1 0.000116356
133 *300:45 *2221:A1 3.53992e-05
134 *305:16 *2112:A1 4.29574e-05
135 *305:16 *333:10 0.00151263
136 *313:20 *2112:A1 0.000463773
137 *313:20 *333:10 0.000210363
138 *313:20 *333:12 0.000315544
*RES
1 *2367:Z *333:10 11.101 
2 *333:10 *333:12 5.14747 
3 *333:12 *333:14 0.945454 
4 *333:14 *333:16 3.88686 
5 *333:16 *333:18 1.78586 
6 *333:18 *333:20 2.20606 
7 *333:20 *333:26 5.77777 
8 *333:26 *333:32 6.30837 
9 *333:32 *2229:A1 4.5 
10 *333:32 *333:39 0.397691 
11 *333:39 *333:43 8.38686 
12 *333:43 *333:49 7.52395 
13 *333:49 *333:57 1.59827 
14 *333:57 *333:61 4.83232 
15 *333:61 *2100:A1 6.18081 
16 *333:61 *2226:A1 4.9202 
17 *333:57 *333:81 1.15555 
18 *333:81 *2097:A1 10.5929 
19 *333:81 *2222:A1 6.07576 
20 *333:49 *2225:A1 4.5 
21 *333:43 *2221:A1 12.3391 
22 *333:39 *2103:A1 17.4919 
23 *333:26 *2230:A1 9.44271 
24 *333:20 *2234:A1 13.3896 
25 *333:18 *2233:A1 11.9189 
26 *333:16 *2106:A1 12.0465 
27 *333:14 *2238:A1 10.6583 
28 *333:12 *333:179 4.5 
29 *333:179 *2109:A1 11.3283 
30 *333:179 *2237:A1 8.2593 
31 *333:10 *2112:A1 12.2566 
*END

*D_NET *334 0.118747
*CONN
*I *2194:A1 I *D gf180mcu_fd_sc_mcu7t5v0__and3_1
*I *2076:A1 I *D gf180mcu_fd_sc_mcu7t5v0__aoi22_1
*I *2082:A1 I *D gf180mcu_fd_sc_mcu7t5v0__aoi22_1
*I *2202:A1 I *D gf180mcu_fd_sc_mcu7t5v0__and3_1
*I *2201:A1 I *D gf180mcu_fd_sc_mcu7t5v0__aoi21_1
*I *2197:A1 I *D gf180mcu_fd_sc_mcu7t5v0__aoi21_1
*I *2198:A1 I *D gf180mcu_fd_sc_mcu7t5v0__and3_1
*I *2205:A1 I *D gf180mcu_fd_sc_mcu7t5v0__aoi21_1
*I *2054:A1 I *D gf180mcu_fd_sc_mcu7t5v0__and3_1
*I *2058:A1 I *D gf180mcu_fd_sc_mcu7t5v0__and3_1
*I *2057:A1 I *D gf180mcu_fd_sc_mcu7t5v0__aoi21_1
*I *2146:A1 I *D gf180mcu_fd_sc_mcu7t5v0__aoi22_1
*I *2053:A1 I *D gf180mcu_fd_sc_mcu7t5v0__aoi21_1
*I *2143:A1 I *D gf180mcu_fd_sc_mcu7t5v0__aoi22_1
*I *2217:A1 I *D gf180mcu_fd_sc_mcu7t5v0__aoi21_1
*I *2218:A1 I *D gf180mcu_fd_sc_mcu7t5v0__and3_1
*I *2094:A1 I *D gf180mcu_fd_sc_mcu7t5v0__aoi22_1
*I *2088:A1 I *D gf180mcu_fd_sc_mcu7t5v0__aoi22_1
*I *2209:A1 I *D gf180mcu_fd_sc_mcu7t5v0__aoi21_1
*I *2091:A1 I *D gf180mcu_fd_sc_mcu7t5v0__aoi22_1
*I *2214:A1 I *D gf180mcu_fd_sc_mcu7t5v0__and3_1
*I *2213:A1 I *D gf180mcu_fd_sc_mcu7t5v0__aoi21_1
*I *2210:A1 I *D gf180mcu_fd_sc_mcu7t5v0__and3_1
*I *2206:A1 I *D gf180mcu_fd_sc_mcu7t5v0__and3_1
*I *2085:A1 I *D gf180mcu_fd_sc_mcu7t5v0__aoi22_1
*I *2193:A1 I *D gf180mcu_fd_sc_mcu7t5v0__aoi21_1
*I *2368:Z O *D gf180mcu_fd_sc_mcu7t5v0__buf_4
*CAP
1 *2194:A1 3.72247e-05
2 *2076:A1 0.000767668
3 *2082:A1 9.25132e-05
4 *2202:A1 0.000131056
5 *2201:A1 0.000113981
6 *2197:A1 0
7 *2198:A1 0.000149597
8 *2205:A1 2.76656e-05
9 *2054:A1 8.0086e-05
10 *2058:A1 3.39097e-05
11 *2057:A1 0.000474184
12 *2146:A1 0.00021955
13 *2053:A1 8.36981e-05
14 *2143:A1 0.000173643
15 *2217:A1 2.24157e-05
16 *2218:A1 4.52099e-05
17 *2094:A1 0.000298475
18 *2088:A1 0.000253093
19 *2209:A1 0.000118665
20 *2091:A1 0.000133294
21 *2214:A1 0.000402834
22 *2213:A1 0.00115576
23 *2210:A1 0
24 *2206:A1 0
25 *2085:A1 0.000705299
26 *2193:A1 6.05696e-05
27 *2368:Z 0.00123907
28 *334:328 0.000223569
29 *334:269 0.00145637
30 *334:248 0.00169582
31 *334:233 0.000827857
32 *334:187 0.000550976
33 *334:183 0.00142614
34 *334:177 0.0015277
35 *334:175 0.000373795
36 *334:173 0.000828372
37 *334:125 0.00109839
38 *334:102 0.0028484
39 *334:95 0.00154997
40 *334:89 0.000728117
41 *334:87 0.000802615
42 *334:85 0.00218735
43 *334:63 0.000973563
44 *334:59 0.0014745
45 *334:57 0.00109079
46 *334:51 0.00139747
47 *334:43 0.00121241
48 *334:37 0.00131737
49 *334:33 0.00136418
50 *334:29 0.00208747
51 *334:25 0.00107942
52 *334:10 0.00208365
53 *2076:A1 *2077:A2 0
54 *2076:A1 *350:22 1.98235e-05
55 *2085:A1 *2085:B2 0
56 *2085:A1 *2204:A2 9.91176e-05
57 *2094:A1 *2094:B2 2.55699e-05
58 *2094:A1 *2095:A2 1.56797e-05
59 *2094:A1 *2216:A2 0
60 *2143:A1 *359:10 0.000128872
61 *2201:A1 *2200:A2 8.58892e-05
62 *2214:A1 *2091:B2 0.0025349
63 *334:10 *369:316 0.000364292
64 *334:43 *2200:A2 7.91824e-05
65 *334:43 *347:8 0.000272023
66 *334:183 *2144:A2 0.000105181
67 *334:183 *359:8 0.00116356
68 *334:183 *359:10 0.000581781
69 *334:248 *348:6 0.00360704
70 *334:269 *2056:A2 0.000379172
71 *334:269 *348:6 0.000207779
72 *2053:A2 *2053:A1 1.13277e-05
73 *2053:B *2053:A1 6.04925e-05
74 *2053:B *334:233 0.00189332
75 *2053:B *334:248 0.000525921
76 *2055:A3 *2053:A1 1.09758e-05
77 *2055:A3 *334:173 0
78 *2057:B *2057:A1 3.38758e-05
79 *2058:A2 *2057:A1 0.001047
80 *2058:A2 *2058:A1 0.000116356
81 *2059:A3 *2057:A1 5.72112e-05
82 *2076:A2 *2076:A1 0.00161716
83 *2076:A2 *334:29 0
84 *2078:A1 *2076:A1 2.86383e-05
85 *2078:A2 *2076:A1 4.86578e-06
86 *2082:B1 *2082:A1 0.000108887
87 *2084:A2 *2082:A1 0.000556846
88 *2084:A2 *2202:A1 0.000905707
89 *2084:A2 *334:43 4.86578e-06
90 *2085:A2 *2085:A1 9.80556e-05
91 *2088:A2 *2088:A1 0.000116356
92 *2091:A2 *2091:A1 0.000905914
93 *2091:B1 *2091:A1 0.000326809
94 *2091:B1 *2214:A1 0.000120032
95 *2093:A2 *2091:A1 0.000207779
96 *2093:A2 *2214:A1 0.000315544
97 *2094:A2 *2094:A1 0.00115441
98 *2094:B1 *2094:A1 7.0121e-05
99 *2095:A1 *2218:A1 9.43683e-05
100 *2095:A1 *334:187 0.000440385
101 *2096:A2 *2094:A1 0.000207779
102 *2096:A3 *2094:A1 0.000108887
103 *2143:A2 *2054:A1 3.38758e-05
104 *2143:A2 *2143:A1 0.000304882
105 *2143:A2 *334:177 7.0121e-05
106 *2143:B1 *334:183 7.6695e-05
107 *2144:A1 *334:183 4.39031e-05
108 *2145:A1 *334:173 0.0006942
109 *2145:A2 *334:173 0
110 *2146:A2 *334:269 7.78525e-05
111 *2146:B1 *2146:A1 2.19516e-05
112 *2148:A1 *334:248 0.00105015
113 *2148:A1 *334:269 0.00040651
114 *2148:A2 *2146:A1 4.73318e-05
115 *2148:A3 *334:269 1.80316e-05
116 *2192:A1 *2076:A1 0.00162857
117 *2193:A2 *2193:A1 6.04925e-05
118 *2194:A2 *2076:A1 0
119 *2194:A2 *2193:A1 2.86383e-05
120 *2194:A3 *2076:A1 1.5339e-05
121 *2194:A3 *334:25 0.000399691
122 *2195:A1 *334:10 0
123 *2195:A2 *2193:A1 0.000178482
124 *2195:A2 *334:10 0.000349068
125 *2195:A3 *2076:A1 0.000288812
126 *2195:A3 *2194:A1 0.000349068
127 *2195:A3 *334:25 0.00047477
128 *2195:A3 *334:29 0.000101627
129 *2197:A2 *334:51 0.00015434
130 *2197:B *334:51 0.000179434
131 *2199:A2 *334:43 6.77516e-05
132 *2199:A2 *334:51 0.000118329
133 *2199:A2 *334:57 3.54988e-05
134 *2199:A3 *2198:A1 7.15701e-05
135 *2199:A3 *334:43 9.73157e-06
136 *2199:A3 *334:51 0.000220094
137 *2199:A3 *334:57 0.000315544
138 *2201:A2 *334:33 0.000420727
139 *2201:A2 *334:37 0.00178811
140 *2201:B *2201:A1 6.04925e-05
141 *2201:B *2202:A1 1.55756e-05
142 *2201:B *334:33 4.20727e-05
143 *2202:A2 *2202:A1 0.000169319
144 *2203:A3 *334:33 4.73318e-05
145 *2205:A2 *2085:A1 4.11349e-05
146 *2205:A2 *2205:A1 1.13277e-05
147 *2205:A2 *334:63 0.000493619
148 *2206:A2 *334:59 0
149 *2206:A3 *2085:A1 3.9647e-05
150 *2207:A1 *2085:A1 0.000202037
151 *2207:A2 *2085:A1 1.07742e-05
152 *2207:A2 *334:63 3.82312e-06
153 *2207:A3 *334:59 0
154 *2209:A2 *2209:A1 7.50108e-05
155 *2209:B *2209:A1 6.04925e-05
156 *2209:B *334:89 0.000175302
157 *2209:B *334:95 7.0121e-05
158 *2210:A2 *334:95 0.000484864
159 *2211:A2 *2209:A1 0.000232712
160 *2211:A2 *334:95 0.00241918
161 *2212:A1 *2213:A1 0.000465425
162 *2213:A2 *2213:A1 4.29574e-05
163 *2213:B *2213:A1 0.00544363
164 *2214:A2 *2214:A1 0.000532419
165 *2214:A2 *334:125 4.6017e-05
166 *2215:A2 *2213:A1 0.00390208
167 *2217:A2 *2217:A1 1.13277e-05
168 *2217:A2 *334:187 0.00044049
169 *2217:B *2217:A1 6.2315e-05
170 *2218:A2 *334:187 0
171 *2219:A2 *2217:A1 0.000261075
172 *2219:A2 *334:183 0.000286734
173 *2250:CLK *334:173 9.24412e-05
174 *2251:D *2146:A1 0.000106496
175 *2251:D *334:183 0
176 *2263:D *2213:A1 0
177 *2265:D *334:95 7.50462e-05
178 *2265:D *334:102 0.000539483
179 *2266:D *2085:A1 0
180 *2266:D *334:63 0
181 *2269:D *334:10 0
182 *2282:D *334:269 0
183 *2282:CLK *2053:A1 2.86383e-05
184 *2283:D *334:87 0
185 *2283:CLK *334:87 0.001157
186 *2297:D *2214:A1 2.36659e-05
187 *2297:D *334:102 4.29574e-05
188 *2297:D *334:125 0.000283991
189 *2297:CLK *2091:A1 0
190 *2297:CLK *2213:A1 0
191 *2302:D *2076:A1 0
192 *2302:CLK *334:25 0
193 *2302:CLK *334:29 0
194 *2322:I *334:85 0.00018935
195 *2322:I *334:87 0.002314
196 *207:6 *2213:A1 3.38758e-05
197 *210:6 *2218:A1 1.55756e-05
198 *249:12 *2054:A1 0.000232712
199 *249:12 *334:173 0.0029089
200 *249:12 *334:177 0.000315545
201 *249:12 *334:233 0.000946666
202 *261:18 *334:187 0
203 *262:12 *334:125 0
204 *268:16 *2076:A1 0.000116356
205 *287:13 *2214:A1 0.000175302
206 *289:10 *334:57 0.00143748
207 *289:34 *2198:A1 0
208 *289:38 *334:57 0
209 *290:37 *2213:A1 3.37342e-05
210 *293:14 *334:87 0
211 *293:14 *334:89 0
212 *293:14 *334:177 9.46635e-05
213 *293:14 *334:183 7.09976e-05
214 *293:14 *334:233 0.000307656
215 *293:14 *334:248 0.000473318
216 *301:18 *2057:A1 0.00157775
217 *301:18 *334:269 0.000212993
218 *301:27 *2218:A1 0.000349069
219 *301:27 *334:187 0.000930847
220 *302:34 *2213:A1 0.000574814
221 *302:34 *334:125 0.000337431
222 *303:18 *334:87 0.000946637
223 *303:18 *334:173 0.000757309
224 *303:20 *334:87 4.20727e-05
225 *303:20 *334:89 0.000336582
226 *303:20 *334:95 0.000147255
227 *304:16 *334:10 0.0070973
228 *304:20 *334:25 0
229 *304:35 *2085:A1 0.000169319
230 *305:16 *2057:A1 1.57773e-05
231 *305:34 *2057:A1 0.000722863
232 *305:34 *2058:A1 4.86578e-06
233 *305:34 *2082:A1 3.38758e-05
234 *305:34 *334:33 0.000506187
235 *305:36 *2082:A1 0.000271006
236 *305:36 *2202:A1 6.77516e-05
237 *307:36 *334:10 6.59368e-05
238 *307:48 *334:10 0.000611579
239 *307:48 *334:51 0.000736272
240 *308:26 *2193:A1 0.000672995
241 *308:26 *334:10 0.00067035
242 *317:14 *334:248 0.00126218
243 *328:32 *334:10 0
244 *328:45 *334:25 0
245 *328:152 *2198:A1 0.00093064
246 *328:161 *334:43 0.000107039
247 *328:161 *334:51 1.33277e-05
248 *328:173 *2201:A1 0.000229811
249 *328:173 *334:43 0.000233135
*RES
1 *2368:Z *334:10 13.4293 
2 *334:10 *2193:A1 5.10779 
3 *334:10 *334:25 12.5717 
4 *334:25 *334:29 5.65555 
5 *334:29 *334:33 6.72323 
6 *334:33 *334:37 6.28586 
7 *334:37 *334:43 5.67272 
8 *334:43 *334:51 7.02121 
9 *334:51 *334:57 11.0131 
10 *334:57 *334:59 0.945454 
11 *334:59 *334:63 2.18355 
12 *334:63 *2085:A1 8.51443 
13 *334:63 *2206:A1 4.5 
14 *334:59 *334:85 9.64747 
15 *334:85 *334:87 4.93737 
16 *334:87 *334:89 1.78586 
17 *334:89 *334:95 7.73405 
18 *334:95 *2210:A1 4.5 
19 *334:95 *334:102 6.74574 
20 *334:102 *2213:A1 13.9545 
21 *334:102 *334:125 7.96666 
22 *334:125 *2214:A1 12.4442 
23 *334:125 *2091:A1 10.1556 
24 *334:89 *2209:A1 9.60779 
25 *334:87 *2088:A1 9.94545 
26 *334:85 *334:173 11.6434 
27 *334:173 *334:175 4.5 
28 *334:175 *334:177 0.945454 
29 *334:177 *334:183 11.6434 
30 *334:183 *334:187 2.31111 
31 *334:187 *2094:A1 15.3909 
32 *334:187 *2218:A1 4.89769 
33 *334:183 *2217:A1 5.31789 
34 *334:177 *2143:A1 10.1556 
35 *334:175 *334:233 2.83636 
36 *334:233 *2053:A1 9.39769 
37 *334:233 *334:248 12.0636 
38 *334:248 *2146:A1 14.6556 
39 *334:248 *334:269 15.5131 
40 *334:269 *2057:A1 16.674 
41 *334:269 *2058:A1 4.7101 
42 *334:173 *2054:A1 4.9202 
43 *334:57 *2205:A1 4.89769 
44 *334:51 *2198:A1 9.8404 
45 *334:43 *2197:A1 4.5 
46 *334:37 *2201:A1 5.31789 
47 *334:33 *334:328 4.5 
48 *334:328 *2202:A1 5.31789 
49 *334:328 *2082:A1 5.65555 
50 *334:29 *2076:A1 14.7778 
51 *334:25 *2194:A1 5.02525 
*END

*D_NET *335 0.0435458
*CONN
*I *2366:I I *D gf180mcu_fd_sc_mcu7t5v0__buf_4
*I *2363:I I *D gf180mcu_fd_sc_mcu7t5v0__buf_4
*I *2141:A1 I *D gf180mcu_fd_sc_mcu7t5v0__nor2_1
*I *2239:A1 I *D gf180mcu_fd_sc_mcu7t5v0__nor3_1
*I *2108:A1 I *D gf180mcu_fd_sc_mcu7t5v0__nor3_1
*I *2231:A1 I *D gf180mcu_fd_sc_mcu7t5v0__nor3_1
*I *2099:A1 I *D gf180mcu_fd_sc_mcu7t5v0__nor3_1
*I *2102:A1 I *D gf180mcu_fd_sc_mcu7t5v0__nor3_1
*I *2227:A1 I *D gf180mcu_fd_sc_mcu7t5v0__nor3_1
*I *2105:A1 I *D gf180mcu_fd_sc_mcu7t5v0__nor3_1
*I *2361:Z O *D gf180mcu_fd_sc_mcu7t5v0__clkbuf_2
*CAP
1 *2366:I 0.000187143
2 *2363:I 0.000141091
3 *2141:A1 0.000521732
4 *2239:A1 0.000941314
5 *2108:A1 0.000231124
6 *2231:A1 0.000888401
7 *2099:A1 0.000621809
8 *2102:A1 0.000670436
9 *2227:A1 1.65403e-05
10 *2105:A1 2.81848e-05
11 *2361:Z 0
12 *335:54 0.00210725
13 *335:43 0.00166791
14 *335:35 0.00233861
15 *335:22 0.00229985
16 *335:16 0.00302487
17 *335:14 0.00253566
18 *335:12 0.00111028
19 *335:10 0.000680627
20 *335:6 0.000596557
21 *2102:A1 *2101:A2 2.86383e-05
22 *2102:A1 *341:22 0
23 *2366:I *2137:A2 0.000105181
24 *335:43 *340:12 0.0019985
25 *335:43 *341:16 0.00119206
26 *2097:A1 *2099:A1 0.000440385
27 *2102:A2 *2102:A1 1.98235e-05
28 *2102:A3 *2102:A1 0.0003671
29 *2103:A1 *335:43 0.000248492
30 *2104:A1 *335:43 3.15545e-05
31 *2105:A2 *335:35 0.000614529
32 *2227:A3 *335:43 4.39031e-05
33 *2231:A3 *2231:A1 1.43191e-05
34 *2237:B *2239:A1 2.32863e-05
35 *2239:A2 *2239:A1 0.000372634
36 *2261:D *2227:A1 6.77516e-05
37 *2261:D *335:43 0.00040651
38 *2261:CLK *335:43 0.0043126
39 *2261:CLK *335:54 7.36272e-05
40 *2292:D *2108:A1 0
41 *2292:CLK *2239:A1 6.22125e-05
42 *2294:D *2102:A1 0.000455114
43 *2294:CLK *2102:A1 0
44 *2295:D *2099:A1 0
45 *2331:I *2363:I 0.00113821
46 *2336:I *2366:I 0.000128244
47 *2350:I *2239:A1 0.000229106
48 *2354:I *2366:I 0.000128244
49 *2356:I *335:14 0
50 *2356:I *335:16 0
51 *1:14 *2102:A1 0
52 *216:12 *2102:A1 0
53 *216:12 *335:54 0
54 *219:10 *2231:A1 0
55 *258:8 *2231:A1 0.000110441
56 *258:8 *335:43 4.20727e-05
57 *259:18 *2102:A1 0
58 *259:18 *335:54 0.000105181
59 *291:90 *2239:A1 7.88952e-05
60 *297:16 *2363:I 0.00113821
61 *298:12 *2231:A1 9.99226e-05
62 *298:22 *2231:A1 0
63 *299:10 *2239:A1 0.000230472
64 *299:10 *335:16 0
65 *299:10 *335:22 0
66 *305:16 *2141:A1 0.000560007
67 *311:12 *2366:I 0.00115701
68 *311:12 *335:10 0.00262958
69 *311:12 *335:12 0.000350605
70 *311:12 *335:14 0.00073627
71 *313:20 *2141:A1 0.000116761
72 *323:12 *2239:A1 0.000581571
73 *323:12 *2366:I 0.000147255
74 *323:12 *335:10 0.000504798
75 *323:12 *335:12 0.000350605
76 *323:12 *335:14 0.00108687
77 *333:49 *335:54 0.000177494
78 *333:61 *2099:A1 0.000186588
79 *333:81 *2099:A1 4.37921e-05
*RES
1 *2361:Z *335:6 9 
2 *335:6 *335:10 2.94141 
3 *335:10 *335:12 1.15555 
4 *335:12 *335:14 3.46666 
5 *335:14 *335:16 6.61818 
6 *335:16 *335:22 13.7444 
7 *335:22 *2105:A1 4.7101 
8 *335:22 *335:35 8.28181 
9 *335:35 *335:43 13.4293 
10 *335:43 *2227:A1 4.7101 
11 *335:43 *335:54 8.17676 
12 *335:54 *2102:A1 13.6222 
13 *335:54 *2099:A1 13.3071 
14 *335:35 *2231:A1 14.0424 
15 *335:16 *2108:A1 9.94545 
16 *335:14 *2239:A1 14.7778 
17 *335:12 *2141:A1 11.5212 
18 *335:10 *2363:I 10.028 
19 *335:6 *2366:I 10.5532 
*END

*D_NET *336 0.00807624
*CONN
*I *2137:A2 I *D gf180mcu_fd_sc_mcu7t5v0__nand2_1
*I *2362:Z O *D gf180mcu_fd_sc_mcu7t5v0__buf_1
*CAP
1 *2137:A2 0.000579409
2 *2362:Z 0.000579409
3 *2137:A2 *2137:A1 9.9283e-05
4 *2329:I *2137:A2 3.50605e-05
5 *2336:I *2137:A2 0.000166341
6 *2354:I *2137:A2 0.00040833
7 *2362:I *2137:A2 0.000581572
8 *2366:I *2137:A2 0.000105181
9 *308:18 *2137:A2 0.000101627
10 *311:12 *2137:A2 0.000736273
11 *320:20 *2137:A2 0.000581572
12 *323:12 *2137:A2 0.00410218
*RES
1 *2362:Z *2137:A2 23.7778 
*END

*D_NET *2 0.0115704
*CONN
*P p O
*I *2248:Q O *D gf180mcu_fd_sc_mcu7t5v0__dffq_1
*CAP
1 p 0.00124325
2 *2248:Q 0.00124325
3 p *2281:CLK 0.000207779
4 p *2337:I 0.000777931
5 p *2358:I 0.00411838
6 p *2361:I 0.00374196
7 p *308:18 0.000237882
*RES
1 *2248:Q p 17.7364 
*END

*D_NET *3 0.014635
*CONN
*P rst I
*I *2361:I I *D gf180mcu_fd_sc_mcu7t5v0__clkbuf_2
*CAP
1 rst 0.000660741
2 *2361:I 0.000660741
3 *2361:I *2337:I 0.00950379
4 *2361:I *2358:I 6.77516e-05
5 p *2361:I 0.00374196
*RES
1 rst *2361:I 23.0258 
*END

*D_NET *337 0.0136839
*CONN
*I *2139:A2 I *D gf180mcu_fd_sc_mcu7t5v0__nor2_1
*I *2140:A2 I *D gf180mcu_fd_sc_mcu7t5v0__xor3_1
*I *2138:A2 I *D gf180mcu_fd_sc_mcu7t5v0__nand2_1
*I *2249:Q O *D gf180mcu_fd_sc_mcu7t5v0__dffq_1
*CAP
1 *2139:A2 2.81848e-05
2 *2140:A2 0.000265574
3 *2138:A2 8.80603e-05
4 *2249:Q 0.00166988
5 *337:31 0.000743258
6 *337:14 0.00220744
7 *337:14 *2242:A1 0.00116356
8 *337:14 *2367:I 0
9 *2138:A1 *2140:A2 5.72765e-05
10 *2138:A1 *337:31 0.000893782
11 *2140:A1 *2140:A2 0.000465425
12 *2149:A2 *2140:A2 0.000356788
13 *2149:B *2140:A2 0.000178376
14 *228:10 *337:14 0.000116751
15 *255:23 *2140:A2 2.86383e-05
16 *286:10 *337:14 0.00127971
17 *303:16 *337:31 0.000440385
18 *304:16 *337:14 0.00183474
19 *308:18 *337:14 0.00118559
20 *308:26 *337:14 0.000680498
*RES
1 *2249:Q *337:14 22.4465 
2 *337:14 *2138:A2 9.52525 
3 *337:14 *337:31 7.02121 
4 *337:31 *2140:A2 6.49596 
5 *337:31 *2139:A2 4.7101 
*END

*D_NET *338 0.00199807
*CONN
*I *2236:A2 I *D gf180mcu_fd_sc_mcu7t5v0__xor2_1
*I *2109:B2 I *D gf180mcu_fd_sc_mcu7t5v0__aoi22_1
*I *2110:A2 I *D gf180mcu_fd_sc_mcu7t5v0__nor2_1
*I *2259:Q O *D gf180mcu_fd_sc_mcu7t5v0__dffq_1
*CAP
1 *2236:A2 0.000184824
2 *2109:B2 0
3 *2110:A2 0.000234324
4 *2259:Q 0.000399435
5 *338:6 0.000448935
6 *2109:A1 *2110:A2 4.29574e-05
7 *2109:A1 *338:6 0.000157112
8 *2109:B1 *2110:A2 0.000180355
9 *2111:A2 *2110:A2 0.000207784
10 *2111:A2 *2236:A2 2.62954e-05
11 *2111:A2 *338:6 5.01898e-05
12 *256:15 *2110:A2 6.58547e-05
*RES
1 *2259:Q *338:6 5.73809 
2 *338:6 *2110:A2 6.41342 
3 *338:6 *2109:B2 4.5 
4 *2259:Q *2236:A2 18.7354 
*END

*D_NET *339 0.00698112
*CONN
*I *2106:B2 I *D gf180mcu_fd_sc_mcu7t5v0__aoi22_1
*I *2232:A2 I *D gf180mcu_fd_sc_mcu7t5v0__xor2_1
*I *2107:A2 I *D gf180mcu_fd_sc_mcu7t5v0__nor2_1
*I *2260:Q O *D gf180mcu_fd_sc_mcu7t5v0__dffq_1
*CAP
1 *2106:B2 0.000259302
2 *2232:A2 0
3 *2107:A2 0.000241095
4 *2260:Q 0.000519961
5 *339:25 0.000402744
6 *339:10 0.000904498
7 *2107:A1 *2106:B2 3.38758e-05
8 *2108:A3 *2106:B2 6.77516e-05
9 *2232:A1 *2106:B2 0.000237882
10 *2234:A1 *339:10 0.00015751
11 *222:10 *2106:B2 1.43191e-05
12 *257:25 *2106:B2 3.9647e-05
13 *297:33 *2106:B2 0.000200468
14 *297:33 *2107:A2 0.00174534
15 *297:33 *339:10 0.000263419
16 *298:12 *339:10 0.000946655
17 *298:12 *339:25 0.000946655
18 *333:18 *339:25 0
19 *333:20 *339:10 0
*RES
1 *2260:Q *339:10 12.5717 
2 *339:10 *2107:A2 10.7859 
3 *339:10 *339:25 5.44545 
4 *339:25 *2232:A2 4.5 
5 *339:25 *2106:B2 6.60101 
*END

*D_NET *340 0.00601124
*CONN
*I *2104:A2 I *D gf180mcu_fd_sc_mcu7t5v0__nor2_1
*I *2103:B2 I *D gf180mcu_fd_sc_mcu7t5v0__aoi22_1
*I *2228:A2 I *D gf180mcu_fd_sc_mcu7t5v0__xor2_1
*I *2261:Q O *D gf180mcu_fd_sc_mcu7t5v0__dffq_1
*CAP
1 *2104:A2 0.000655983
2 *2103:B2 0.000341606
3 *2228:A2 0
4 *2261:Q 0
5 *340:12 0.000609566
6 *340:4 0.000923944
7 *2104:A2 *341:16 0.000116356
8 *340:12 *341:16 0.000664614
9 *2103:A1 *2103:B2 1.09758e-05
10 *2103:B1 *2103:B2 0.00040651
11 *2104:A1 *2104:A2 0
12 *2104:A1 *340:12 3.54988e-05
13 *2229:B *2103:B2 0
14 *2293:D *2103:B2 0
15 *2293:CLK *2104:A2 0.000213811
16 *258:23 *2103:B2 3.38758e-05
17 *290:74 *2103:B2 0
18 *299:10 *340:12 0
19 *335:43 *340:12 0.0019985
*RES
1 *2261:Q *340:4 4.5 
2 *340:4 *340:12 11.3111 
3 *340:12 *2228:A2 4.5 
4 *340:12 *2103:B2 6.39091 
5 *340:4 *2104:A2 8.17676 
*END

*D_NET *341 0.0190751
*CONN
*I *2224:A2 I *D gf180mcu_fd_sc_mcu7t5v0__xor2_1
*I *2100:B2 I *D gf180mcu_fd_sc_mcu7t5v0__aoi22_1
*I *2101:A2 I *D gf180mcu_fd_sc_mcu7t5v0__nor2_1
*I *2262:Q O *D gf180mcu_fd_sc_mcu7t5v0__dffq_1
*CAP
1 *2224:A2 0.000103382
2 *2100:B2 5.42301e-05
3 *2101:A2 0.00018171
4 *2262:Q 0.00273486
5 *341:22 0.000456146
6 *341:16 0.00305845
7 *341:16 *342:12 0.00244327
8 *2100:A2 *341:16 0
9 *2101:A1 *2100:B2 1.55756e-05
10 *2101:A1 *2101:A2 0.000245423
11 *2102:A1 *2101:A2 2.86383e-05
12 *2102:A1 *341:22 0
13 *2102:A2 *2101:A2 0.000273473
14 *2102:A2 *341:16 0.000315548
15 *2102:A2 *341:22 0.000525909
16 *2102:A3 *2100:B2 9.7998e-06
17 *2102:A3 *341:22 9.87624e-05
18 *2104:A2 *341:16 0.000116356
19 *2224:A1 *2224:A2 0.000116356
20 *2229:A2 *341:16 0.000207778
21 *2261:CLK *341:16 0.000273473
22 *2293:CLK *341:16 0.000203255
23 *259:18 *341:16 0.00252425
24 *259:18 *341:22 0.000315545
25 *259:27 *2100:B2 0.000440491
26 *259:27 *2224:A2 0.000349069
27 *259:27 *341:22 0.001047
28 *290:74 *341:16 0.0010651
29 *299:10 *341:16 0
30 *333:61 *2224:A2 1.45974e-05
31 *335:43 *341:16 0.00119206
32 *340:12 *341:16 0.000664614
*RES
1 *2262:Q *341:16 27.3838 
2 *341:16 *341:22 5.97071 
3 *341:22 *2101:A2 15.0758 
4 *341:22 *2100:B2 4.89769 
5 *341:16 *2224:A2 9.6303 
*END

*D_NET *342 0.0178252
*CONN
*I *2220:A2 I *D gf180mcu_fd_sc_mcu7t5v0__xor2_1
*I *2097:B2 I *D gf180mcu_fd_sc_mcu7t5v0__aoi22_1
*I *2098:A2 I *D gf180mcu_fd_sc_mcu7t5v0__nor2_1
*I *2263:Q O *D gf180mcu_fd_sc_mcu7t5v0__dffq_1
*CAP
1 *2220:A2 5.74926e-05
2 *2097:B2 1.94164e-05
3 *2098:A2 0.000408349
4 *2263:Q 0.00203775
5 *342:18 0.00159239
6 *342:12 0.00325986
7 *2097:A2 *342:12 0.000385665
8 *2097:A2 *342:18 0
9 *2097:B1 *2097:B2 0.000207779
10 *2098:A1 *2097:B2 0.000207779
11 *2221:B *342:12 0.00199845
12 *2222:A2 *2220:A2 0.000116356
13 *2222:A3 *2220:A2 0.000101627
14 *2223:A1 *342:12 0.000131376
15 *2223:A3 *2220:A2 2.19645e-05
16 *2223:A3 *342:18 0.000357902
17 *213:6 *2220:A2 0.000170379
18 *290:37 *342:18 0.000257646
19 *290:44 *2220:A2 0.000465425
20 *290:44 *342:18 0.00276719
21 *290:70 *2220:A2 0.000349069
22 *291:8 *342:12 8.93951e-05
23 *300:28 *342:12 0.000378655
24 *341:16 *342:12 0.00244327
*RES
1 *2263:Q *342:12 25.6858 
2 *342:12 *342:18 10.803 
3 *342:18 *2098:A2 10.5758 
4 *342:18 *2097:B2 9.18759 
5 *342:12 *2220:A2 5.23535 
*END

*D_NET *343 0.00348862
*CONN
*I *2216:A2 I *D gf180mcu_fd_sc_mcu7t5v0__xor2_1
*I *2094:B2 I *D gf180mcu_fd_sc_mcu7t5v0__aoi22_1
*I *2095:A2 I *D gf180mcu_fd_sc_mcu7t5v0__nor2_1
*I *2264:Q O *D gf180mcu_fd_sc_mcu7t5v0__dffq_1
*CAP
1 *2216:A2 0.000523571
2 *2094:B2 1.91145e-05
3 *2095:A2 0.000269081
4 *2264:Q 0.000268054
5 *343:19 0.00056166
6 *343:8 0.00055611
7 *2094:A1 *2094:B2 2.55699e-05
8 *2094:A1 *2095:A2 1.56797e-05
9 *2094:A1 *2216:A2 0
10 *2094:B1 *2095:A2 9.73157e-06
11 *2094:B1 *2216:A2 0
12 *2096:A2 *2095:A2 5.41826e-05
13 *2096:A2 *2216:A2 0
14 *2096:A2 *343:8 0.001047
15 *2096:A3 *2094:B2 9.73157e-06
16 *2096:A3 *2095:A2 0
17 *2096:A3 *2216:A2 1.45887e-05
18 *2296:D *2216:A2 7.15956e-05
19 *2296:D *343:8 4.29574e-05
20 *261:18 *2216:A2 0
*RES
1 *2264:Q *343:8 7.02121 
2 *343:8 *2095:A2 6.91616 
3 *343:8 *343:19 0.315151 
4 *343:19 *2094:B2 4.89769 
5 *343:19 *2216:A2 7.02121 
*END

*D_NET *344 0.0214987
*CONN
*I *2212:A2 I *D gf180mcu_fd_sc_mcu7t5v0__xor2_1
*I *2091:B2 I *D gf180mcu_fd_sc_mcu7t5v0__aoi22_1
*I *2092:A2 I *D gf180mcu_fd_sc_mcu7t5v0__nor2_1
*I *2265:Q O *D gf180mcu_fd_sc_mcu7t5v0__dffq_1
*CAP
1 *2212:A2 0
2 *2091:B2 0.000358176
3 *2092:A2 0.000247347
4 *2265:Q 0.00114972
5 *344:12 0.00114753
6 *344:10 0.00169172
7 *2091:B1 *2091:B2 0.000114553
8 *2092:A1 *2092:A2 0.000175302
9 *2092:A1 *344:12 0.000245423
10 *2093:A3 *2092:A2 3.9647e-05
11 *2214:A1 *2091:B2 0.0025349
12 *2214:A3 *344:12 0.00410204
13 *2215:A2 *344:10 2.10363e-05
14 *2215:A3 *344:10 0.000946633
15 *2215:A3 *344:12 0.00115693
16 *2264:D *344:10 0.000116356
17 *262:10 *344:10 0.00365788
18 *262:10 *344:12 7.0121e-05
19 *287:13 *2092:A2 0
20 *329:83 *2091:B2 0.00314161
21 *329:96 *2091:B2 0.000581781
*RES
1 *2265:Q *344:10 18.0343 
2 *344:10 *344:12 5.14747 
3 *344:12 *2092:A2 10.3657 
4 *344:12 *2091:B2 12.6768 
5 *344:10 *2212:A2 9 
*END

*D_NET *345 0.0101351
*CONN
*I *2088:B2 I *D gf180mcu_fd_sc_mcu7t5v0__aoi22_1
*I *2208:A2 I *D gf180mcu_fd_sc_mcu7t5v0__xor2_1
*I *2089:A2 I *D gf180mcu_fd_sc_mcu7t5v0__nor2_1
*I *2266:Q O *D gf180mcu_fd_sc_mcu7t5v0__dffq_1
*CAP
1 *2088:B2 0.000717704
2 *2208:A2 5.46936e-05
3 *2089:A2 0.000397693
4 *2266:Q 0.000794808
5 *345:14 0.000538004
6 *345:12 0.00159813
7 *2088:B1 *2088:B2 0.000237847
8 *2089:A1 *2089:A2 0.00157777
9 *2090:A3 *2089:A2 0
10 *204:10 *2088:B2 0
11 *204:10 *2208:A2 0.000349069
12 *263:10 *2088:B2 0.000982398
13 *263:10 *2089:A2 0.000525909
14 *263:10 *345:12 0.000522361
15 *263:10 *345:14 0.0014726
16 *288:29 *2089:A2 2.86383e-05
17 *289:10 *345:12 0.000138051
18 *289:10 *345:14 0.000199407
*RES
1 *2266:Q *345:12 13.5172 
2 *345:12 *345:14 1.57576 
3 *345:14 *2089:A2 11.8364 
4 *345:14 *2208:A2 9.31515 
5 *345:12 *2088:B2 13.7273 
*END

*D_NET *346 0.0110834
*CONN
*I *2204:A2 I *D gf180mcu_fd_sc_mcu7t5v0__xor2_1
*I *2085:B2 I *D gf180mcu_fd_sc_mcu7t5v0__aoi22_1
*I *2086:A2 I *D gf180mcu_fd_sc_mcu7t5v0__nor2_1
*I *2267:Q O *D gf180mcu_fd_sc_mcu7t5v0__dffq_1
*CAP
1 *2204:A2 0.0001456
2 *2085:B2 0.000484701
3 *2086:A2 0.000177375
4 *2267:Q 0.00126437
5 *346:33 0.00128737
6 *346:14 0.00209882
7 *2085:A1 *2085:B2 0
8 *2085:A1 *2204:A2 9.91176e-05
9 *2086:A1 *346:33 0.000356788
10 *2087:A3 *2086:A2 0.0002314
11 *2087:A3 *346:14 0
12 *2087:A3 *346:33 9.24325e-05
13 *2204:A1 *2204:A2 3.38758e-05
14 *2266:D *2085:B2 4.20727e-05
15 *2267:D *346:14 0.000131477
16 *2267:CLK *2085:B2 4.73318e-05
17 *2299:D *2085:B2 0.0029784
18 *2299:D *346:33 0.001157
19 *2300:CLK *346:14 0
20 *264:10 *346:33 0.000147255
21 *264:19 *2204:A2 0.000169319
22 *264:19 *346:33 0.000138729
*RES
1 *2267:Q *346:14 20.3283 
2 *346:14 *2086:A2 15.0758 
3 *346:14 *346:33 8.28181 
4 *346:33 *2085:B2 12.7818 
5 *346:33 *2204:A2 9.73535 
*END

*D_NET *347 0.00460028
*CONN
*I *2083:A2 I *D gf180mcu_fd_sc_mcu7t5v0__nor2_1
*I *2082:B2 I *D gf180mcu_fd_sc_mcu7t5v0__aoi22_1
*I *2200:A2 I *D gf180mcu_fd_sc_mcu7t5v0__xor2_1
*I *2268:Q O *D gf180mcu_fd_sc_mcu7t5v0__dffq_1
*CAP
1 *2083:A2 0.000203889
2 *2082:B2 0
3 *2200:A2 0.000661045
4 *2268:Q 0.000551564
5 *347:8 0.00100872
6 *2082:B1 *2200:A2 0.00095566
7 *2082:B1 *347:8 6.04925e-05
8 *2084:A2 *2200:A2 0.00015751
9 *2201:A1 *2200:A2 8.58892e-05
10 *2201:B *2200:A2 6.04925e-05
11 *2203:A2 *2200:A2 5.87988e-06
12 *265:12 *2083:A2 0.000412281
13 *265:12 *2200:A2 6.77516e-05
14 *328:173 *2200:A2 1.78991e-05
15 *334:43 *2200:A2 7.91824e-05
16 *334:43 *347:8 0.000272023
*RES
1 *2268:Q *347:8 8.15425 
2 *347:8 *2200:A2 7.98917 
3 *347:8 *2082:B2 4.5 
4 *2200:A2 *2083:A2 10.6808 
*END

*D_NET *348 0.00895428
*CONN
*I *2147:A2 I *D gf180mcu_fd_sc_mcu7t5v0__nor2_1
*I *2056:A2 I *D gf180mcu_fd_sc_mcu7t5v0__xor2_1
*I *2146:B2 I *D gf180mcu_fd_sc_mcu7t5v0__aoi22_1
*I *2250:Q O *D gf180mcu_fd_sc_mcu7t5v0__dffq_1
*CAP
1 *2147:A2 0.000139574
2 *2056:A2 0.000379735
3 *2146:B2 0
4 *2250:Q 0.000697603
5 *348:6 0.000937765
6 *2056:A1 *2056:A2 2.08534e-06
7 *2056:A1 *2147:A2 0.000372634
8 *2056:A1 *348:6 1.564e-05
9 *2146:A2 *2056:A2 7.23423e-05
10 *2146:A2 *348:6 6.27187e-06
11 *2146:B1 *2056:A2 3.9647e-05
12 *2146:B1 *348:6 0.000308203
13 *2148:A1 *348:6 0.000277529
14 *2148:A2 *2056:A2 0.00113863
15 *2148:A3 *2147:A2 0.000372634
16 *266:6 *2147:A2 0
17 *334:248 *348:6 0.00360704
18 *334:269 *2056:A2 0.000379172
19 *334:269 *348:6 0.000207779
*RES
1 *2250:Q *348:6 9.30981 
2 *348:6 *2146:B2 4.5 
3 *348:6 *2056:A2 6.62352 
4 *2056:A2 *2147:A2 10.3657 
*END

*D_NET *349 0.0171327
*CONN
*I *2079:B2 I *D gf180mcu_fd_sc_mcu7t5v0__aoi22_1
*I *2080:A2 I *D gf180mcu_fd_sc_mcu7t5v0__nor2_1
*I *2196:A2 I *D gf180mcu_fd_sc_mcu7t5v0__xor2_1
*I *2269:Q O *D gf180mcu_fd_sc_mcu7t5v0__dffq_1
*CAP
1 *2079:B2 0.000717537
2 *2080:A2 0.000482053
3 *2196:A2 0.000134033
4 *2269:Q 0.000110384
5 *349:10 0.0013352
6 *349:6 0.00154704
7 *2079:B2 *369:316 5.2067e-05
8 *349:10 *369:303 5.78499e-05
9 *2079:B1 *2079:B2 0.000101627
10 *2079:B1 *349:10 3.15545e-05
11 *2081:A2 *2079:B2 3.89391e-05
12 *2081:A2 *2080:A2 2.47794e-05
13 *2081:A2 *349:10 0
14 *2081:A3 *2080:A2 0.00151146
15 *2170:A2 *2079:B2 0.00199825
16 *2196:A1 *349:10 3.15545e-05
17 *2301:D *2196:A2 0.000420726
18 *2301:D *349:10 0.000175302
19 *195:10 *2196:A2 0.000315557
20 *267:8 *349:10 2.10363e-05
21 *289:71 *2080:A2 0.000214787
22 *292:12 *2079:B2 0.00037858
23 *304:16 *2079:B2 0.00232691
24 *304:16 *349:6 0.00127992
25 *305:34 *2080:A2 5.83807e-05
26 *307:48 *2196:A2 0.000525907
27 *307:48 *349:10 0.00217364
28 *308:26 *2079:B2 0.000300676
29 *308:26 *349:6 0.00015751
30 *328:32 *2079:B2 0.000574379
31 *328:118 *2079:B2 3.50605e-05
*RES
1 *2269:Q *349:6 5.65555 
2 *349:6 *349:10 8.80707 
3 *349:10 *2196:A2 10.5758 
4 *349:10 *2080:A2 12.0465 
5 *349:6 *2079:B2 18.73 
*END

*D_NET *350 0.00628699
*CONN
*I *2077:A2 I *D gf180mcu_fd_sc_mcu7t5v0__nor2_1
*I *2076:B2 I *D gf180mcu_fd_sc_mcu7t5v0__aoi22_1
*I *2192:A2 I *D gf180mcu_fd_sc_mcu7t5v0__xor2_1
*I *2270:Q O *D gf180mcu_fd_sc_mcu7t5v0__dffq_1
*CAP
1 *2077:A2 0.000443254
2 *2076:B2 0
3 *2192:A2 0.00172159
4 *2270:Q 0.00142566
5 *350:22 0.00073918
6 *2076:A1 *2077:A2 0
7 *2076:A1 *350:22 1.98235e-05
8 *2078:A1 *2077:A2 2.19516e-05
9 *2173:A3 *2192:A2 0
10 *2192:A1 *350:22 0.000440264
11 *2194:A3 *2192:A2 4.73318e-05
12 *2270:CLK *2192:A2 0
13 *268:10 *2192:A2 0
14 *268:16 *2077:A2 0.00136744
15 *268:16 *2192:A2 0
16 *268:16 *350:22 6.04925e-05
17 *292:78 *2192:A2 0
*RES
1 *2270:Q *2192:A2 26.299 
2 *2192:A2 *350:22 6.1583 
3 *350:22 *2076:B2 4.5 
4 *350:22 *2077:A2 15.496 
*END

*D_NET *351 0.00967873
*CONN
*I *2188:A2 I *D gf180mcu_fd_sc_mcu7t5v0__xor2_1
*I *2074:A2 I *D gf180mcu_fd_sc_mcu7t5v0__nor2_1
*I *2073:B2 I *D gf180mcu_fd_sc_mcu7t5v0__aoi22_1
*I *2271:Q O *D gf180mcu_fd_sc_mcu7t5v0__dffq_1
*CAP
1 *2188:A2 0
2 *2074:A2 0.000382452
3 *2073:B2 0
4 *2271:Q 0.00133795
5 *351:14 0.0010023
6 *351:8 0.0019578
7 *2074:A2 *2073:A1 0
8 *2074:A2 *369:291 0.000162836
9 *351:14 *369:291 5.52227e-05
10 *2073:B1 *2074:A2 0
11 *2073:B1 *351:14 0.00162878
12 *2075:A2 *2074:A2 5.72765e-05
13 *2075:A3 *2074:A2 0
14 *2075:A3 *351:8 0
15 *2188:A1 *351:14 0.00127992
16 *2189:B *351:14 3.78749e-05
17 *2191:A2 *351:14 0
18 *2303:CLK *351:8 0.000736273
19 *2303:CLK *351:14 0.000301595
20 *292:55 *351:8 0.000294509
21 *292:70 *351:8 0.000336582
22 *331:98 *351:8 0.000107373
*RES
1 *2271:Q *351:8 19.6101 
2 *351:8 *351:14 8.15425 
3 *351:14 *2073:B2 4.5 
4 *351:14 *2074:A2 7.04372 
5 *351:8 *2188:A2 9 
*END

*D_NET *352 0.0147887
*CONN
*I *2071:A2 I *D gf180mcu_fd_sc_mcu7t5v0__nor2_1
*I *2184:A2 I *D gf180mcu_fd_sc_mcu7t5v0__xor2_1
*I *2070:B2 I *D gf180mcu_fd_sc_mcu7t5v0__aoi22_1
*I *2272:Q O *D gf180mcu_fd_sc_mcu7t5v0__dffq_1
*CAP
1 *2071:A2 0.000179448
2 *2184:A2 9.1754e-05
3 *2070:B2 0.000371796
4 *2272:Q 0.00224897
5 *352:12 0.000712483
6 *352:10 0.00267735
7 *352:10 *2181:A1 0
8 *352:10 *369:230 0
9 *352:10 *369:435 0
10 *2070:A2 *2070:B2 8.36756e-05
11 *2070:B1 *2070:B2 0.00162898
12 *2071:A1 *2071:A2 0.000138729
13 *2072:A2 *2071:A2 3.40518e-05
14 *2072:A3 *2071:A2 2.86383e-05
15 *2072:A3 *352:12 0
16 *2184:A1 *2070:B2 0.000348861
17 *2184:A1 *2184:A2 0.000304822
18 *2275:CLK *352:10 0.000101567
19 *2304:D *2184:A2 0.00104699
20 *2304:CLK *2070:B2 0.00020865
21 *186:14 *2070:B2 5.91647e-05
22 *270:8 *352:10 0.00147254
23 *270:12 *2070:B2 0.000525909
24 *270:12 *352:10 0.000736272
25 *270:12 *352:12 0.00178809
*RES
1 *2272:Q *352:10 20.1353 
2 *352:10 *352:12 1.78586 
3 *352:12 *2070:B2 11.8139 
4 *352:12 *2184:A2 9.94545 
5 *352:10 *2071:A2 9.94545 
*END

*D_NET *353 0.00889797
*CONN
*I *2067:B2 I *D gf180mcu_fd_sc_mcu7t5v0__aoi22_1
*I *2068:A2 I *D gf180mcu_fd_sc_mcu7t5v0__nor2_1
*I *2180:A2 I *D gf180mcu_fd_sc_mcu7t5v0__xor2_1
*I *2273:Q O *D gf180mcu_fd_sc_mcu7t5v0__dffq_1
*CAP
1 *2067:B2 0.000169337
2 *2068:A2 0.000259555
3 *2180:A2 0.00141398
4 *2273:Q 0.00128328
5 *353:20 0.000559593
6 *2067:B1 *2067:B2 0.00163827
7 *2069:A1 *2067:B2 0.00199847
8 *2069:A1 *2180:A2 0.000495553
9 *2069:A2 *2067:B2 2.55699e-05
10 *2069:A2 *2068:A2 5.48593e-05
11 *2069:A2 *353:20 8.62382e-06
12 *2069:A3 *2068:A2 0.00019021
13 *2180:A1 *2180:A2 1.43191e-05
14 *2182:A3 *353:20 1.45974e-05
15 *2305:D *2180:A2 5.8372e-05
16 *271:14 *2180:A2 0
17 *271:21 *2068:A2 0.0001805
18 *271:21 *2180:A2 3.29273e-05
19 *271:21 *353:20 5.94706e-05
20 *293:53 *2067:B2 0.000440491
21 *293:53 *2068:A2 0
*RES
1 *2273:Q *2180:A2 16.0384 
2 *2180:A2 *353:20 5.3404 
3 *353:20 *2068:A2 5.86566 
4 *353:20 *2067:B2 15.8936 
*END

*D_NET *354 0.00372147
*CONN
*I *2177:A2 I *D gf180mcu_fd_sc_mcu7t5v0__nor2_1
*I *2178:A2 I *D gf180mcu_fd_sc_mcu7t5v0__xor3_1
*I *2176:A2 I *D gf180mcu_fd_sc_mcu7t5v0__nand2_1
*I *2274:Q O *D gf180mcu_fd_sc_mcu7t5v0__dffq_1
*CAP
1 *2177:A2 0.000616601
2 *2178:A2 0
3 *2176:A2 0.000580282
4 *2274:Q 0.000154236
5 *354:21 0.00072206
6 *354:6 0.000839977
7 *2065:A2 *2176:A2 0.000182687
8 *2065:A2 *2177:A2 0
9 *2065:A2 *354:21 4.86578e-06
10 *2065:B *2177:A2 8.20707e-05
11 *2176:A1 *2176:A2 7.06447e-05
12 *2177:A1 *2177:A2 9.87624e-05
13 *2178:A1 *2177:A2 0.000232712
14 *2178:A3 *2177:A2 0
15 *272:16 *2177:A2 0.000131709
16 *292:76 *2176:A2 4.86578e-06
*RES
1 *2274:Q *354:6 5.23535 
2 *354:6 *2176:A2 7.23131 
3 *354:6 *354:21 1.0505 
4 *354:21 *2178:A2 4.5 
5 *354:21 *2177:A2 7.96666 
*END

*D_NET *355 0.0190484
*CONN
*I *2171:A2 I *D gf180mcu_fd_sc_mcu7t5v0__nand2_1
*I *2173:A2 I *D gf180mcu_fd_sc_mcu7t5v0__xor3_1
*I *2172:A2 I *D gf180mcu_fd_sc_mcu7t5v0__nor2_1
*I *2275:Q O *D gf180mcu_fd_sc_mcu7t5v0__dffq_1
*CAP
1 *2171:A2 0.000579448
2 *2173:A2 0.000125648
3 *2172:A2 0.000139622
4 *2275:Q 0.00565073
5 *355:14 0.000439866
6 *355:10 0.00640477
7 *2064:A1 *2172:A2 0
8 *2064:A1 *2173:A2 0
9 *2064:B *2172:A2 5.94706e-05
10 *2065:B *355:10 0.000273473
11 *2171:A1 *2171:A2 0.000550677
12 *2173:A1 *2171:A2 0.000198355
13 *2173:A1 *2172:A2 0.00056495
14 *2173:A1 *2173:A2 0.00104699
15 *2173:A3 *355:10 0.000130162
16 *2173:A3 *355:14 8.28306e-05
17 *2174:A1 *355:10 0
18 *2176:A1 *355:10 0
19 *2178:A3 *355:10 0.000153828
20 *2273:D *355:10 0.000806391
21 *179:12 *355:10 0.000248492
22 *272:10 *355:10 0.000385665
23 *272:16 *355:10 0
24 *273:23 *2171:A2 0.000614604
25 *273:23 *2172:A2 1.66223e-05
26 *292:76 *355:10 0
27 *328:83 *2171:A2 0.000575828
*RES
1 *2275:Q *355:10 46.3979 
2 *355:10 *355:14 5.23535 
3 *355:14 *2172:A2 5.44545 
4 *355:14 *2173:A2 5.44545 
5 *355:10 *2171:A2 12.8869 
*END

*D_NET *356 0.00543843
*CONN
*I *2167:A2 I *D gf180mcu_fd_sc_mcu7t5v0__nor2_1
*I *2168:A2 I *D gf180mcu_fd_sc_mcu7t5v0__xor3_1
*I *2166:A2 I *D gf180mcu_fd_sc_mcu7t5v0__nand2_1
*I *2276:Q O *D gf180mcu_fd_sc_mcu7t5v0__dffq_1
*CAP
1 *2167:A2 0.000350094
2 *2168:A2 0.000189436
3 *2166:A2 0.000239303
4 *2276:Q 0.000588693
5 *356:19 0.00070437
6 *356:6 0.000992835
7 *2166:A1 *2166:A2 0.000116356
8 *2167:A1 *2167:A2 3.38758e-05
9 *2168:A1 *2167:A2 0
10 *2168:A3 *2168:A2 0.00178815
11 *2169:A2 *2168:A2 7.0121e-05
12 *2169:A2 *356:19 0.000350605
13 *2308:D *2167:A2 1.45974e-05
14 *274:12 *356:19 0
*RES
1 *2276:Q *356:6 7.75656 
2 *356:6 *2166:A2 6.07576 
3 *356:6 *356:19 5.86566 
4 *356:19 *2168:A2 10.996 
5 *356:19 *2167:A2 10.7859 
*END

*D_NET *357 0.00765562
*CONN
*I *2162:A2 I *D gf180mcu_fd_sc_mcu7t5v0__nor2_1
*I *2163:A2 I *D gf180mcu_fd_sc_mcu7t5v0__xor3_1
*I *2161:A2 I *D gf180mcu_fd_sc_mcu7t5v0__nand2_1
*I *2277:Q O *D gf180mcu_fd_sc_mcu7t5v0__dffq_1
*CAP
1 *2162:A2 0.0004141
2 *2163:A2 0.000511837
3 *2161:A2 0.000150313
4 *2277:Q 0
5 *357:17 0.001344
6 *357:4 0.000568379
7 *2062:A2 *2161:A2 2.19516e-05
8 *2062:C *357:17 8.0316e-05
9 *2161:A1 *2161:A2 0.000116356
10 *2161:A1 *357:17 0.00202101
11 *2162:A1 *2162:A2 1.98235e-05
12 *2163:A1 *2163:A2 0.000386617
13 *2163:A3 *2162:A2 0.00034886
14 *2163:A3 *2163:A2 0.000373176
15 *2276:CLK *2163:A2 0
16 *2309:D *2163:A2 0.000237131
17 *2309:D *357:17 0.000135443
18 *167:12 *357:17 2.35195e-06
19 *332:77 *2162:A2 0.000349069
20 *332:77 *357:17 0.000574882
*RES
1 *2277:Q *357:4 4.5 
2 *357:4 *2161:A2 5.65555 
3 *357:4 *357:17 4.20202 
4 *357:17 *2163:A2 9.12222 
5 *357:17 *2162:A2 6.39091 
*END

*D_NET *358 0.0158926
*CONN
*I *2156:A2 I *D gf180mcu_fd_sc_mcu7t5v0__nand2_1
*I *2157:A2 I *D gf180mcu_fd_sc_mcu7t5v0__nor2_1
*I *2158:A2 I *D gf180mcu_fd_sc_mcu7t5v0__xor3_1
*I *2278:Q O *D gf180mcu_fd_sc_mcu7t5v0__dffq_1
*CAP
1 *2156:A2 0.000801303
2 *2157:A2 0.000194527
3 *2158:A2 0.000232984
4 *2278:Q 0.00306229
5 *358:10 0.00429111
6 *2156:A2 *2150:A1 0
7 *2061:A2 *2156:A2 6.77516e-05
8 *2061:B *2156:A2 0.00228536
9 *2061:B *2157:A2 0.0010472
10 *2061:C *2156:A2 8.2126e-05
11 *2150:A2 *2156:A2 0
12 *2154:A1 *358:10 0
13 *2156:A1 *2156:A2 0.000877393
14 *2158:A3 *2156:A2 0.0027674
15 *2158:A3 *2157:A2 9.73157e-06
16 *2160:A2 *2158:A2 0
17 *2279:D *2156:A2 3.0678e-05
18 *2310:D *2156:A2 0.000142762
19 *2311:CLK *358:10 0
20 *276:8 *358:10 0
21 *276:12 *2158:A2 0
22 *276:12 *358:10 0
23 *278:10 *358:10 0
24 *322:16 *2158:A2 0
25 *322:16 *358:10 0
26 *332:60 *358:10 0
27 *332:71 *358:10 0
28 *332:109 *358:10 0
*RES
1 *2278:Q *358:10 25.8081 
2 *358:10 *2158:A2 10.7859 
3 *358:10 *2157:A2 10.4707 
4 *358:10 *2156:A2 23.1475 
*END

*D_NET *359 0.00659221
*CONN
*I *2144:A2 I *D gf180mcu_fd_sc_mcu7t5v0__nor2_1
*I *2143:B2 I *D gf180mcu_fd_sc_mcu7t5v0__aoi22_1
*I *2052:A2 I *D gf180mcu_fd_sc_mcu7t5v0__xor2_1
*I *2251:Q O *D gf180mcu_fd_sc_mcu7t5v0__dffq_1
*CAP
1 *2144:A2 0.000375443
2 *2143:B2 0
3 *2052:A2 0.000350623
4 *2251:Q 0.000229067
5 *359:10 0.000636422
6 *359:8 0.000890309
7 *2052:A1 *2052:A2 0.00165392
8 *2052:A1 *359:10 0.000324135
9 *2143:A1 *359:10 0.000128872
10 *2143:A2 *2052:A2 5.90845e-06
11 *2143:A2 *359:8 4.86578e-06
12 *2143:A2 *359:10 3.30178e-05
13 *2143:B1 *2052:A2 0
14 *2144:A1 *359:10 3.40605e-05
15 *2145:A2 *2052:A2 3.53992e-05
16 *2145:A3 *2144:A2 3.9647e-05
17 *2251:D *2144:A2 0
18 *249:12 *2052:A2 0
19 *293:14 *2144:A2 0
20 *334:183 *2144:A2 0.000105181
21 *334:183 *359:8 0.00116356
22 *334:183 *359:10 0.000581781
*RES
1 *2251:Q *359:8 6.18081 
2 *359:8 *359:10 1.6583 
3 *359:10 *2052:A2 6.72857 
4 *359:10 *2143:B2 4.5 
5 *359:8 *2144:A2 15.7061 
*END

*D_NET *360 0.00439582
*CONN
*I *2151:A2 I *D gf180mcu_fd_sc_mcu7t5v0__nand2_1
*I *2153:A2 I *D gf180mcu_fd_sc_mcu7t5v0__xor3_1
*I *2152:A2 I *D gf180mcu_fd_sc_mcu7t5v0__nor2_1
*I *2279:Q O *D gf180mcu_fd_sc_mcu7t5v0__dffq_1
*CAP
1 *2151:A2 0.000535925
2 *2153:A2 0.000822066
3 *2152:A2 2.81848e-05
4 *2279:Q 0.000126867
5 *360:6 0.000441193
6 *2060:A2 *2151:A2 2.62635e-05
7 *2060:B *2153:A2 0.000220245
8 *2060:B *360:6 0.000581779
9 *2151:A1 *2151:A2 0.000528704
10 *2151:A1 *2153:A2 2.12395e-06
11 *2151:A1 *360:6 7.92941e-05
12 *2153:A1 *2151:A2 0.000440385
13 *2153:A1 *2153:A2 0.000257706
14 *2311:D *2151:A2 0
15 *2311:CLK *2151:A2 0.00021751
16 *278:12 *2151:A2 6.77516e-05
17 *278:12 *2153:A2 1.98235e-05
*RES
1 *2279:Q *360:6 5.44545 
2 *360:6 *2152:A2 4.7101 
3 *360:6 *2153:A2 6.60101 
4 *2153:A2 *2151:A2 12.4667 
*END

*D_NET *361 0.0201253
*CONN
*I *2131:A2 I *D gf180mcu_fd_sc_mcu7t5v0__nor2_1
*I *2130:B2 I *D gf180mcu_fd_sc_mcu7t5v0__aoi22_1
*I *2048:A2 I *D gf180mcu_fd_sc_mcu7t5v0__xor2_1
*I *2252:Q O *D gf180mcu_fd_sc_mcu7t5v0__dffq_1
*CAP
1 *2131:A2 0.00035685
2 *2130:B2 0.000399732
3 *2048:A2 0.000173035
4 *2252:Q 0.0011842
5 *361:12 0.000861052
6 *361:10 0.00182933
7 *2130:B2 *2130:A1 1.29001e-05
8 *361:10 *369:277 0.000248492
9 *2046:A3 *361:10 0.000350605
10 *2130:B1 *2130:B2 0.00162898
11 *2131:A1 *2131:A2 0.000779083
12 *2132:A2 *2130:B2 7.92587e-05
13 *2132:A2 *2131:A2 0.000111904
14 *280:16 *2130:B2 0.000232712
15 *292:23 *2048:A2 0.000736272
16 *292:23 *361:10 0.00389172
17 *292:23 *361:12 0.00199845
18 *292:38 *361:10 0.00420727
19 *303:16 *2048:A2 0.000581781
20 *303:16 *2130:B2 1.12507e-05
21 *310:18 *361:10 0.000101567
22 *331:72 *361:10 0.000348861
*RES
1 *2252:Q *361:10 18.4545 
2 *361:10 *361:12 1.99596 
3 *361:12 *2048:A2 10.2606 
4 *361:12 *2130:B2 11.7088 
5 *361:10 *2131:A2 11.6263 
*END

*D_NET *362 0.0135077
*CONN
*I *2128:A2 I *D gf180mcu_fd_sc_mcu7t5v0__nor2_1
*I *2127:B2 I *D gf180mcu_fd_sc_mcu7t5v0__aoi22_1
*I *2044:A2 I *D gf180mcu_fd_sc_mcu7t5v0__xor2_1
*I *2253:Q O *D gf180mcu_fd_sc_mcu7t5v0__dffq_1
*CAP
1 *2128:A2 0.000105564
2 *2127:B2 0.000126448
3 *2044:A2 0.000330183
4 *2253:Q 0.000940132
5 *362:14 0.000764962
6 *362:12 0.00135403
7 *362:12 *369:212 5.91647e-05
8 *2042:A2 *362:12 2.10363e-05
9 *2042:A3 *362:12 7.6695e-05
10 *2044:A1 *2044:A2 0.000260763
11 *2044:A1 *362:14 4.6017e-05
12 *2127:A2 *2044:A2 0
13 *2127:A2 *2127:B2 7.68304e-05
14 *2127:A2 *2128:A2 7.15957e-05
15 *2127:A2 *362:14 0
16 *2127:B1 *2127:B2 4.12298e-05
17 *2129:A3 *2128:A2 3.9647e-05
18 *2175:A2 *2044:A2 0.000814491
19 *2285:D *2127:B2 0.00015434
20 *240:10 *362:12 4.6017e-05
21 *243:10 *2044:A2 0.000814491
22 *281:8 *2128:A2 0.000169379
23 *281:19 *362:12 7.6695e-05
24 *281:19 *362:14 0.000245424
25 *330:54 *362:12 0.00624143
26 *330:67 *362:12 0.0006311
*RES
1 *2253:Q *362:12 17.299 
2 *362:12 *362:14 1.99596 
3 *362:14 *2044:A2 11.5212 
4 *362:14 *2127:B2 9.81789 
5 *362:12 *2128:A2 9.73535 
*END

*D_NET *363 0.00724634
*CONN
*I *2125:A2 I *D gf180mcu_fd_sc_mcu7t5v0__nor2_1
*I *2124:B2 I *D gf180mcu_fd_sc_mcu7t5v0__aoi22_1
*I *2040:A2 I *D gf180mcu_fd_sc_mcu7t5v0__xor2_1
*I *2254:Q O *D gf180mcu_fd_sc_mcu7t5v0__dffq_1
*CAP
1 *2125:A2 0.000236456
2 *2124:B2 0
3 *2040:A2 0.000750807
4 *2254:Q 0.00141178
5 *363:12 0.00192614
6 *2040:A2 *2124:A1 1.45887e-05
7 *2043:A1 *2040:A2 3.52793e-05
8 *2043:A1 *363:12 8.62382e-06
9 *2043:A3 *2040:A2 9.91176e-05
10 *2124:A2 *2040:A2 8.62382e-06
11 *2124:A2 *363:12 8.58267e-05
12 *2124:B1 *2040:A2 9.73157e-06
13 *2125:A1 *2125:A2 6.77516e-05
14 *2126:A2 *2040:A2 3.06838e-06
15 *2126:A2 *363:12 2.81269e-05
16 *2126:A3 *2125:A2 0.000171062
17 *2253:D *2040:A2 0.000114527
18 *2286:D *2125:A2 2.25395e-05
19 *240:10 *2125:A2 6.77516e-05
20 *282:16 *2125:A2 0.000214797
21 *295:46 *363:12 0.000806391
22 *311:30 *2125:A2 0.00116335
23 *311:30 *363:12 0
24 *322:16 *363:12 0
25 *322:22 *363:12 0
*RES
1 *2254:Q *363:12 21.5664 
2 *363:12 *2040:A2 6.93867 
3 *363:12 *2124:B2 4.5 
4 *2040:A2 *2125:A2 11.101 
*END

*D_NET *364 0.00682786
*CONN
*I *2036:A2 I *D gf180mcu_fd_sc_mcu7t5v0__xor2_1
*I *2121:B2 I *D gf180mcu_fd_sc_mcu7t5v0__aoi22_1
*I *2122:A2 I *D gf180mcu_fd_sc_mcu7t5v0__nor2_1
*I *2255:Q O *D gf180mcu_fd_sc_mcu7t5v0__dffq_1
*CAP
1 *2036:A2 0
2 *2121:B2 0.000338342
3 *2122:A2 0.0001707
4 *2255:Q 0.000331109
5 *364:10 0.000840151
6 *2122:A2 *369:174 0.00127992
7 *364:10 *369:170 0.000195614
8 *364:10 *369:174 0.000930641
9 *2121:A2 *2121:B2 7.44785e-06
10 *2121:B1 *2121:B2 0.00168292
11 *2123:A3 *2121:B2 6.83681e-05
12 *314:22 *2122:A2 0.000174024
13 *314:22 *364:10 0.000740125
14 *330:27 *2121:B2 6.31091e-05
15 *330:31 *2121:B2 5.38712e-06
*RES
1 *2255:Q *364:10 6.49596 
2 *364:10 *2122:A2 6.07576 
3 *364:10 *2121:B2 15.6835 
4 *364:10 *2036:A2 4.5 
*END

*D_NET *365 0.0220974
*CONN
*I *2032:A2 I *D gf180mcu_fd_sc_mcu7t5v0__xor2_1
*I *2119:A2 I *D gf180mcu_fd_sc_mcu7t5v0__nor2_1
*I *2118:B2 I *D gf180mcu_fd_sc_mcu7t5v0__aoi22_1
*I *2256:Q O *D gf180mcu_fd_sc_mcu7t5v0__dffq_1
*CAP
1 *2032:A2 0.000124978
2 *2119:A2 0.000314378
3 *2118:B2 0
4 *2256:Q 0.000928445
5 *365:26 0.00096745
6 *365:20 0.0017065
7 *2032:A2 *369:16 0.000349069
8 *2119:A2 *2118:A1 3.17066e-05
9 *365:20 *2033:A1 0.00117742
10 *365:26 *2118:A1 2.86383e-05
11 *365:26 *369:29 7.09976e-05
12 *365:26 *369:31 0.000106496
13 *2032:A1 *2032:A2 9.2034e-05
14 *2032:A1 *365:26 0.000260763
15 *2033:B *365:20 8.34797e-05
16 *2035:A2 *365:20 0.000411401
17 *2118:A2 *365:20 0.000525909
18 *2118:B1 *2119:A2 2.62954e-05
19 *2118:B1 *365:26 0.000455786
20 *2120:A2 *2119:A2 0.000250945
21 *2120:A2 *365:26 0.000110445
22 *2120:A3 *2119:A2 0.00105182
23 *284:12 *365:26 0.000168729
24 *300:22 *2119:A2 0.000228544
25 *300:22 *365:26 4.20727e-05
26 *306:18 *2032:A2 0.000349069
27 *306:18 *365:20 0.0070975
28 *307:28 *365:20 0.00197785
29 *310:18 *365:20 0.000761957
30 *321:22 *365:20 0.000338758
31 *324:14 *365:20 0.000280484
32 *326:14 *2119:A2 9.45259e-05
33 *330:12 *2032:A2 0.000736272
34 *330:12 *365:26 0.000946647
*RES
1 *2256:Q *365:20 27.5596 
2 *365:20 *365:26 9.20476 
3 *365:26 *2118:B2 4.5 
4 *365:26 *2119:A2 16.0437 
5 *365:20 *2032:A2 10.0505 
*END

*D_NET *366 0.00716439
*CONN
*I *2116:A2 I *D gf180mcu_fd_sc_mcu7t5v0__nor2_1
*I *2115:B2 I *D gf180mcu_fd_sc_mcu7t5v0__aoi22_1
*I *2244:A2 I *D gf180mcu_fd_sc_mcu7t5v0__xor2_1
*I *2257:Q O *D gf180mcu_fd_sc_mcu7t5v0__dffq_1
*CAP
1 *2116:A2 0.000350256
2 *2115:B2 8.0911e-05
3 *2244:A2 7.73995e-05
4 *2257:Q 0.000551854
5 *366:21 0.000767444
6 *366:6 0.00096553
7 *2115:B2 *2115:A1 1.55756e-05
8 *366:6 *369:97 5.94706e-05
9 *366:6 *369:107 0.000277494
10 *366:21 *2115:A1 0.000581573
11 *2115:A2 *2116:A2 0.000361562
12 *2115:A2 *366:21 0.000770148
13 *2115:B1 *2115:B2 6.77516e-05
14 *2115:B1 *2116:A2 0.000139848
15 *2117:A2 *366:21 0.000168729
16 *2256:CLK *366:6 8.62382e-06
17 *2289:CLK *2115:B2 0.000207778
18 *2289:CLK *2116:A2 0.000237131
19 *2289:CLK *366:21 5.94706e-05
20 *231:10 *2244:A2 0
21 *231:10 *366:6 0
22 *295:16 *366:21 0.000399691
23 *301:14 *2244:A2 0.000135443
24 *301:14 *366:6 0.00088071
*RES
1 *2257:Q *366:6 7.33636 
2 *366:6 *2244:A2 4.9202 
3 *366:6 *366:21 11.5212 
4 *366:21 *2115:B2 5.21284 
5 *366:21 *2116:A2 15.9162 
*END

*D_NET *367 0.00847917
*CONN
*I *2112:B2 I *D gf180mcu_fd_sc_mcu7t5v0__aoi22_1
*I *2240:A2 I *D gf180mcu_fd_sc_mcu7t5v0__xor2_1
*I *2113:A2 I *D gf180mcu_fd_sc_mcu7t5v0__nor2_1
*I *2258:Q O *D gf180mcu_fd_sc_mcu7t5v0__dffq_1
*CAP
1 *2112:B2 0
2 *2240:A2 0.000619925
3 *2113:A2 0.000440396
4 *2258:Q 0.00056738
5 *367:16 0.00116249
6 *367:8 0.000669546
7 *2112:A1 *367:8 0.000551618
8 *2112:A1 *367:16 1.29001e-05
9 *2112:A2 *2240:A2 0.000189327
10 *2112:A2 *367:8 2.35195e-06
11 *2112:A2 *367:16 1.58416e-05
12 *2112:B1 *367:16 0.000465216
13 *2113:A1 *2113:A2 8.27883e-05
14 *2113:A1 *2240:A2 2.36659e-05
15 *2114:A3 *2113:A2 1.05182e-05
16 *225:18 *2113:A2 0
17 *286:12 *2240:A2 0.000118308
18 *291:69 *2113:A2 0.00104699
19 *291:69 *367:8 0.00010809
20 *291:69 *367:16 5.86824e-05
21 *300:28 *2113:A2 0.000199407
22 *300:28 *2240:A2 0.000322119
23 *305:16 *2240:A2 0.000372573
24 *313:20 *367:8 0.001047
25 *329:14 *2240:A2 0.000372573
26 *333:10 *367:8 1.94631e-05
*RES
1 *2258:Q *367:8 8.61948 
2 *367:8 *367:16 5.52799 
3 *367:16 *2113:A2 11.5212 
4 *367:16 *2240:A2 12.3616 
5 *367:8 *2112:B2 4.5 
*END

*D_NET *4 0.0137739
*CONN
*P x[0] I
*I *2362:I I *D gf180mcu_fd_sc_mcu7t5v0__buf_1
*CAP
1 x[0] 0.00076096
2 *2362:I 0.00076096
3 *2362:I *2137:A2 0.000581572
4 *2362:I *2329:I 0.00992414
5 *2362:I *2347:I 0.00140849
6 *2362:I *2349:I 6.77516e-05
7 *2362:I *320:20 0.000270058
*RES
1 x[0] *2362:I 15.3202 
*END

*D_NET *5 0.0224066
*CONN
*P x[10] I
*I *2329:I I *D gf180mcu_fd_sc_mcu7t5v0__buf_1
*CAP
1 x[10] 0.0006782
2 *2329:I 0.0006782
3 *2329:I *2137:A2 3.50605e-05
4 *2329:I *2334:I 0.00107992
5 *2329:I *2353:I 0.00849465
6 *2329:I *311:12 0.000736284
7 *2329:I *320:20 0.00065389
8 *2329:I *323:12 0.000126218
9 *2362:I *2329:I 0.00992414
*RES
1 x[10] *2329:I 25.1606 
*END

*D_NET *6 0.00931234
*CONN
*P x[11] I
*I *2330:I I *D gf180mcu_fd_sc_mcu7t5v0__buf_1
*CAP
1 x[11] 0.00200084
2 *2330:I 0.00200084
3 *2330:I *2331:I 0.00152441
4 *2330:I *2334:I 0.00174545
5 *2330:I *2342:I 8.78062e-05
6 *2330:I *2347:I 0.00121953
7 *2330:I *2356:I 0.00073347
8 *1:10 *2330:I 0
*RES
1 x[11] *2330:I 27.7869 
*END

*D_NET *7 0.0157196
*CONN
*P x[12] I
*I *2331:I I *D gf180mcu_fd_sc_mcu7t5v0__buf_1
*CAP
1 x[12] 0.00181815
2 *2331:I 0.00181815
3 *2331:I *2332:I 0.00344592
4 *2331:I *2344:I 6.77516e-05
5 *2331:I *2346:I 0
6 *2331:I *2350:I 0.000674
7 *2331:I *2356:I 0.000567352
8 *2331:I *2358:I 0.000349069
9 *2331:I *2363:I 0.00113821
10 *2331:I *297:16 0.000515396
11 *2331:I *305:16 0.00335759
12 *2331:I *325:14 0.000304882
13 *2331:I *329:14 0.000138765
14 *2330:I *2331:I 0.00152441
*RES
1 x[12] *2331:I 20.7828 
*END

*D_NET *8 0.00824984
*CONN
*P x[13] I
*I *2332:I I *D gf180mcu_fd_sc_mcu7t5v0__buf_1
*CAP
1 x[13] 0.00173642
2 *2332:I 0.00173642
3 *2332:I *2344:I 6.77516e-05
4 *2332:I *2350:I 0.00121953
5 *2332:I *2356:I 4.37921e-05
6 *2331:I *2332:I 0.00344592
7 *1:10 *2332:I 0
*RES
1 x[13] *2332:I 27.7869 
*END

*D_NET *9 0.00949482
*CONN
*P x[14] I
*I *2333:I I *D gf180mcu_fd_sc_mcu7t5v0__buf_1
*CAP
1 x[14] 0.000916828
2 *2333:I 0.000916828
3 *2333:I *2335:I 0.00121953
4 *2333:I *2340:I 0.000229106
5 *2333:I *2348:I 0
6 *2333:I *2349:I 0.00407246
7 *2333:I *2351:I 0.00058178
8 *2333:I *2352:I 3.38758e-05
9 *2333:I *2359:I 0.00152441
10 *1:10 *2333:I 0
*RES
1 x[14] *2333:I 23.3747 
*END

*D_NET *10 0.0223347
*CONN
*P x[15] I
*I *2334:I I *D gf180mcu_fd_sc_mcu7t5v0__buf_1
*CAP
1 x[15] 0.00161142
2 *2334:I 0.00161142
3 *2334:I *2338:I 0.00128728
4 *2334:I *2347:I 2.86383e-05
5 *2334:I *2349:I 0.00601533
6 *2334:I *2352:I 0.00500331
7 *2334:I *294:52 0.000131709
8 *2334:I *296:12 0.00315259
9 *2334:I *309:18 0.000349069
10 *2334:I *320:20 0.000318571
11 *2329:I *2334:I 0.00107992
12 *2330:I *2334:I 0.00174545
13 *1:10 *2334:I 0
*RES
1 x[15] *2334:I 30.3081 
*END

*D_NET *11 0.00730697
*CONN
*P x[16] I
*I *2335:I I *D gf180mcu_fd_sc_mcu7t5v0__buf_1
*CAP
1 x[16] 0.000779254
2 *2335:I 0.000779254
3 *2335:I *2349:I 0.000872235
4 *2335:I *2359:I 0.00271006
5 *2335:I *311:12 0.000946633
6 *2333:I *2335:I 0.00121953
*RES
1 x[16] *2335:I 24.7404 
*END

*D_NET *12 0.0183698
*CONN
*P x[17] I
*I *2336:I I *D gf180mcu_fd_sc_mcu7t5v0__buf_1
*CAP
1 x[17] 0.00157362
2 *2336:I 0.00157362
3 *2336:I *2137:A1 0.00117083
4 *2336:I *2137:A2 0.000166341
5 *2336:I *2140:A3 1.12507e-05
6 *2336:I *2149:A2 0.00435457
7 *2336:I *2281:D 0.000101627
8 *2336:I *2338:I 0.000109758
9 *2336:I *2342:I 3.9647e-05
10 *2336:I *2346:I 0.00782973
11 *2336:I *2354:I 0.00125931
12 *2336:I *2366:I 0.000128244
13 *2336:I *151:12 1.73875e-05
14 *2336:I *332:8 0
15 *2336:I *369:67 3.38758e-05
*RES
1 x[17] *2336:I 20.1525 
*END

*D_NET *13 0.0265957
*CONN
*P x[18] I
*I *2337:I I *D gf180mcu_fd_sc_mcu7t5v0__buf_1
*CAP
1 x[18] 0.00128579
2 *2337:I 0.00128579
3 *2337:I *2281:CLK 6.04925e-05
4 *2337:I *2341:I 3.38758e-05
5 *2337:I *2344:I 0.0112863
6 *2337:I *304:16 9.91176e-05
7 *2337:I *308:18 6.81036e-05
8 *2337:I *309:12 0.00127992
9 *2337:I *329:14 0.000914526
10 p *2337:I 0.000777931
11 *2361:I *2337:I 0.00950379
*RES
1 x[18] *2337:I 19.3121 
*END

*D_NET *14 0.00926651
*CONN
*P x[19] I
*I *2338:I I *D gf180mcu_fd_sc_mcu7t5v0__buf_1
*CAP
1 x[19] 0.00126376
2 *2338:I 0.00126376
3 *2338:I *2342:I 0.00276179
4 *2338:I *2346:I 1.57773e-05
5 *2338:I *2347:I 0.000204363
6 *2338:I *2356:I 0.000291441
7 *2338:I *311:12 0.00206857
8 *2334:I *2338:I 0.00128728
9 *2336:I *2338:I 0.000109758
*RES
1 x[19] *2338:I 28.102 
*END

*D_NET *15 0.013442
*CONN
*P x[1] I
*I *2339:I I *D gf180mcu_fd_sc_mcu7t5v0__buf_1
*CAP
1 x[1] 0.00133547
2 *2339:I 0.00133547
3 *2339:I *2340:I 0.00157751
4 *2339:I *2343:I 0.00429658
5 *2339:I *2351:I 0.00452706
6 *2339:I *2360:I 3.29273e-05
7 *1:8 *2339:I 0.000337
*RES
1 x[1] *2339:I 26.106 
*END

*D_NET *16 0.0110691
*CONN
*P x[20] I
*I *2340:I I *D gf180mcu_fd_sc_mcu7t5v0__buf_1
*CAP
1 x[20] 0.00137017
2 *2340:I 0.00137017
3 *2340:I *2343:I 8.75754e-05
4 *2340:I *2345:I 0.000230085
5 *2340:I *2348:I 0.00162325
6 *2340:I *2351:I 7.92941e-05
7 *2340:I *2355:I 0.000297317
8 *2340:I *2360:I 0.0029089
9 *2340:I *321:22 0.000349069
10 *2333:I *2340:I 0.000229106
11 *2339:I *2340:I 0.00157751
12 *1:10 *2340:I 0.000946633
*RES
1 x[20] *2340:I 27.0515 
*END

*D_NET *17 0.0197668
*CONN
*P x[21] I
*I *2341:I I *D gf180mcu_fd_sc_mcu7t5v0__buf_1
*CAP
1 x[21] 0.00137101
2 *2341:I 0.00137101
3 *2341:I *2344:I 0.00756314
4 *2341:I *2346:I 0.00519406
5 *2341:I *2350:I 0.000267685
6 *2341:I *2356:I 0.0022358
7 *2341:I *311:12 0.000217988
8 *2341:I *313:20 0.00151221
9 *2337:I *2341:I 3.38758e-05
10 *1:10 *2341:I 0
*RES
1 x[21] *2341:I 27.7869 
*END

*D_NET *18 0.0158599
*CONN
*P x[22] I
*I *2342:I I *D gf180mcu_fd_sc_mcu7t5v0__buf_1
*CAP
1 x[22] 0.00145794
2 *2342:I 0.00145794
3 *2342:I *2344:I 0.00277761
4 *2342:I *2346:I 0.00535386
5 *2342:I *2356:I 0.000101627
6 *2342:I *297:16 0.000309254
7 *2342:I *329:14 0.00151242
8 *2330:I *2342:I 8.78062e-05
9 *2336:I *2342:I 3.9647e-05
10 *2338:I *2342:I 0.00276179
11 *1:10 *2342:I 0
*RES
1 x[22] *2342:I 29.1525 
*END

*D_NET *19 0.0126315
*CONN
*P x[23] I
*I *2343:I I *D gf180mcu_fd_sc_mcu7t5v0__buf_1
*CAP
1 x[23] 0.00154443
2 *2343:I 0.00154443
3 *2343:I *2345:I 0.00128728
4 *2343:I *2348:I 0.00128728
5 *2343:I *2351:I 0.00157774
6 *2343:I *2357:I 0.000560968
7 *2343:I *306:18 0.000445191
8 *2339:I *2343:I 0.00429658
9 *2340:I *2343:I 8.75754e-05
*RES
1 x[23] *2343:I 27.4717 
*END

*D_NET *20 0.0321142
*CONN
*P x[24] I
*I *2344:I I *D gf180mcu_fd_sc_mcu7t5v0__buf_1
*CAP
1 x[24] 0.00156387
2 *2344:I 0.00156387
3 *2344:I *2354:I 0.00283965
4 *2344:I *2356:I 5.94706e-05
5 *2344:I *297:16 0.000126218
6 *2344:I *308:18 0.00347077
7 *2344:I *323:12 0.000378655
8 *2344:I *329:14 0.000349069
9 *2331:I *2344:I 6.77516e-05
10 *2332:I *2344:I 6.77516e-05
11 *2337:I *2344:I 0.0112863
12 *2341:I *2344:I 0.00756314
13 *2342:I *2344:I 0.00277761
*RES
1 x[24] *2344:I 39.8333 
*END

*D_NET *21 0.00738615
*CONN
*P x[25] I
*I *2345:I I *D gf180mcu_fd_sc_mcu7t5v0__buf_1
*CAP
1 x[25] 0.00161269
2 *2345:I 0.00161269
3 *2345:I *2348:I 0.000822101
4 *2345:I *2355:I 0.000315021
5 *2345:I *2357:I 0.00149577
6 *2345:I *2360:I 0
7 *2345:I *311:12 0
8 *2340:I *2345:I 0.000230085
9 *2343:I *2345:I 0.00128728
10 *1:10 *2345:I 1.05182e-05
*RES
1 x[25] *2345:I 27.0515 
*END

*D_NET *22 0.0229435
*CONN
*P x[26] I
*I *2346:I I *D gf180mcu_fd_sc_mcu7t5v0__buf_1
*CAP
1 x[26] 0.00120567
2 *2346:I 0.00120567
3 *2346:I *2350:I 0.00157777
4 *2346:I *2356:I 0.000560968
5 *2331:I *2346:I 0
6 *2336:I *2346:I 0.00782973
7 *2338:I *2346:I 1.57773e-05
8 *2341:I *2346:I 0.00519406
9 *2342:I *2346:I 0.00535386
10 *1:10 *2346:I 0
*RES
1 x[26] *2346:I 28.6273 
*END

*D_NET *23 0.0107935
*CONN
*P x[27] I
*I *2347:I I *D gf180mcu_fd_sc_mcu7t5v0__buf_1
*CAP
1 x[27] 0.00177269
2 *2347:I 0.00177269
3 *2347:I *2149:B 1.94631e-05
4 *2347:I *2349:I 6.77516e-05
5 *2347:I *255:23 0
6 *2347:I *320:20 0.00347463
7 *2347:I *325:14 0.000508077
8 *2347:I *332:8 0.000281742
9 *2347:I *332:16 3.53992e-05
10 *2330:I *2347:I 0.00121953
11 *2334:I *2347:I 2.86383e-05
12 *2338:I *2347:I 0.000204363
13 *2362:I *2347:I 0.00140849
*RES
1 x[27] *2347:I 19.4172 
*END

*D_NET *24 0.011673
*CONN
*P x[28] I
*I *2348:I I *D gf180mcu_fd_sc_mcu7t5v0__buf_1
*CAP
1 x[28] 0.00141654
2 *2348:I 0.00141654
3 *2348:I *2355:I 0.000102181
4 *2348:I *300:22 4.86492e-05
5 *2348:I *302:18 0.00134967
6 *2348:I *331:6 0.00360683
7 *2333:I *2348:I 0
8 *2340:I *2348:I 0.00162325
9 *2343:I *2348:I 0.00128728
10 *2345:I *2348:I 0.000822101
*RES
1 x[28] *2348:I 18.3667 
*END

*D_NET *25 0.016141
*CONN
*P x[29] I
*I *2349:I I *D gf180mcu_fd_sc_mcu7t5v0__buf_1
*CAP
1 x[29] 0.00149525
2 *2349:I 0.00149525
3 *2349:I *2352:I 0.00130201
4 *2349:I *2359:I 0.000255347
5 *2349:I *296:12 0.000319201
6 *2349:I *301:14 0
7 *2349:I *319:14 0.000178376
8 *2333:I *2349:I 0.00407246
9 *2334:I *2349:I 0.00601533
10 *2335:I *2349:I 0.000872235
11 *2347:I *2349:I 6.77516e-05
12 *2362:I *2349:I 6.77516e-05
*RES
1 x[29] *2349:I 27.6818 
*END

*D_NET *26 0.0107268
*CONN
*P x[2] I
*I *2350:I I *D gf180mcu_fd_sc_mcu7t5v0__buf_1
*CAP
1 x[2] 0.00165754
2 *2350:I 0.00165754
3 *2350:I *2239:A1 0.000229106
4 *2350:I *2356:I 0.00288379
5 *2350:I *311:12 0.000372513
6 *2350:I *313:20 4.86578e-05
7 *2350:I *323:12 0.000138694
8 *2331:I *2350:I 0.000674
9 *2332:I *2350:I 0.00121953
10 *2341:I *2350:I 0.000267685
11 *2346:I *2350:I 0.00157777
12 *1:10 *2350:I 0
*RES
1 x[2] *2350:I 27.7869 
*END

*D_NET *27 0.0195895
*CONN
*P x[30] I
*I *2351:I I *D gf180mcu_fd_sc_mcu7t5v0__buf_1
*CAP
1 x[30] 0.00085428
2 *2351:I 0.00085428
3 *2351:I *2355:I 0.0047706
4 *2351:I *2357:I 0.000736272
5 *2351:I *2359:I 0.000721928
6 *2351:I *2360:I 0.0047706
7 *2333:I *2351:I 0.00058178
8 *2339:I *2351:I 0.00452706
9 *2340:I *2351:I 7.92941e-05
10 *2343:I *2351:I 0.00157774
11 *1:10 *2351:I 0.0001157
*RES
1 x[30] *2351:I 25.4757 
*END

*D_NET *28 0.00962231
*CONN
*P x[31] I
*I *2352:I I *D gf180mcu_fd_sc_mcu7t5v0__buf_1
*CAP
1 x[31] 0.000600351
2 *2352:I 0.000600351
3 *2352:I *2353:I 0.00183699
4 *2352:I *311:12 0.000245423
5 *2333:I *2352:I 3.38758e-05
6 *2334:I *2352:I 0.00500331
7 *2349:I *2352:I 0.00130201
*RES
1 x[31] *2352:I 23.0596 
*END

*D_NET *29 0.0112349
*CONN
*P x[3] I
*I *2353:I I *D gf180mcu_fd_sc_mcu7t5v0__buf_1
*CAP
1 x[3] 0.000451619
2 *2353:I 0.000451619
3 *2329:I *2353:I 0.00849465
4 *2352:I *2353:I 0.00183699
*RES
1 x[3] *2353:I 13.7444 
*END

*D_NET *30 0.0208262
*CONN
*P x[4] I
*I *2354:I I *D gf180mcu_fd_sc_mcu7t5v0__buf_1
*CAP
1 x[4] 0.00150993
2 *2354:I 0.00150993
3 *2354:I *2137:A1 0
4 *2354:I *2137:A2 0.00040833
5 *2354:I *2281:CLK 1.05182e-05
6 *2354:I *2358:I 0.0119803
7 *2354:I *2366:I 0.000128244
8 *2354:I *297:16 0.000177494
9 *2354:I *308:18 0.00100251
10 *2336:I *2354:I 0.00125931
11 *2344:I *2354:I 0.00283965
*RES
1 x[4] *2354:I 29.1525 
*END

*D_NET *31 0.013301
*CONN
*P x[5] I
*I *2355:I I *D gf180mcu_fd_sc_mcu7t5v0__buf_1
*CAP
1 x[5] 0.0014416
2 *2355:I 0.0014416
3 *2355:I *2357:I 0.00142278
4 *2355:I *2360:I 0.00132116
5 *2355:I *302:18 0.000984461
6 *2355:I *321:22 0.00120426
7 *2340:I *2355:I 0.000297317
8 *2345:I *2355:I 0.000315021
9 *2348:I *2355:I 0.000102181
10 *2351:I *2355:I 0.0047706
*RES
1 x[5] *2355:I 19.3121 
*END

*D_NET *32 0.0103356
*CONN
*P x[6] I
*I *2356:I I *D gf180mcu_fd_sc_mcu7t5v0__buf_1
*CAP
1 x[6] 0.00137634
2 *2356:I 0.00137634
3 *2356:I *311:12 0.000105182
4 *2356:I *335:14 0
5 *2356:I *335:16 0
6 *2330:I *2356:I 0.00073347
7 *2331:I *2356:I 0.000567352
8 *2332:I *2356:I 4.37921e-05
9 *2338:I *2356:I 0.000291441
10 *2341:I *2356:I 0.0022358
11 *2342:I *2356:I 0.000101627
12 *2344:I *2356:I 5.94706e-05
13 *2346:I *2356:I 0.000560968
14 *2350:I *2356:I 0.00288379
15 *1:10 *2356:I 0
*RES
1 x[6] *2356:I 27.7869 
*END

*D_NET *33 0.00785765
*CONN
*P x[7] I
*I *2357:I I *D gf180mcu_fd_sc_mcu7t5v0__buf_1
*CAP
1 x[7] 0.00174401
2 *2357:I 0.00174401
3 *2343:I *2357:I 0.000560968
4 *2345:I *2357:I 0.00149577
5 *2351:I *2357:I 0.000736272
6 *2355:I *2357:I 0.00142278
7 *1:10 *2357:I 0.000153828
*RES
1 x[7] *2357:I 27.7869 
*END

*D_NET *34 0.0219152
*CONN
*P x[8] I
*I *2358:I I *D gf180mcu_fd_sc_mcu7t5v0__buf_1
*CAP
1 x[8] 0.00162823
2 *2358:I 0.00162823
3 *2358:I *2141:A2 0
4 *2358:I *2281:CLK 0.000525911
5 *2358:I *297:16 0.000736282
6 *2358:I *305:16 0.000349069
7 *2358:I *308:18 0.000338758
8 *2358:I *325:14 0.00019325
9 p *2358:I 0.00411838
10 *2331:I *2358:I 0.000349069
11 *2354:I *2358:I 0.0119803
12 *2361:I *2358:I 6.77516e-05
*RES
1 x[8] *2358:I 29.4677 
*END

*D_NET *35 0.00853119
*CONN
*P x[9] I
*I *2359:I I *D gf180mcu_fd_sc_mcu7t5v0__buf_1
*CAP
1 x[9] 0.00093967
2 *2359:I 0.00093967
3 *2359:I *300:22 0.000163366
4 *2359:I *319:14 0.001047
5 *2359:I *332:26 0.00022974
6 *2333:I *2359:I 0.00152441
7 *2335:I *2359:I 0.00271006
8 *2349:I *2359:I 0.000255347
9 *2351:I *2359:I 0.000721928
*RES
1 x[9] *2359:I 16.3707 
*END

*D_NET *36 0.0150975
*CONN
*P y I
*I *2360:I I *D gf180mcu_fd_sc_mcu7t5v0__buf_1
*CAP
1 y 0.00111689
2 *2360:I 0.00111689
3 *2360:I *311:12 0.00206857
4 *2339:I *2360:I 3.29273e-05
5 *2340:I *2360:I 0.0029089
6 *2345:I *2360:I 0
7 *2351:I *2360:I 0.0047706
8 *2355:I *2360:I 0.00132116
9 *1:8 *2360:I 0.00176154
*RES
1 y *2360:I 28.102 
*END

*D_NET *369 0.206372
*CONN
*I *2150:A1 I *D gf180mcu_fd_sc_mcu7t5v0__nand2_1
*I *2155:A1 I *D gf180mcu_fd_sc_mcu7t5v0__nand2_1
*I *2134:A1 I *D gf180mcu_fd_sc_mcu7t5v0__aoi21_1
*I *2133:A1 I *D gf180mcu_fd_sc_mcu7t5v0__and3_1
*I *2038:A1 I *D gf180mcu_fd_sc_mcu7t5v0__and3_1
*I *2160:A1 I *D gf180mcu_fd_sc_mcu7t5v0__nand2_1
*I *2037:A1 I *D gf180mcu_fd_sc_mcu7t5v0__aoi21_1
*I *2121:A1 I *D gf180mcu_fd_sc_mcu7t5v0__aoi22_1
*I *2124:A1 I *D gf180mcu_fd_sc_mcu7t5v0__aoi22_1
*I *2042:A1 I *D gf180mcu_fd_sc_mcu7t5v0__and3_1
*I *2041:A1 I *D gf180mcu_fd_sc_mcu7t5v0__aoi21_1
*I *2181:A1 I *D gf180mcu_fd_sc_mcu7t5v0__aoi21_1
*I *2182:A1 I *D gf180mcu_fd_sc_mcu7t5v0__and3_1
*I *2067:A1 I *D gf180mcu_fd_sc_mcu7t5v0__aoi22_1
*I *2070:A1 I *D gf180mcu_fd_sc_mcu7t5v0__aoi22_1
*I *2045:A1 I *D gf180mcu_fd_sc_mcu7t5v0__aoi21_1
*I *2046:A1 I *D gf180mcu_fd_sc_mcu7t5v0__and3_1
*I *2073:A1 I *D gf180mcu_fd_sc_mcu7t5v0__aoi22_1
*I *2189:A1 I *D gf180mcu_fd_sc_mcu7t5v0__aoi21_1
*I *2190:A1 I *D gf180mcu_fd_sc_mcu7t5v0__and3_1
*I *2170:A1 I *D gf180mcu_fd_sc_mcu7t5v0__nand2_1
*I *2130:A1 I *D gf180mcu_fd_sc_mcu7t5v0__aoi22_1
*I *2050:A1 I *D gf180mcu_fd_sc_mcu7t5v0__and3_1
*I *2049:A1 I *D gf180mcu_fd_sc_mcu7t5v0__aoi21_1
*I *2368:I I *D gf180mcu_fd_sc_mcu7t5v0__buf_4
*I *2079:A1 I *D gf180mcu_fd_sc_mcu7t5v0__aoi22_1
*I *2186:A1 I *D gf180mcu_fd_sc_mcu7t5v0__and3_1
*I *2185:A1 I *D gf180mcu_fd_sc_mcu7t5v0__aoi21_1
*I *2175:A1 I *D gf180mcu_fd_sc_mcu7t5v0__nand2_1
*I *2165:A1 I *D gf180mcu_fd_sc_mcu7t5v0__nand2_1
*I *2127:A1 I *D gf180mcu_fd_sc_mcu7t5v0__aoi22_1
*I *2033:A1 I *D gf180mcu_fd_sc_mcu7t5v0__aoi21_1
*I *2118:A1 I *D gf180mcu_fd_sc_mcu7t5v0__aoi22_1
*I *2246:A1 I *D gf180mcu_fd_sc_mcu7t5v0__and3_1
*I *2245:A1 I *D gf180mcu_fd_sc_mcu7t5v0__aoi21_1
*I *2115:A1 I *D gf180mcu_fd_sc_mcu7t5v0__aoi22_1
*I *2137:A1 I *D gf180mcu_fd_sc_mcu7t5v0__nand2_1
*I *2367:I I *D gf180mcu_fd_sc_mcu7t5v0__buf_2
*I *2242:A1 I *D gf180mcu_fd_sc_mcu7t5v0__and3_1
*I *2241:A1 I *D gf180mcu_fd_sc_mcu7t5v0__aoi21_1
*I *2034:A1 I *D gf180mcu_fd_sc_mcu7t5v0__and3_1
*I *2280:Q O *D gf180mcu_fd_sc_mcu7t5v0__dffq_2
*CAP
1 *2150:A1 0.000550398
2 *2155:A1 0.000383833
3 *2134:A1 0
4 *2133:A1 0.000139118
5 *2038:A1 0
6 *2160:A1 0.00100643
7 *2037:A1 3.70264e-05
8 *2121:A1 0.000250661
9 *2124:A1 0.000683823
10 *2042:A1 0
11 *2041:A1 0
12 *2181:A1 0.000272234
13 *2182:A1 0
14 *2067:A1 0.000219484
15 *2070:A1 3.21342e-05
16 *2045:A1 0.00016476
17 *2046:A1 0
18 *2073:A1 2.60203e-05
19 *2189:A1 9.6163e-05
20 *2190:A1 7.6465e-05
21 *2170:A1 5.42028e-05
22 *2130:A1 0.000796072
23 *2050:A1 0
24 *2049:A1 0
25 *2368:I 0.000159383
26 *2079:A1 5.59999e-05
27 *2186:A1 0
28 *2185:A1 0.00028723
29 *2175:A1 2.65959e-05
30 *2165:A1 0.000133843
31 *2127:A1 0.000343181
32 *2033:A1 0.000547601
33 *2118:A1 0.00022824
34 *2246:A1 0
35 *2245:A1 1.52886e-05
36 *2115:A1 0.000263635
37 *2137:A1 0.000512381
38 *2367:I 0.000693723
39 *2242:A1 0.000271497
40 *2241:A1 0.000242144
41 *2034:A1 2.17464e-05
42 *2280:Q 8.33398e-05
43 *369:575 0.00123365
44 *369:560 0.000758462
45 *369:518 0.00146976
46 *369:510 0.000789474
47 *369:439 0.000632087
48 *369:435 0.000809025
49 *369:350 0.00141574
50 *369:329 0.00124779
51 *369:316 0.00118223
52 *369:303 0.00103979
53 *369:299 0.000800779
54 *369:297 0.000508568
55 *369:295 0.000609902
56 *369:291 0.00181983
57 *369:277 0.00216473
58 *369:273 0.00149136
59 *369:251 0.000462337
60 *369:236 0.000388576
61 *369:234 0.00167936
62 *369:230 0.0015719
63 *369:226 0.00148235
64 *369:222 0.000774667
65 *369:212 0.000702849
66 *369:200 0.0014341
67 *369:189 0.000564696
68 *369:174 0.00158677
69 *369:170 0.00168663
70 *369:166 0.00162598
71 *369:160 0.00125979
72 *369:107 0.000756333
73 *369:97 0.00132702
74 *369:67 0.00180347
75 *369:48 0.0010986
76 *369:37 0.00107824
77 *369:31 0.00164007
78 *369:29 0.000706253
79 *369:27 0.000929771
80 *369:16 0.00060513
81 *369:10 0.00133645
82 *369:6 0.00113035
83 *2032:A1 *369:27 0.000736272
84 *2032:A1 *369:29 0.00147259
85 *2032:A2 *369:16 0.000349069
86 *2033:B *2033:A1 0.000142973
87 *2035:A2 *2033:A1 1.5339e-05
88 *2037:A2 *369:518 0.000385665
89 *2037:B *2037:A1 1.93576e-05
90 *2037:B *2160:A1 0.000525921
91 *2037:B *369:518 0.00157774
92 *2039:A1 *2121:A1 0.000525909
93 *2039:A1 *2160:A1 9.2034e-05
94 *2039:A1 *369:518 9.2034e-05
95 *2039:A3 *2037:A1 6.04925e-05
96 *2040:A2 *2124:A1 1.45887e-05
97 *2041:A2 *369:222 0.00176516
98 *2041:A2 *369:226 1.55756e-05
99 *2041:B *369:222 9.13899e-05
100 *2041:B *369:226 3.38758e-05
101 *2042:A2 *369:212 0.000315545
102 *2043:A2 *369:212 0.000232712
103 *2043:A2 *369:222 0.001591
104 *2043:A3 *2124:A1 0.000273473
105 *2045:A2 *2045:A1 1.13277e-05
106 *2046:A3 *369:273 0
107 *2046:A3 *369:277 0
108 *2049:A2 *369:329 4.0509e-05
109 *2049:A2 *369:350 0.000556639
110 *2051:A2 *369:329 0.000178482
111 *2051:A2 *369:350 1.18329e-05
112 *2051:A3 *369:350 0.000525975
113 *2061:A2 *2155:A1 0.001047
114 *2067:A2 *2067:A1 0.00151263
115 *2067:A2 *369:439 0.000232712
116 *2070:A2 *369:234 0
117 *2072:A2 *2070:A1 3.9647e-05
118 *2073:A2 *369:291 6.41221e-05
119 *2073:A2 *369:295 0.00241922
120 *2073:A2 *369:297 0.000631097
121 *2073:B1 *369:291 3.38758e-05
122 *2074:A2 *2073:A1 0
123 *2074:A2 *369:291 0.000162836
124 *2075:A2 *369:291 0.000273621
125 *2075:A3 *369:291 5.72765e-05
126 *2079:B1 *369:316 1.64183e-05
127 *2079:B2 *369:316 5.2067e-05
128 *2081:A2 *369:316 0.000228557
129 *2112:A2 *2242:A1 0.000147255
130 *2115:A2 *2115:A1 0.00022271
131 *2115:A2 *2245:A1 1.55756e-05
132 *2115:B1 *2115:A1 6.77516e-05
133 *2115:B2 *2115:A1 1.55756e-05
134 *2117:A2 *2115:A1 0.000233974
135 *2118:A2 *2033:A1 2.36659e-05
136 *2118:A2 *369:27 0.000210363
137 *2118:A2 *369:29 0.000946633
138 *2119:A2 *2118:A1 3.17066e-05
139 *2120:A2 *2118:A1 0.000673203
140 *2121:A2 *2121:A1 0.000581572
141 *2121:A2 *369:170 3.96116e-05
142 *2121:A2 *369:174 3.9647e-05
143 *2122:A2 *369:174 0.00127992
144 *2123:A2 *2121:A1 0
145 *2123:A3 *369:174 2.71041e-05
146 *2124:B1 *2124:A1 0.00129556
147 *2127:A2 *369:273 0
148 *2129:A1 *2127:A1 0
149 *2129:A2 *2127:A1 6.92021e-05
150 *2129:A3 *2127:A1 0.000107373
151 *2129:A3 *369:174 0.000178412
152 *2130:A2 *2130:A1 4.8682e-05
153 *2130:B2 *2130:A1 1.29001e-05
154 *2132:A2 *2130:A1 2.86383e-05
155 *2134:B *369:560 0.000905707
156 *2134:B *369:575 0.000525911
157 *2135:A3 *369:575 0.000210363
158 *2137:A2 *2137:A1 9.9283e-05
159 *2138:A1 *369:67 7.16273e-05
160 *2142:A2 *369:560 0.000324135
161 *2149:A2 *369:67 0.000387438
162 *2150:A2 *2150:A1 2.05675e-05
163 *2155:A2 *2155:A1 1.20357e-05
164 *2155:A2 *369:575 0.00518916
165 *2156:A1 *2155:A1 0.00111764
166 *2156:A2 *2150:A1 0
167 *2160:A2 *2160:A1 7.06449e-05
168 *2160:A2 *369:560 0.000546946
169 *2170:A2 *369:303 4.20727e-05
170 *2175:A2 *2045:A1 0.00183676
171 *2175:A2 *2175:A1 1.98235e-05
172 *2175:A2 *369:6 0.000169319
173 *2175:A2 *369:10 0.00138885
174 *2175:A2 *369:236 0.000198235
175 *2175:A2 *369:273 0.000555059
176 *2183:A2 *2181:A1 0.000207779
177 *2185:A2 *2185:A1 0.000320397
178 *2186:A2 *2185:A1 0.000169319
179 *2186:A3 *2185:A1 0.0001799
180 *2187:A3 *369:234 0
181 *2187:A3 *369:251 0.0002314
182 *2189:B *2189:A1 0.000128244
183 *2190:A2 *369:297 0.00157777
184 *2190:A3 *2190:A1 4.29574e-05
185 *2190:A3 *369:295 0.000140242
186 *2190:A3 *369:297 0.000666149
187 *2241:B *2241:A1 6.04925e-05
188 *2243:A2 *2241:A1 0.000556848
189 *2245:B *2115:A1 3.38758e-05
190 *2245:B *2245:A1 6.04925e-05
191 *2245:B *369:107 0.00199847
192 *2247:A2 *369:107 0.00241919
193 *2253:D *2124:A1 4.6017e-05
194 *2253:D *369:200 0.000441764
195 *2256:CLK *369:107 0.000135503
196 *2272:CLK *2181:A1 6.04925e-05
197 *2279:D *2150:A1 0.00283994
198 *2279:D *369:575 0.00410222
199 *2279:CLK *2150:A1 0.000631089
200 *2279:CLK *369:575 0.000175302
201 *2281:D *2137:A1 6.77516e-05
202 *2287:D *2121:A1 0
203 *2289:CLK *2115:A1 1.73875e-05
204 *2303:D *2073:A1 4.86578e-06
205 *2312:CLK *369:6 0.000465216
206 *2312:CLK *369:10 0.000905914
207 *2336:I *2137:A1 0.00117083
208 *2336:I *369:67 3.38758e-05
209 *2354:I *2137:A1 0
210 *149:8 *369:560 0.000581572
211 *163:10 *2150:A1 0.00084147
212 *163:10 *369:575 0.000525913
213 *167:12 *2160:A1 0.000105182
214 *171:10 *2124:A1 0.000911572
215 *171:10 *369:189 2.10364e-05
216 *171:10 *369:200 0.000715237
217 *175:16 *2170:A1 0.000303357
218 *175:16 *2190:A1 0.000135503
219 *179:12 *2185:A1 5.72765e-05
220 *186:14 *2185:A1 1.93576e-05
221 *189:10 *369:295 0.000596028
222 *270:8 *369:230 0
223 *270:12 *369:230 0
224 *279:10 *369:560 0.000105181
225 *281:19 *2127:A1 8.41455e-05
226 *284:12 *369:29 0.00115701
227 *292:38 *369:291 0.000460983
228 *292:42 *369:291 8.78062e-05
229 *293:16 *369:234 0.00017355
230 *293:16 *369:273 0
231 *293:16 *369:277 0
232 *293:27 *369:230 3.68136e-05
233 *293:27 *369:234 8.41454e-05
234 *293:49 *369:230 0.000178809
235 *293:53 *2067:A1 0
236 *293:53 *369:226 0.00015751
237 *293:53 *369:439 0
238 *293:79 *2181:A1 5.91647e-05
239 *293:79 *369:230 3.68136e-05
240 *293:79 *369:435 8.28306e-05
241 *294:37 *369:97 0.00255983
242 *294:37 *369:107 0.00116335
243 *295:16 *369:107 0.000140242
244 *295:119 *369:510 0.000232712
245 *295:119 *369:518 0.00162877
246 *296:12 *2367:I 0.00157772
247 *298:12 *2367:I 0.00305033
248 *300:22 *2118:A1 0
249 *300:22 *369:31 0
250 *300:28 *2242:A1 0.000138051
251 *300:28 *369:31 0.000105186
252 *300:28 *369:37 0.00452291
253 *300:28 *369:48 0.000276102
254 *301:14 *369:97 0.000570721
255 *303:16 *2241:A1 7.15701e-05
256 *303:16 *369:37 8.59148e-05
257 *303:16 *369:67 0.000329254
258 *304:16 *2130:A1 0.00186128
259 *304:16 *369:316 5.94706e-05
260 *304:16 *369:329 0.00467896
261 *304:16 *369:350 0.000736104
262 *305:16 *2367:I 4.29574e-05
263 *306:18 *2034:A1 0.000232712
264 *306:18 *369:16 0.000840608
265 *307:28 *2033:A1 0.000271006
266 *307:28 *2034:A1 0.000232712
267 *307:28 *369:16 0.00255983
268 *307:28 *369:291 0.000160571
269 *307:36 *369:291 0.000273473
270 *307:36 *369:297 0.000210363
271 *307:36 *369:299 0.000245423
272 *307:36 *369:303 0.00143748
273 *307:36 *369:316 0.000110123
274 *307:48 *369:316 0.000471657
275 *308:18 *2137:A1 0.00362903
276 *308:18 *2242:A1 0.00116335
277 *308:18 *369:67 0.00206512
278 *309:18 *2189:A1 1.98235e-05
279 *309:22 *2189:A1 4.38949e-05
280 *310:18 *2045:A1 0.000217855
281 *310:18 *2175:A1 0
282 *310:18 *369:10 0.000161605
283 *311:30 *2150:A1 0
284 *311:30 *2160:A1 8.8319e-05
285 *311:30 *369:226 0.000575834
286 *311:30 *369:439 9.14228e-05
287 *311:32 *369:439 0.00316634
288 *313:20 *2367:I 4.29574e-05
289 *314:22 *2165:A1 7.06447e-05
290 *314:22 *369:170 0.000257719
291 *314:22 *369:174 0.000440207
292 *314:22 *369:510 3.38758e-05
293 *314:22 *369:518 0.000474201
294 *320:20 *2115:A1 0.000128847
295 *320:28 *2130:A1 0.00431257
296 *320:28 *369:350 5.25909e-06
297 *321:22 *2033:A1 0.00174534
298 *322:16 *369:16 0.00241918
299 *322:16 *369:160 0.00199845
300 *322:22 *369:212 0.00255983
301 *322:22 *369:222 0.000232712
302 *323:18 *2121:A1 0.000315545
303 *323:18 *2133:A1 0.00221076
304 *323:18 *369:166 0.00430496
305 *323:29 *2121:A1 0.00063109
306 *323:29 *369:166 0
307 *323:29 *369:510 0
308 *323:29 *369:518 0.000175302
309 *324:12 *2033:A1 1.18329e-05
310 *324:12 *2133:A1 0.00232691
311 *324:12 *369:166 0.00317688
312 *324:14 *369:27 3.50605e-05
313 *325:14 *2241:A1 0
314 *325:14 *369:37 0
315 *326:14 *2118:A1 0.00178499
316 *326:14 *369:29 1.05182e-05
317 *326:14 *369:31 8.41454e-05
318 *326:14 *369:37 0.000220882
319 *326:14 *369:48 0.000147255
320 *326:14 *369:97 0
321 *326:16 *2242:A1 6.31091e-05
322 *326:16 *369:48 0.000252436
323 *328:8 *2130:A1 0.000229106
324 *328:18 *369:329 0.000172065
325 *328:20 *2368:I 0.000417636
326 *328:20 *369:316 5.93672e-05
327 *328:20 *369:329 0
328 *328:32 *369:316 1.45974e-05
329 *330:12 *369:16 0.000272158
330 *330:12 *369:160 9.46635e-05
331 *330:27 *2121:A1 0.000525909
332 *330:31 *369:174 0.000575828
333 *330:37 *369:174 0.00165713
334 *330:54 *2127:A1 0.000484923
335 *330:54 *369:174 2.86383e-05
336 *330:54 *369:189 0.00032431
337 *330:54 *369:200 0.000199407
338 *330:67 *2124:A1 0.000212993
339 *332:39 *369:560 0.00305027
340 *334:10 *369:316 0.000364292
341 *337:14 *2242:A1 0.00116356
342 *337:14 *2367:I 0
343 *349:10 *369:303 5.78499e-05
344 *351:14 *369:291 5.52227e-05
345 *352:10 *2181:A1 0
346 *352:10 *369:230 0
347 *352:10 *369:435 0
348 *361:10 *369:277 0.000248492
349 *362:12 *369:212 5.91647e-05
350 *364:10 *369:170 0.000195614
351 *364:10 *369:174 0.000930641
352 *365:20 *2033:A1 0.00117742
353 *365:26 *2118:A1 2.86383e-05
354 *365:26 *369:29 7.09976e-05
355 *365:26 *369:31 0.000106496
356 *366:6 *369:97 5.94706e-05
357 *366:6 *369:107 0.000277494
358 *366:21 *2115:A1 0.000581573
*RES
1 *2280:Q *369:6 5.02525 
2 *369:6 *369:10 8.80707 
3 *369:10 *369:16 9.33232 
4 *369:16 *2034:A1 4.7101 
5 *369:16 *369:27 5.23535 
6 *369:27 *369:29 3.25656 
7 *369:29 *369:31 1.78586 
8 *369:31 *369:37 9.75252 
9 *369:37 *2241:A1 5.52799 
10 *369:37 *369:48 6.49596 
11 *369:48 *2242:A1 10.996 
12 *369:48 *369:67 10.2778 
13 *369:67 *2367:I 18.5424 
14 *369:67 *2137:A1 9.186 
15 *369:31 *369:97 10.698 
16 *369:97 *369:107 13.202 
17 *369:107 *2115:A1 6.28586 
18 *369:107 *2245:A1 4.68759 
19 *369:97 *2246:A1 4.5 
20 *369:29 *2118:A1 10.7859 
21 *369:27 *2033:A1 21.129 
22 *369:10 *369:160 6.49596 
23 *369:160 *369:166 11.0131 
24 *369:166 *369:170 6.91616 
25 *369:170 *369:174 13.4293 
26 *369:174 *2127:A1 11.3111 
27 *369:174 *369:189 1.78586 
28 *369:189 *2165:A1 9.69408 
29 *369:189 *369:200 3.67676 
30 *369:200 *369:212 16.4414 
31 *369:212 *369:222 2.81385 
32 *369:222 *369:226 8.93463 
33 *369:226 *369:230 5.46262 
34 *369:230 *369:234 9.64747 
35 *369:234 *369:236 1.15555 
36 *369:236 *2175:A1 4.77388 
37 *369:236 *369:251 10.5758 
38 *369:251 *2185:A1 6.47345 
39 *369:251 *2186:A1 4.5 
40 *369:234 *369:273 8.49191 
41 *369:273 *369:277 7.96666 
42 *369:277 *369:291 18.0343 
43 *369:291 *369:295 6.91616 
44 *369:295 *369:297 2.83636 
45 *369:297 *369:299 0.735353 
46 *369:299 *369:303 9.01717 
47 *369:303 *2079:A1 4.9202 
48 *369:303 *369:316 2.62626 
49 *369:316 *2368:I 5.82251 
50 *369:316 *369:329 4.74978 
51 *369:329 *2049:A1 4.5 
52 *369:329 *369:350 20.6037 
53 *369:350 *2050:A1 4.5 
54 *369:350 *2130:A1 20.5384 
55 *369:299 *2170:A1 9.27388 
56 *369:297 *2190:A1 9.4202 
57 *369:295 *2189:A1 9.44271 
58 *369:291 *2073:A1 4.7101 
59 *369:277 *2046:A1 4.5 
60 *369:273 *2045:A1 10.6583 
61 *369:230 *2070:A1 9.2101 
62 *369:226 *369:435 0.735353 
63 *369:435 *369:439 7.65151 
64 *369:439 *2067:A1 6.39091 
65 *369:439 *2182:A1 4.5 
66 *369:435 *2181:A1 10.133 
67 *369:222 *2041:A1 4.5 
68 *369:212 *2042:A1 4.5 
69 *369:200 *2124:A1 13.9374 
70 *369:170 *2121:A1 15.1808 
71 *369:166 *369:510 6.07576 
72 *369:510 *369:518 8.49191 
73 *369:518 *2037:A1 9.18759 
74 *369:518 *2160:A1 14.9466 
75 *369:510 *2038:A1 4.5 
76 *369:160 *2133:A1 6.60101 
77 *369:6 *369:560 12.8644 
78 *369:560 *2134:A1 4.5 
79 *369:560 *369:575 11.1182 
80 *369:575 *2155:A1 11.3749 
81 *369:575 *2150:A1 13.1607 
*END
