*SPEF "ieee 1481-1999"
*DESIGN "spm"
*DATE "13:01:48 Friday July 24, 2026"
*VENDOR "The OpenROAD Project"
*PROGRAM "OpenROAD"
*VERSION "26Q3-155-g1bade74e72"
*DESIGN_FLOW "NAME_SCOPE LOCAL" "PIN_CAP NONE"
*DIVIDER /
*DELIMITER :
*BUS_DELIMITER []
*T_UNIT 1 NS
*C_UNIT 1 PF
*R_UNIT 1 OHM
*L_UNIT 1 HENRY

*NAME_MAP
*39 _000_
*40 _001_
*41 _002_
*42 _003_
*43 _004_
*44 _005_
*45 _006_
*46 _007_
*47 _008_
*48 _009_
*49 _010_
*50 _011_
*51 _012_
*52 _013_
*53 _014_
*54 _015_
*55 _016_
*56 _017_
*57 _018_
*58 _019_
*59 _020_
*60 _021_
*61 _022_
*62 _023_
*63 _024_
*64 _025_
*65 _026_
*66 _027_
*67 _028_
*68 _029_
*69 _030_
*70 _031_
*71 _032_
*72 _033_
*73 _034_
*74 _035_
*75 _036_
*76 _037_
*77 _038_
*78 _039_
*79 _040_
*80 _041_
*81 _042_
*82 _043_
*83 _044_
*84 _045_
*85 _046_
*86 _047_
*87 _048_
*88 _049_
*89 _050_
*90 _051_
*91 _052_
*92 _053_
*93 _054_
*94 _055_
*95 _056_
*96 _057_
*97 _058_
*98 _059_
*99 _060_
*100 _061_
*101 _062_
*102 _063_
*103 _064_
*104 _065_
*105 _066_
*106 _067_
*107 _068_
*108 _069_
*109 _070_
*110 _071_
*111 _072_
*112 _073_
*113 _074_
*114 _075_
*115 _076_
*116 _077_
*117 _078_
*118 _079_
*119 _080_
*120 _081_
*121 _082_
*122 _083_
*123 _084_
*124 _085_
*125 _086_
*126 _087_
*127 _088_
*128 _089_
*129 _090_
*130 _091_
*131 _092_
*132 _093_
*133 _094_
*134 _095_
*135 _096_
*136 _097_
*137 _098_
*138 _099_
*139 _100_
*140 _101_
*141 _102_
*142 _103_
*143 _104_
*144 _105_
*145 _106_
*146 _107_
*147 _108_
*148 _109_
*149 _110_
*150 _111_
*151 _112_
*152 _113_
*153 _114_
*154 _115_
*155 _116_
*156 _117_
*157 _118_
*158 _119_
*159 _120_
*160 _121_
*161 _122_
*162 _123_
*163 _124_
*164 _125_
*165 _126_
*166 _127_
*167 _128_
*168 _129_
*169 _130_
*170 _131_
*171 _132_
*172 _133_
*173 _134_
*174 _135_
*175 _136_
*176 _137_
*177 _138_
*178 _139_
*179 _140_
*180 _141_
*181 _142_
*182 _143_
*183 _144_
*184 _145_
*185 _146_
*186 _147_
*187 _148_
*188 _149_
*189 _150_
*190 _151_
*191 _152_
*192 _153_
*193 _154_
*194 _155_
*195 _156_
*196 _157_
*197 _158_
*198 _159_
*199 _160_
*200 _161_
*201 _162_
*202 _163_
*203 _164_
*204 _165_
*205 _166_
*206 _167_
*207 _168_
*208 _169_
*209 _170_
*210 _171_
*211 _172_
*212 _173_
*213 _174_
*214 _175_
*215 _176_
*216 _177_
*217 _178_
*218 _179_
*219 _180_
*220 _181_
*221 _182_
*222 _183_
*223 _184_
*224 _185_
*225 _186_
*226 _187_
*227 _188_
*228 _189_
*229 _190_
*230 _191_
*231 _192_
*232 _193_
*233 _194_
*234 _195_
*235 _196_
*236 _197_
*237 _198_
*238 _199_
*239 _200_
*240 _201_
*241 _202_
*242 _203_
*243 _204_
*244 _205_
*245 _206_
*246 _207_
*247 _208_
*248 _209_
*249 _210_
*250 _211_
*251 _212_
*252 _213_
*253 _214_
*254 _215_
*255 c[0]
*256 c[10]
*257 c[11]
*258 c[12]
*259 c[13]
*260 c[14]
*261 c[15]
*262 c[16]
*263 c[17]
*264 c[18]
*265 c[19]
*266 c[1]
*267 c[20]
*268 c[21]
*269 c[22]
*270 c[23]
*271 c[24]
*272 c[25]
*273 c[26]
*274 c[27]
*275 c[28]
*276 c[29]
*277 c[2]
*278 c[30]
*279 c[31]
*280 c[3]
*281 c[4]
*282 c[5]
*283 c[6]
*284 c[7]
*285 c[8]
*286 c[9]
*1 clk
*287 clknet_0_clk
*288 clknet_3_0__leaf_clk
*289 clknet_3_1__leaf_clk
*290 clknet_3_2__leaf_clk
*291 clknet_3_3__leaf_clk
*292 clknet_3_4__leaf_clk
*293 clknet_3_5__leaf_clk
*294 clknet_3_6__leaf_clk
*295 clknet_3_7__leaf_clk
*296 net10
*297 net11
*298 net12
*299 net13
*300 net14
*301 net15
*302 net16
*303 net17
*304 net18
*305 net19
*306 net20
*307 net21
*308 net22
*309 net23
*310 net24
*311 net25
*312 net26
*313 net27
*314 net28
*315 net29
*316 net30
*317 net31
*318 net32
*319 net33
*320 net34
*321 net35
*322 net36
*323 net37
*324 net38
*325 net39
*326 net40
*327 net41
*328 net42
*329 net43
*330 net44
*331 net45
*332 net46
*333 net6
*334 net7
*335 net8
*336 net9
*2 p_reg
*3 rst
*337 s[0]
*338 s[10]
*339 s[11]
*340 s[12]
*341 s[13]
*342 s[14]
*343 s[15]
*344 s[16]
*345 s[17]
*346 s[18]
*347 s[19]
*348 s[1]
*349 s[20]
*350 s[21]
*351 s[22]
*352 s[23]
*353 s[24]
*354 s[25]
*355 s[26]
*356 s[27]
*357 s[28]
*358 s[29]
*359 s[2]
*360 s[30]
*361 s[3]
*362 s[4]
*363 s[5]
*364 s[6]
*365 s[7]
*366 s[8]
*367 s[9]
*368 spare_tielo
*4 x[0]
*5 x[10]
*6 x[11]
*7 x[12]
*8 x[13]
*9 x[14]
*10 x[15]
*11 x[16]
*12 x[17]
*13 x[18]
*14 x[19]
*15 x[1]
*16 x[20]
*17 x[21]
*18 x[22]
*19 x[23]
*20 x[24]
*21 x[25]
*22 x[26]
*23 x[27]
*24 x[28]
*25 x[29]
*26 x[2]
*27 x[30]
*28 x[31]
*29 x[3]
*30 x[4]
*31 x[5]
*32 x[6]
*33 x[7]
*34 x[8]
*35 x[9]
*36 y
*369 y_rep[0]
*370 FILLER_0_0
*371 FILLER_0_114
*372 FILLER_0_118
*373 FILLER_0_122
*374 FILLER_0_138
*375 FILLER_0_142
*376 FILLER_0_146
*377 FILLER_0_162
*378 FILLER_0_166
*379 FILLER_0_17
*380 FILLER_0_170
*381 FILLER_0_186
*382 FILLER_0_190
*383 FILLER_0_194
*384 FILLER_0_21
*385 FILLER_0_210
*386 FILLER_0_214
*387 FILLER_0_218
*388 FILLER_0_23
*389 FILLER_0_234
*390 FILLER_0_238
*391 FILLER_0_242
*392 FILLER_0_258
*393 FILLER_0_26
*394 FILLER_0_262
*395 FILLER_0_266
*396 FILLER_0_282
*397 FILLER_0_286
*398 FILLER_0_290
*399 FILLER_0_306
*400 FILLER_0_310
*401 FILLER_0_314
*402 FILLER_0_330
*403 FILLER_0_334
*404 FILLER_0_338
*405 FILLER_0_354
*406 FILLER_0_358
*407 FILLER_0_362
*408 FILLER_0_366
*409 FILLER_0_368
*410 FILLER_0_42
*411 FILLER_0_46
*412 FILLER_0_59
*413 FILLER_0_67
*414 FILLER_0_71
*415 FILLER_0_74
*416 FILLER_0_82
*417 FILLER_0_9
*418 FILLER_0_94
*419 FILLER_0_98
*420 FILLER_10_0
*421 FILLER_10_109
*422 FILLER_10_127
*423 FILLER_10_159
*424 FILLER_10_16
*425 FILLER_10_177
*426 FILLER_10_209
*427 FILLER_10_227
*428 FILLER_10_24
*429 FILLER_10_259
*430 FILLER_10_27
*431 FILLER_10_277
*432 FILLER_10_309
*433 FILLER_10_327
*434 FILLER_10_359
*435 FILLER_10_367
*436 FILLER_10_59
*437 FILLER_10_77
*438 FILLER_11_0
*439 FILLER_11_102
*440 FILLER_11_134
*441 FILLER_11_152
*442 FILLER_11_184
*443 FILLER_11_202
*444 FILLER_11_234
*445 FILLER_11_252
*446 FILLER_11_284
*447 FILLER_11_302
*448 FILLER_11_32
*449 FILLER_11_334
*450 FILLER_11_352
*451 FILLER_11_368
*452 FILLER_11_48
*453 FILLER_11_52
*454 FILLER_11_84
*455 FILLER_12_0
*456 FILLER_12_109
*457 FILLER_12_127
*458 FILLER_12_159
*459 FILLER_12_16
*460 FILLER_12_177
*461 FILLER_12_209
*462 FILLER_12_227
*463 FILLER_12_24
*464 FILLER_12_259
*465 FILLER_12_27
*466 FILLER_12_277
*467 FILLER_12_309
*468 FILLER_12_327
*469 FILLER_12_359
*470 FILLER_12_367
*471 FILLER_12_59
*472 FILLER_12_77
*473 FILLER_13_0
*474 FILLER_13_102
*475 FILLER_13_134
*476 FILLER_13_152
*477 FILLER_13_184
*478 FILLER_13_202
*479 FILLER_13_234
*480 FILLER_13_252
*481 FILLER_13_284
*482 FILLER_13_302
*483 FILLER_13_32
*484 FILLER_13_334
*485 FILLER_13_352
*486 FILLER_13_368
*487 FILLER_13_48
*488 FILLER_13_52
*489 FILLER_13_84
*490 FILLER_14_0
*491 FILLER_14_109
*492 FILLER_14_127
*493 FILLER_14_159
*494 FILLER_14_16
*495 FILLER_14_177
*496 FILLER_14_209
*497 FILLER_14_227
*498 FILLER_14_24
*499 FILLER_14_259
*500 FILLER_14_27
*501 FILLER_14_277
*502 FILLER_14_309
*503 FILLER_14_327
*504 FILLER_14_359
*505 FILLER_14_367
*506 FILLER_14_59
*507 FILLER_14_77
*508 FILLER_15_0
*509 FILLER_15_102
*510 FILLER_15_134
*511 FILLER_15_152
*512 FILLER_15_184
*513 FILLER_15_202
*514 FILLER_15_234
*515 FILLER_15_252
*516 FILLER_15_284
*517 FILLER_15_302
*518 FILLER_15_32
*519 FILLER_15_334
*520 FILLER_15_352
*521 FILLER_15_368
*522 FILLER_15_48
*523 FILLER_15_52
*524 FILLER_15_84
*525 FILLER_16_0
*526 FILLER_16_109
*527 FILLER_16_127
*528 FILLER_16_159
*529 FILLER_16_16
*530 FILLER_16_177
*531 FILLER_16_209
*532 FILLER_16_227
*533 FILLER_16_24
*534 FILLER_16_259
*535 FILLER_16_27
*536 FILLER_16_277
*537 FILLER_16_309
*538 FILLER_16_327
*539 FILLER_16_359
*540 FILLER_16_367
*541 FILLER_16_59
*542 FILLER_16_77
*543 FILLER_17_0
*544 FILLER_17_102
*545 FILLER_17_134
*546 FILLER_17_152
*547 FILLER_17_184
*548 FILLER_17_202
*549 FILLER_17_234
*550 FILLER_17_252
*551 FILLER_17_284
*552 FILLER_17_302
*553 FILLER_17_32
*554 FILLER_17_334
*555 FILLER_17_352
*556 FILLER_17_368
*557 FILLER_17_48
*558 FILLER_17_52
*559 FILLER_17_84
*560 FILLER_18_0
*561 FILLER_18_109
*562 FILLER_18_127
*563 FILLER_18_159
*564 FILLER_18_16
*565 FILLER_18_177
*566 FILLER_18_209
*567 FILLER_18_227
*568 FILLER_18_24
*569 FILLER_18_259
*570 FILLER_18_27
*571 FILLER_18_277
*572 FILLER_18_309
*573 FILLER_18_327
*574 FILLER_18_359
*575 FILLER_18_367
*576 FILLER_18_59
*577 FILLER_18_77
*578 FILLER_19_0
*579 FILLER_19_102
*580 FILLER_19_135
*581 FILLER_19_143
*582 FILLER_19_147
*583 FILLER_19_149
*584 FILLER_19_152
*585 FILLER_19_156
*586 FILLER_19_186
*587 FILLER_19_194
*588 FILLER_19_198
*589 FILLER_19_202
*590 FILLER_19_234
*591 FILLER_19_252
*592 FILLER_19_284
*593 FILLER_19_302
*594 FILLER_19_32
*595 FILLER_19_334
*596 FILLER_19_352
*597 FILLER_19_368
*598 FILLER_19_48
*599 FILLER_19_52
*600 FILLER_19_68
*601 FILLER_19_98
*602 FILLER_1_0
*603 FILLER_1_102
*604 FILLER_1_134
*605 FILLER_1_152
*606 FILLER_1_184
*607 FILLER_1_202
*608 FILLER_1_234
*609 FILLER_1_252
*610 FILLER_1_284
*611 FILLER_1_302
*612 FILLER_1_32
*613 FILLER_1_334
*614 FILLER_1_352
*615 FILLER_1_368
*616 FILLER_1_48
*617 FILLER_1_52
*618 FILLER_1_84
*619 FILLER_20_0
*620 FILLER_20_109
*621 FILLER_20_133
*622 FILLER_20_16
*623 FILLER_20_173
*624 FILLER_20_177
*625 FILLER_20_193
*626 FILLER_20_201
*627 FILLER_20_205
*628 FILLER_20_222
*629 FILLER_20_224
*630 FILLER_20_227
*631 FILLER_20_231
*632 FILLER_20_233
*633 FILLER_20_24
*634 FILLER_20_263
*635 FILLER_20_27
*636 FILLER_20_271
*637 FILLER_20_277
*638 FILLER_20_309
*639 FILLER_20_327
*640 FILLER_20_359
*641 FILLER_20_367
*642 FILLER_20_59
*643 FILLER_20_77
*644 FILLER_21_0
*645 FILLER_21_102
*646 FILLER_21_110
*647 FILLER_21_134
*648 FILLER_21_152
*649 FILLER_21_160
*650 FILLER_21_162
*651 FILLER_21_178
*652 FILLER_21_194
*653 FILLER_21_198
*654 FILLER_21_231
*655 FILLER_21_239
*656 FILLER_21_247
*657 FILLER_21_249
*658 FILLER_21_280
*659 FILLER_21_296
*660 FILLER_21_302
*661 FILLER_21_32
*662 FILLER_21_334
*663 FILLER_21_352
*664 FILLER_21_368
*665 FILLER_21_48
*666 FILLER_21_52
*667 FILLER_21_84
*668 FILLER_22_0
*669 FILLER_22_115
*670 FILLER_22_137
*671 FILLER_22_153
*672 FILLER_22_16
*673 FILLER_22_161
*674 FILLER_22_177
*675 FILLER_22_181
*676 FILLER_22_211
*677 FILLER_22_219
*678 FILLER_22_223
*679 FILLER_22_227
*680 FILLER_22_24
*681 FILLER_22_243
*682 FILLER_22_245
*683 FILLER_22_27
*684 FILLER_22_312
*685 FILLER_22_320
*686 FILLER_22_324
*687 FILLER_22_327
*688 FILLER_22_359
*689 FILLER_22_367
*690 FILLER_22_59
*691 FILLER_22_83
*692 FILLER_23_0
*693 FILLER_23_102
*694 FILLER_23_118
*695 FILLER_23_122
*696 FILLER_23_132
*697 FILLER_23_148
*698 FILLER_23_152
*699 FILLER_23_156
*700 FILLER_23_158
*701 FILLER_23_177
*702 FILLER_23_193
*703 FILLER_23_197
*704 FILLER_23_199
*705 FILLER_23_202
*706 FILLER_23_206
*707 FILLER_23_208
*708 FILLER_23_232
*709 FILLER_23_248
*710 FILLER_23_252
*711 FILLER_23_254
*712 FILLER_23_271
*713 FILLER_23_287
*714 FILLER_23_295
*715 FILLER_23_299
*716 FILLER_23_302
*717 FILLER_23_32
*718 FILLER_23_334
*719 FILLER_23_352
*720 FILLER_23_368
*721 FILLER_23_48
*722 FILLER_23_52
*723 FILLER_23_56
*724 FILLER_23_58
*725 FILLER_23_88
*726 FILLER_23_96
*727 FILLER_24_0
*728 FILLER_24_114
*729 FILLER_24_122
*730 FILLER_24_124
*731 FILLER_24_127
*732 FILLER_24_16
*733 FILLER_24_167
*734 FILLER_24_177
*735 FILLER_24_209
*736 FILLER_24_227
*737 FILLER_24_24
*738 FILLER_24_259
*739 FILLER_24_27
*740 FILLER_24_277
*741 FILLER_24_285
*742 FILLER_24_289
*743 FILLER_24_320
*744 FILLER_24_324
*745 FILLER_24_327
*746 FILLER_24_359
*747 FILLER_24_367
*748 FILLER_24_60
*749 FILLER_24_64
*750 FILLER_24_77
*751 FILLER_24_98
*752 FILLER_25_0
*753 FILLER_25_131
*754 FILLER_25_147
*755 FILLER_25_149
*756 FILLER_25_152
*757 FILLER_25_184
*758 FILLER_25_202
*759 FILLER_25_210
*760 FILLER_25_214
*761 FILLER_25_223
*762 FILLER_25_239
*763 FILLER_25_247
*764 FILLER_25_249
*765 FILLER_25_252
*766 FILLER_25_284
*767 FILLER_25_310
*768 FILLER_25_32
*769 FILLER_25_342
*770 FILLER_25_352
*771 FILLER_25_368
*772 FILLER_25_48
*773 FILLER_25_52
*774 FILLER_25_68
*775 FILLER_25_88
*776 FILLER_25_96
*777 FILLER_26_0
*778 FILLER_26_105
*779 FILLER_26_123
*780 FILLER_26_127
*781 FILLER_26_143
*782 FILLER_26_145
*783 FILLER_26_16
*784 FILLER_26_177
*785 FILLER_26_185
*786 FILLER_26_189
*787 FILLER_26_191
*788 FILLER_26_200
*789 FILLER_26_220
*790 FILLER_26_224
*791 FILLER_26_227
*792 FILLER_26_235
*793 FILLER_26_237
*794 FILLER_26_24
*795 FILLER_26_267
*796 FILLER_26_27
*797 FILLER_26_277
*798 FILLER_26_293
*799 FILLER_26_307
*800 FILLER_26_323
*801 FILLER_26_327
*802 FILLER_26_359
*803 FILLER_26_367
*804 FILLER_26_49
*805 FILLER_26_65
*806 FILLER_26_73
*807 FILLER_26_77
*808 FILLER_26_89
*809 FILLER_27_102
*810 FILLER_27_110
*811 FILLER_27_122
*812 FILLER_27_160
*813 FILLER_27_192
*814 FILLER_27_202
*815 FILLER_27_206
*816 FILLER_27_237
*817 FILLER_27_245
*818 FILLER_27_249
*819 FILLER_27_252
*820 FILLER_27_268
*821 FILLER_27_277
*822 FILLER_27_285
*823 FILLER_27_289
*824 FILLER_27_314
*825 FILLER_27_346
*826 FILLER_27_352
*827 FILLER_27_368
*828 FILLER_27_52
*829 FILLER_27_84
*830 FILLER_28_0
*831 FILLER_28_109
*832 FILLER_28_127
*833 FILLER_28_131
*834 FILLER_28_16
*835 FILLER_28_170
*836 FILLER_28_174
*837 FILLER_28_177
*838 FILLER_28_185
*839 FILLER_28_209
*840 FILLER_28_220
*841 FILLER_28_224
*842 FILLER_28_227
*843 FILLER_28_235
*844 FILLER_28_239
*845 FILLER_28_241
*846 FILLER_28_258
*847 FILLER_28_262
*848 FILLER_28_283
*849 FILLER_28_291
*850 FILLER_28_295
*851 FILLER_28_297
*852 FILLER_28_308
*853 FILLER_28_324
*854 FILLER_28_327
*855 FILLER_28_329
*856 FILLER_28_359
*857 FILLER_28_367
*858 FILLER_28_56
*859 FILLER_28_72
*860 FILLER_28_74
*861 FILLER_28_77
*862 FILLER_29_102
*863 FILLER_29_110
*864 FILLER_29_112
*865 FILLER_29_119
*866 FILLER_29_135
*867 FILLER_29_143
*868 FILLER_29_147
*869 FILLER_29_149
*870 FILLER_29_158
*871 FILLER_29_176
*872 FILLER_29_192
*873 FILLER_29_202
*874 FILLER_29_210
*875 FILLER_29_214
*876 FILLER_29_216
*877 FILLER_29_223
*878 FILLER_29_227
*879 FILLER_29_229
*880 FILLER_29_244
*881 FILLER_29_291
*882 FILLER_29_299
*883 FILLER_29_302
*884 FILLER_29_332
*885 FILLER_29_348
*886 FILLER_29_352
*887 FILLER_29_368
*888 FILLER_29_61
*889 FILLER_29_69
*890 FILLER_29_73
*891 FILLER_29_75
*892 FILLER_29_82
*893 FILLER_29_98
*894 FILLER_2_0
*895 FILLER_2_109
*896 FILLER_2_127
*897 FILLER_2_159
*898 FILLER_2_16
*899 FILLER_2_177
*900 FILLER_2_209
*901 FILLER_2_227
*902 FILLER_2_24
*903 FILLER_2_259
*904 FILLER_2_27
*905 FILLER_2_277
*906 FILLER_2_309
*907 FILLER_2_327
*908 FILLER_2_359
*909 FILLER_2_367
*910 FILLER_2_59
*911 FILLER_2_77
*912 FILLER_30_0
*913 FILLER_30_102
*914 FILLER_30_104
*915 FILLER_30_113
*916 FILLER_30_121
*917 FILLER_30_127
*918 FILLER_30_159
*919 FILLER_30_16
*920 FILLER_30_177
*921 FILLER_30_209
*922 FILLER_30_227
*923 FILLER_30_24
*924 FILLER_30_259
*925 FILLER_30_263
*926 FILLER_30_265
*927 FILLER_30_27
*928 FILLER_30_277
*929 FILLER_30_293
*930 FILLER_30_297
*931 FILLER_30_315
*932 FILLER_30_323
*933 FILLER_30_327
*934 FILLER_30_349
*935 FILLER_30_365
*936 FILLER_30_54
*937 FILLER_30_70
*938 FILLER_30_74
*939 FILLER_30_85
*940 FILLER_30_98
*941 FILLER_31_102
*942 FILLER_31_135
*943 FILLER_31_143
*944 FILLER_31_147
*945 FILLER_31_149
*946 FILLER_31_152
*947 FILLER_31_184
*948 FILLER_31_199
*949 FILLER_31_202
*950 FILLER_31_234
*951 FILLER_31_252
*952 FILLER_31_268
*953 FILLER_31_286
*954 FILLER_31_294
*955 FILLER_31_298
*956 FILLER_31_302
*957 FILLER_31_334
*958 FILLER_31_352
*959 FILLER_31_368
*960 FILLER_31_52
*961 FILLER_31_98
*962 FILLER_32_0
*963 FILLER_32_116
*964 FILLER_32_124
*965 FILLER_32_127
*966 FILLER_32_159
*967 FILLER_32_16
*968 FILLER_32_206
*969 FILLER_32_222
*970 FILLER_32_224
*971 FILLER_32_237
*972 FILLER_32_24
*973 FILLER_32_269
*974 FILLER_32_273
*975 FILLER_32_277
*976 FILLER_32_309
*977 FILLER_32_327
*978 FILLER_32_359
*979 FILLER_32_367
*980 FILLER_32_56
*981 FILLER_32_72
*982 FILLER_32_74
*983 FILLER_32_77
*984 FILLER_32_79
*985 FILLER_32_86
*986 FILLER_32_94
*987 FILLER_33_102
*988 FILLER_33_110
*989 FILLER_33_143
*990 FILLER_33_147
*991 FILLER_33_149
*992 FILLER_33_152
*993 FILLER_33_156
*994 FILLER_33_158
*995 FILLER_33_177
*996 FILLER_33_193
*997 FILLER_33_197
*998 FILLER_33_199
*999 FILLER_33_202
*1000 FILLER_33_210
*1001 FILLER_33_248
*1002 FILLER_33_252
*1003 FILLER_33_284
*1004 FILLER_33_302
*1005 FILLER_33_335
*1006 FILLER_33_343
*1007 FILLER_33_347
*1008 FILLER_33_349
*1009 FILLER_33_352
*1010 FILLER_33_368
*1011 FILLER_33_52
*1012 FILLER_33_60
*1013 FILLER_33_64
*1014 FILLER_33_95
*1015 FILLER_33_99
*1016 FILLER_34_0
*1017 FILLER_34_109
*1018 FILLER_34_127
*1019 FILLER_34_146
*1020 FILLER_34_162
*1021 FILLER_34_170
*1022 FILLER_34_174
*1023 FILLER_34_177
*1024 FILLER_34_185
*1025 FILLER_34_195
*1026 FILLER_34_211
*1027 FILLER_34_219
*1028 FILLER_34_223
*1029 FILLER_34_235
*1030 FILLER_34_239
*1031 FILLER_34_241
*1032 FILLER_34_271
*1033 FILLER_34_277
*1034 FILLER_34_285
*1035 FILLER_34_289
*1036 FILLER_34_301
*1037 FILLER_34_305
*1038 FILLER_34_307
*1039 FILLER_34_314
*1040 FILLER_34_322
*1041 FILLER_34_324
*1042 FILLER_34_327
*1043 FILLER_34_335
*1044 FILLER_34_366
*1045 FILLER_34_368
*1046 FILLER_34_56
*1047 FILLER_34_72
*1048 FILLER_34_74
*1049 FILLER_34_77
*1050 FILLER_35_102
*1051 FILLER_35_118
*1052 FILLER_35_122
*1053 FILLER_35_124
*1054 FILLER_35_145
*1055 FILLER_35_149
*1056 FILLER_35_152
*1057 FILLER_35_184
*1058 FILLER_35_202
*1059 FILLER_35_234
*1060 FILLER_35_267
*1061 FILLER_35_322
*1062 FILLER_35_338
*1063 FILLER_35_363
*1064 FILLER_35_367
*1065 FILLER_35_52
*1066 FILLER_35_84
*1067 FILLER_36_0
*1068 FILLER_36_111
*1069 FILLER_36_119
*1070 FILLER_36_123
*1071 FILLER_36_127
*1072 FILLER_36_143
*1073 FILLER_36_160
*1074 FILLER_36_168
*1075 FILLER_36_172
*1076 FILLER_36_174
*1077 FILLER_36_177
*1078 FILLER_36_185
*1079 FILLER_36_189
*1080 FILLER_36_219
*1081 FILLER_36_223
*1082 FILLER_36_227
*1083 FILLER_36_243
*1084 FILLER_36_247
*1085 FILLER_36_257
*1086 FILLER_36_265
*1087 FILLER_36_269
*1088 FILLER_36_27
*1089 FILLER_36_277
*1090 FILLER_36_285
*1091 FILLER_36_289
*1092 FILLER_36_308
*1093 FILLER_36_31
*1094 FILLER_36_324
*1095 FILLER_36_327
*1096 FILLER_36_335
*1097 FILLER_36_337
*1098 FILLER_36_361
*1099 FILLER_36_44
*1100 FILLER_36_74
*1101 FILLER_36_77
*1102 FILLER_36_8
*1103 FILLER_36_85
*1104 FILLER_36_95
*1105 FILLER_37_102
*1106 FILLER_37_134
*1107 FILLER_37_138
*1108 FILLER_37_152
*1109 FILLER_37_156
*1110 FILLER_37_172
*1111 FILLER_37_188
*1112 FILLER_37_192
*1113 FILLER_37_210
*1114 FILLER_37_242
*1115 FILLER_37_252
*1116 FILLER_37_284
*1117 FILLER_37_302
*1118 FILLER_37_334
*1119 FILLER_37_352
*1120 FILLER_37_368
*1121 FILLER_37_60
*1122 FILLER_37_95
*1123 FILLER_37_99
*1124 FILLER_38_0
*1125 FILLER_38_101
*1126 FILLER_38_117
*1127 FILLER_38_127
*1128 FILLER_38_143
*1129 FILLER_38_145
*1130 FILLER_38_16
*1131 FILLER_38_177
*1132 FILLER_38_185
*1133 FILLER_38_189
*1134 FILLER_38_220
*1135 FILLER_38_224
*1136 FILLER_38_227
*1137 FILLER_38_24
*1138 FILLER_38_243
*1139 FILLER_38_274
*1140 FILLER_38_277
*1141 FILLER_38_309
*1142 FILLER_38_327
*1143 FILLER_38_331
*1144 FILLER_38_362
*1145 FILLER_38_366
*1146 FILLER_38_368
*1147 FILLER_38_56
*1148 FILLER_38_64
*1149 FILLER_38_66
*1150 FILLER_38_77
*1151 FILLER_39_102
*1152 FILLER_39_106
*1153 FILLER_39_108
*1154 FILLER_39_138
*1155 FILLER_39_146
*1156 FILLER_39_152
*1157 FILLER_39_184
*1158 FILLER_39_202
*1159 FILLER_39_206
*1160 FILLER_39_236
*1161 FILLER_39_244
*1162 FILLER_39_248
*1163 FILLER_39_252
*1164 FILLER_39_284
*1165 FILLER_39_302
*1166 FILLER_39_310
*1167 FILLER_39_337
*1168 FILLER_39_345
*1169 FILLER_39_349
*1170 FILLER_39_352
*1171 FILLER_39_368
*1172 FILLER_39_52
*1173 FILLER_39_60
*1174 FILLER_39_64
*1175 FILLER_39_95
*1176 FILLER_39_99
*1177 FILLER_3_0
*1178 FILLER_3_102
*1179 FILLER_3_134
*1180 FILLER_3_152
*1181 FILLER_3_184
*1182 FILLER_3_202
*1183 FILLER_3_234
*1184 FILLER_3_252
*1185 FILLER_3_284
*1186 FILLER_3_302
*1187 FILLER_3_32
*1188 FILLER_3_334
*1189 FILLER_3_352
*1190 FILLER_3_368
*1191 FILLER_3_48
*1192 FILLER_3_52
*1193 FILLER_3_84
*1194 FILLER_40_0
*1195 FILLER_40_109
*1196 FILLER_40_127
*1197 FILLER_40_159
*1198 FILLER_40_16
*1199 FILLER_40_216
*1200 FILLER_40_224
*1201 FILLER_40_227
*1202 FILLER_40_24
*1203 FILLER_40_243
*1204 FILLER_40_251
*1205 FILLER_40_255
*1206 FILLER_40_257
*1207 FILLER_40_27
*1208 FILLER_40_272
*1209 FILLER_40_274
*1210 FILLER_40_277
*1211 FILLER_40_281
*1212 FILLER_40_283
*1213 FILLER_40_31
*1214 FILLER_40_313
*1215 FILLER_40_321
*1216 FILLER_40_327
*1217 FILLER_40_33
*1218 FILLER_40_341
*1219 FILLER_40_357
*1220 FILLER_40_365
*1221 FILLER_40_50
*1222 FILLER_40_66
*1223 FILLER_40_74
*1224 FILLER_40_77
*1225 FILLER_41_102
*1226 FILLER_41_110
*1227 FILLER_41_117
*1228 FILLER_41_135
*1229 FILLER_41_143
*1230 FILLER_41_147
*1231 FILLER_41_149
*1232 FILLER_41_152
*1233 FILLER_41_184
*1234 FILLER_41_202
*1235 FILLER_41_218
*1236 FILLER_41_222
*1237 FILLER_41_224
*1238 FILLER_41_229
*1239 FILLER_41_245
*1240 FILLER_41_249
*1241 FILLER_41_252
*1242 FILLER_41_254
*1243 FILLER_41_276
*1244 FILLER_41_288
*1245 FILLER_41_296
*1246 FILLER_41_302
*1247 FILLER_41_310
*1248 FILLER_41_312
*1249 FILLER_41_342
*1250 FILLER_41_352
*1251 FILLER_41_368
*1252 FILLER_41_52
*1253 FILLER_41_84
*1254 FILLER_42_0
*1255 FILLER_42_107
*1256 FILLER_42_123
*1257 FILLER_42_136
*1258 FILLER_42_173
*1259 FILLER_42_185
*1260 FILLER_42_217
*1261 FILLER_42_227
*1262 FILLER_42_235
*1263 FILLER_42_239
*1264 FILLER_42_27
*1265 FILLER_42_273
*1266 FILLER_42_285
*1267 FILLER_42_301
*1268 FILLER_42_308
*1269 FILLER_42_31
*1270 FILLER_42_312
*1271 FILLER_42_314
*1272 FILLER_42_333
*1273 FILLER_42_365
*1274 FILLER_42_61
*1275 FILLER_42_69
*1276 FILLER_42_73
*1277 FILLER_42_77
*1278 FILLER_42_8
*1279 FILLER_42_93
*1280 FILLER_42_97
*1281 FILLER_43_143
*1282 FILLER_43_190
*1283 FILLER_43_198
*1284 FILLER_43_202
*1285 FILLER_43_218
*1286 FILLER_43_226
*1287 FILLER_43_230
*1288 FILLER_43_240
*1289 FILLER_43_248
*1290 FILLER_43_252
*1291 FILLER_43_268
*1292 FILLER_43_280
*1293 FILLER_43_296
*1294 FILLER_43_302
*1295 FILLER_43_318
*1296 FILLER_43_324
*1297 FILLER_43_340
*1298 FILLER_43_348
*1299 FILLER_43_352
*1300 FILLER_43_368
*1301 FILLER_43_52
*1302 FILLER_43_84
*1303 FILLER_43_88
*1304 FILLER_44_0
*1305 FILLER_44_106
*1306 FILLER_44_12
*1307 FILLER_44_122
*1308 FILLER_44_124
*1309 FILLER_44_127
*1310 FILLER_44_14
*1311 FILLER_44_143
*1312 FILLER_44_160
*1313 FILLER_44_168
*1314 FILLER_44_172
*1315 FILLER_44_174
*1316 FILLER_44_177
*1317 FILLER_44_193
*1318 FILLER_44_224
*1319 FILLER_44_227
*1320 FILLER_44_23
*1321 FILLER_44_231
*1322 FILLER_44_250
*1323 FILLER_44_266
*1324 FILLER_44_274
*1325 FILLER_44_277
*1326 FILLER_44_322
*1327 FILLER_44_324
*1328 FILLER_44_327
*1329 FILLER_44_359
*1330 FILLER_44_367
*1331 FILLER_44_47
*1332 FILLER_44_63
*1333 FILLER_44_71
*1334 FILLER_44_77
*1335 FILLER_44_8
*1336 FILLER_44_93
*1337 FILLER_44_97
*1338 FILLER_45_0
*1339 FILLER_45_102
*1340 FILLER_45_134
*1341 FILLER_45_152
*1342 FILLER_45_184
*1343 FILLER_45_2
*1344 FILLER_45_202
*1345 FILLER_45_206
*1346 FILLER_45_208
*1347 FILLER_45_244
*1348 FILLER_45_248
*1349 FILLER_45_252
*1350 FILLER_45_284
*1351 FILLER_45_302
*1352 FILLER_45_334
*1353 FILLER_45_352
*1354 FILLER_45_368
*1355 FILLER_45_42
*1356 FILLER_45_52
*1357 FILLER_45_97
*1358 FILLER_45_99
*1359 FILLER_46_0
*1360 FILLER_46_117
*1361 FILLER_46_127
*1362 FILLER_46_158
*1363 FILLER_46_16
*1364 FILLER_46_174
*1365 FILLER_46_182
*1366 FILLER_46_198
*1367 FILLER_46_202
*1368 FILLER_46_211
*1369 FILLER_46_213
*1370 FILLER_46_220
*1371 FILLER_46_224
*1372 FILLER_46_227
*1373 FILLER_46_24
*1374 FILLER_46_259
*1375 FILLER_46_277
*1376 FILLER_46_285
*1377 FILLER_46_289
*1378 FILLER_46_302
*1379 FILLER_46_318
*1380 FILLER_46_322
*1381 FILLER_46_324
*1382 FILLER_46_327
*1383 FILLER_46_335
*1384 FILLER_46_35
*1385 FILLER_46_368
*1386 FILLER_46_51
*1387 FILLER_46_55
*1388 FILLER_46_85
*1389 FILLER_47_0
*1390 FILLER_47_114
*1391 FILLER_47_122
*1392 FILLER_47_144
*1393 FILLER_47_148
*1394 FILLER_47_152
*1395 FILLER_47_162
*1396 FILLER_47_164
*1397 FILLER_47_189
*1398 FILLER_47_199
*1399 FILLER_47_2
*1400 FILLER_47_202
*1401 FILLER_47_218
*1402 FILLER_47_222
*1403 FILLER_47_224
*1404 FILLER_47_231
*1405 FILLER_47_247
*1406 FILLER_47_249
*1407 FILLER_47_262
*1408 FILLER_47_270
*1409 FILLER_47_274
*1410 FILLER_47_276
*1411 FILLER_47_302
*1412 FILLER_47_318
*1413 FILLER_47_326
*1414 FILLER_47_358
*1415 FILLER_47_366
*1416 FILLER_47_368
*1417 FILLER_47_40
*1418 FILLER_47_48
*1419 FILLER_47_52
*1420 FILLER_47_60
*1421 FILLER_47_64
*1422 FILLER_47_74
*1423 FILLER_47_90
*1424 FILLER_47_98
*1425 FILLER_48_0
*1426 FILLER_48_113
*1427 FILLER_48_121
*1428 FILLER_48_127
*1429 FILLER_48_129
*1430 FILLER_48_138
*1431 FILLER_48_206
*1432 FILLER_48_214
*1433 FILLER_48_216
*1434 FILLER_48_223
*1435 FILLER_48_235
*1436 FILLER_48_239
*1437 FILLER_48_27
*1438 FILLER_48_270
*1439 FILLER_48_274
*1440 FILLER_48_277
*1441 FILLER_48_307
*1442 FILLER_48_323
*1443 FILLER_48_362
*1444 FILLER_48_366
*1445 FILLER_48_368
*1446 FILLER_48_4
*1447 FILLER_48_57
*1448 FILLER_48_61
*1449 FILLER_48_77
*1450 FILLER_48_93
*1451 FILLER_48_97
*1452 FILLER_49_0
*1453 FILLER_49_131
*1454 FILLER_49_139
*1455 FILLER_49_143
*1456 FILLER_49_152
*1457 FILLER_49_208
*1458 FILLER_49_246
*1459 FILLER_49_252
*1460 FILLER_49_270
*1461 FILLER_49_278
*1462 FILLER_49_297
*1463 FILLER_49_299
*1464 FILLER_49_331
*1465 FILLER_49_348
*1466 FILLER_49_35
*1467 FILLER_49_352
*1468 FILLER_49_368
*1469 FILLER_49_43
*1470 FILLER_49_47
*1471 FILLER_49_49
*1472 FILLER_49_52
*1473 FILLER_49_56
*1474 FILLER_49_8
*1475 FILLER_49_86
*1476 FILLER_49_94
*1477 FILLER_49_98
*1478 FILLER_4_0
*1479 FILLER_4_109
*1480 FILLER_4_127
*1481 FILLER_4_159
*1482 FILLER_4_16
*1483 FILLER_4_177
*1484 FILLER_4_209
*1485 FILLER_4_227
*1486 FILLER_4_24
*1487 FILLER_4_259
*1488 FILLER_4_27
*1489 FILLER_4_277
*1490 FILLER_4_309
*1491 FILLER_4_327
*1492 FILLER_4_359
*1493 FILLER_4_367
*1494 FILLER_4_59
*1495 FILLER_4_77
*1496 FILLER_50_0
*1497 FILLER_50_101
*1498 FILLER_50_113
*1499 FILLER_50_121
*1500 FILLER_50_127
*1501 FILLER_50_16
*1502 FILLER_50_192
*1503 FILLER_50_205
*1504 FILLER_50_223
*1505 FILLER_50_24
*1506 FILLER_50_251
*1507 FILLER_50_267
*1508 FILLER_50_27
*1509 FILLER_50_277
*1510 FILLER_50_285
*1511 FILLER_50_287
*1512 FILLER_50_293
*1513 FILLER_50_302
*1514 FILLER_50_318
*1515 FILLER_50_322
*1516 FILLER_50_324
*1517 FILLER_50_327
*1518 FILLER_50_359
*1519 FILLER_50_367
*1520 FILLER_50_73
*1521 FILLER_50_77
*1522 FILLER_50_93
*1523 FILLER_51_0
*1524 FILLER_51_114
*1525 FILLER_51_118
*1526 FILLER_51_122
*1527 FILLER_51_130
*1528 FILLER_51_146
*1529 FILLER_51_16
*1530 FILLER_51_194
*1531 FILLER_51_196
*1532 FILLER_51_215
*1533 FILLER_51_236
*1534 FILLER_51_26
*1535 FILLER_51_260
*1536 FILLER_51_266
*1537 FILLER_51_282
*1538 FILLER_51_286
*1539 FILLER_51_290
*1540 FILLER_51_306
*1541 FILLER_51_310
*1542 FILLER_51_314
*1543 FILLER_51_330
*1544 FILLER_51_334
*1545 FILLER_51_338
*1546 FILLER_51_354
*1547 FILLER_51_358
*1548 FILLER_51_362
*1549 FILLER_51_366
*1550 FILLER_51_368
*1551 FILLER_51_42
*1552 FILLER_51_46
*1553 FILLER_51_50
*1554 FILLER_51_66
*1555 FILLER_51_70
*1556 FILLER_51_74
*1557 FILLER_51_90
*1558 FILLER_51_94
*1559 FILLER_51_98
*1560 FILLER_5_0
*1561 FILLER_5_102
*1562 FILLER_5_134
*1563 FILLER_5_152
*1564 FILLER_5_184
*1565 FILLER_5_202
*1566 FILLER_5_234
*1567 FILLER_5_252
*1568 FILLER_5_284
*1569 FILLER_5_302
*1570 FILLER_5_32
*1571 FILLER_5_334
*1572 FILLER_5_352
*1573 FILLER_5_368
*1574 FILLER_5_48
*1575 FILLER_5_52
*1576 FILLER_5_84
*1577 FILLER_6_0
*1578 FILLER_6_109
*1579 FILLER_6_127
*1580 FILLER_6_159
*1581 FILLER_6_16
*1582 FILLER_6_177
*1583 FILLER_6_209
*1584 FILLER_6_227
*1585 FILLER_6_24
*1586 FILLER_6_259
*1587 FILLER_6_27
*1588 FILLER_6_277
*1589 FILLER_6_309
*1590 FILLER_6_327
*1591 FILLER_6_359
*1592 FILLER_6_367
*1593 FILLER_6_59
*1594 FILLER_6_77
*1595 FILLER_7_0
*1596 FILLER_7_102
*1597 FILLER_7_134
*1598 FILLER_7_152
*1599 FILLER_7_184
*1600 FILLER_7_202
*1601 FILLER_7_234
*1602 FILLER_7_252
*1603 FILLER_7_284
*1604 FILLER_7_302
*1605 FILLER_7_32
*1606 FILLER_7_334
*1607 FILLER_7_352
*1608 FILLER_7_368
*1609 FILLER_7_48
*1610 FILLER_7_52
*1611 FILLER_7_84
*1612 FILLER_8_0
*1613 FILLER_8_115
*1614 FILLER_8_123
*1615 FILLER_8_127
*1616 FILLER_8_159
*1617 FILLER_8_16
*1618 FILLER_8_177
*1619 FILLER_8_209
*1620 FILLER_8_227
*1621 FILLER_8_24
*1622 FILLER_8_259
*1623 FILLER_8_27
*1624 FILLER_8_277
*1625 FILLER_8_309
*1626 FILLER_8_327
*1627 FILLER_8_359
*1628 FILLER_8_367
*1629 FILLER_8_43
*1630 FILLER_8_58
*1631 FILLER_8_74
*1632 FILLER_8_77
*1633 FILLER_8_81
*1634 FILLER_8_83
*1635 FILLER_9_0
*1636 FILLER_9_102
*1637 FILLER_9_134
*1638 FILLER_9_152
*1639 FILLER_9_18
*1640 FILLER_9_184
*1641 FILLER_9_202
*1642 FILLER_9_234
*1643 FILLER_9_252
*1644 FILLER_9_284
*1645 FILLER_9_302
*1646 FILLER_9_334
*1647 FILLER_9_352
*1648 FILLER_9_368
*1649 FILLER_9_4
*1650 FILLER_9_52
*1651 FILLER_9_84
*1652 TAP_TAPCELL_ROW_0_0
*1653 TAP_TAPCELL_ROW_0_1
*1654 TAP_TAPCELL_ROW_0_10
*1655 TAP_TAPCELL_ROW_0_11
*1656 TAP_TAPCELL_ROW_0_12
*1657 TAP_TAPCELL_ROW_0_13
*1658 TAP_TAPCELL_ROW_0_14
*1659 TAP_TAPCELL_ROW_0_2
*1660 TAP_TAPCELL_ROW_0_3
*1661 TAP_TAPCELL_ROW_0_4
*1662 TAP_TAPCELL_ROW_0_5
*1663 TAP_TAPCELL_ROW_0_6
*1664 TAP_TAPCELL_ROW_0_7
*1665 TAP_TAPCELL_ROW_0_8
*1666 TAP_TAPCELL_ROW_0_9
*1667 TAP_TAPCELL_ROW_10_78
*1668 TAP_TAPCELL_ROW_10_79
*1669 TAP_TAPCELL_ROW_10_80
*1670 TAP_TAPCELL_ROW_10_81
*1671 TAP_TAPCELL_ROW_10_82
*1672 TAP_TAPCELL_ROW_10_83
*1673 TAP_TAPCELL_ROW_10_84
*1674 TAP_TAPCELL_ROW_11_85
*1675 TAP_TAPCELL_ROW_11_86
*1676 TAP_TAPCELL_ROW_11_87
*1677 TAP_TAPCELL_ROW_11_88
*1678 TAP_TAPCELL_ROW_11_89
*1679 TAP_TAPCELL_ROW_11_90
*1680 TAP_TAPCELL_ROW_11_91
*1681 TAP_TAPCELL_ROW_12_92
*1682 TAP_TAPCELL_ROW_12_93
*1683 TAP_TAPCELL_ROW_12_94
*1684 TAP_TAPCELL_ROW_12_95
*1685 TAP_TAPCELL_ROW_12_96
*1686 TAP_TAPCELL_ROW_12_97
*1687 TAP_TAPCELL_ROW_12_98
*1688 TAP_TAPCELL_ROW_13_100
*1689 TAP_TAPCELL_ROW_13_101
*1690 TAP_TAPCELL_ROW_13_102
*1691 TAP_TAPCELL_ROW_13_103
*1692 TAP_TAPCELL_ROW_13_104
*1693 TAP_TAPCELL_ROW_13_105
*1694 TAP_TAPCELL_ROW_13_99
*1695 TAP_TAPCELL_ROW_14_106
*1696 TAP_TAPCELL_ROW_14_107
*1697 TAP_TAPCELL_ROW_14_108
*1698 TAP_TAPCELL_ROW_14_109
*1699 TAP_TAPCELL_ROW_14_110
*1700 TAP_TAPCELL_ROW_14_111
*1701 TAP_TAPCELL_ROW_14_112
*1702 TAP_TAPCELL_ROW_15_113
*1703 TAP_TAPCELL_ROW_15_114
*1704 TAP_TAPCELL_ROW_15_115
*1705 TAP_TAPCELL_ROW_15_116
*1706 TAP_TAPCELL_ROW_15_117
*1707 TAP_TAPCELL_ROW_15_118
*1708 TAP_TAPCELL_ROW_15_119
*1709 TAP_TAPCELL_ROW_16_120
*1710 TAP_TAPCELL_ROW_16_121
*1711 TAP_TAPCELL_ROW_16_122
*1712 TAP_TAPCELL_ROW_16_123
*1713 TAP_TAPCELL_ROW_16_124
*1714 TAP_TAPCELL_ROW_16_125
*1715 TAP_TAPCELL_ROW_16_126
*1716 TAP_TAPCELL_ROW_17_127
*1717 TAP_TAPCELL_ROW_17_128
*1718 TAP_TAPCELL_ROW_17_129
*1719 TAP_TAPCELL_ROW_17_130
*1720 TAP_TAPCELL_ROW_17_131
*1721 TAP_TAPCELL_ROW_17_132
*1722 TAP_TAPCELL_ROW_17_133
*1723 TAP_TAPCELL_ROW_18_134
*1724 TAP_TAPCELL_ROW_18_135
*1725 TAP_TAPCELL_ROW_18_136
*1726 TAP_TAPCELL_ROW_18_137
*1727 TAP_TAPCELL_ROW_18_138
*1728 TAP_TAPCELL_ROW_18_139
*1729 TAP_TAPCELL_ROW_18_140
*1730 TAP_TAPCELL_ROW_19_141
*1731 TAP_TAPCELL_ROW_19_142
*1732 TAP_TAPCELL_ROW_19_143
*1733 TAP_TAPCELL_ROW_19_144
*1734 TAP_TAPCELL_ROW_19_145
*1735 TAP_TAPCELL_ROW_19_146
*1736 TAP_TAPCELL_ROW_19_147
*1737 TAP_TAPCELL_ROW_1_15
*1738 TAP_TAPCELL_ROW_1_16
*1739 TAP_TAPCELL_ROW_1_17
*1740 TAP_TAPCELL_ROW_1_18
*1741 TAP_TAPCELL_ROW_1_19
*1742 TAP_TAPCELL_ROW_1_20
*1743 TAP_TAPCELL_ROW_1_21
*1744 TAP_TAPCELL_ROW_20_148
*1745 TAP_TAPCELL_ROW_20_149
*1746 TAP_TAPCELL_ROW_20_150
*1747 TAP_TAPCELL_ROW_20_151
*1748 TAP_TAPCELL_ROW_20_152
*1749 TAP_TAPCELL_ROW_20_153
*1750 TAP_TAPCELL_ROW_20_154
*1751 TAP_TAPCELL_ROW_21_155
*1752 TAP_TAPCELL_ROW_21_156
*1753 TAP_TAPCELL_ROW_21_157
*1754 TAP_TAPCELL_ROW_21_158
*1755 TAP_TAPCELL_ROW_21_159
*1756 TAP_TAPCELL_ROW_21_160
*1757 TAP_TAPCELL_ROW_21_161
*1758 TAP_TAPCELL_ROW_22_162
*1759 TAP_TAPCELL_ROW_22_163
*1760 TAP_TAPCELL_ROW_22_164
*1761 TAP_TAPCELL_ROW_22_165
*1762 TAP_TAPCELL_ROW_22_166
*1763 TAP_TAPCELL_ROW_22_167
*1764 TAP_TAPCELL_ROW_22_168
*1765 TAP_TAPCELL_ROW_23_169
*1766 TAP_TAPCELL_ROW_23_170
*1767 TAP_TAPCELL_ROW_23_171
*1768 TAP_TAPCELL_ROW_23_172
*1769 TAP_TAPCELL_ROW_23_173
*1770 TAP_TAPCELL_ROW_23_174
*1771 TAP_TAPCELL_ROW_23_175
*1772 TAP_TAPCELL_ROW_24_176
*1773 TAP_TAPCELL_ROW_24_177
*1774 TAP_TAPCELL_ROW_24_178
*1775 TAP_TAPCELL_ROW_24_179
*1776 TAP_TAPCELL_ROW_24_180
*1777 TAP_TAPCELL_ROW_24_181
*1778 TAP_TAPCELL_ROW_24_182
*1779 TAP_TAPCELL_ROW_25_183
*1780 TAP_TAPCELL_ROW_25_184
*1781 TAP_TAPCELL_ROW_25_185
*1782 TAP_TAPCELL_ROW_25_186
*1783 TAP_TAPCELL_ROW_25_187
*1784 TAP_TAPCELL_ROW_25_188
*1785 TAP_TAPCELL_ROW_25_189
*1786 TAP_TAPCELL_ROW_26_190
*1787 TAP_TAPCELL_ROW_26_191
*1788 TAP_TAPCELL_ROW_26_192
*1789 TAP_TAPCELL_ROW_26_193
*1790 TAP_TAPCELL_ROW_26_194
*1791 TAP_TAPCELL_ROW_26_195
*1792 TAP_TAPCELL_ROW_26_196
*1793 TAP_TAPCELL_ROW_27_197
*1794 TAP_TAPCELL_ROW_27_198
*1795 TAP_TAPCELL_ROW_27_199
*1796 TAP_TAPCELL_ROW_27_200
*1797 TAP_TAPCELL_ROW_27_201
*1798 TAP_TAPCELL_ROW_27_202
*1799 TAP_TAPCELL_ROW_27_203
*1800 TAP_TAPCELL_ROW_28_204
*1801 TAP_TAPCELL_ROW_28_205
*1802 TAP_TAPCELL_ROW_28_206
*1803 TAP_TAPCELL_ROW_28_207
*1804 TAP_TAPCELL_ROW_28_208
*1805 TAP_TAPCELL_ROW_28_209
*1806 TAP_TAPCELL_ROW_28_210
*1807 TAP_TAPCELL_ROW_29_211
*1808 TAP_TAPCELL_ROW_29_212
*1809 TAP_TAPCELL_ROW_29_213
*1810 TAP_TAPCELL_ROW_29_214
*1811 TAP_TAPCELL_ROW_29_215
*1812 TAP_TAPCELL_ROW_29_216
*1813 TAP_TAPCELL_ROW_29_217
*1814 TAP_TAPCELL_ROW_2_22
*1815 TAP_TAPCELL_ROW_2_23
*1816 TAP_TAPCELL_ROW_2_24
*1817 TAP_TAPCELL_ROW_2_25
*1818 TAP_TAPCELL_ROW_2_26
*1819 TAP_TAPCELL_ROW_2_27
*1820 TAP_TAPCELL_ROW_2_28
*1821 TAP_TAPCELL_ROW_30_218
*1822 TAP_TAPCELL_ROW_30_219
*1823 TAP_TAPCELL_ROW_30_220
*1824 TAP_TAPCELL_ROW_30_221
*1825 TAP_TAPCELL_ROW_30_222
*1826 TAP_TAPCELL_ROW_30_223
*1827 TAP_TAPCELL_ROW_30_224
*1828 TAP_TAPCELL_ROW_31_225
*1829 TAP_TAPCELL_ROW_31_226
*1830 TAP_TAPCELL_ROW_31_227
*1831 TAP_TAPCELL_ROW_31_228
*1832 TAP_TAPCELL_ROW_31_229
*1833 TAP_TAPCELL_ROW_31_230
*1834 TAP_TAPCELL_ROW_31_231
*1835 TAP_TAPCELL_ROW_32_232
*1836 TAP_TAPCELL_ROW_32_233
*1837 TAP_TAPCELL_ROW_32_234
*1838 TAP_TAPCELL_ROW_32_235
*1839 TAP_TAPCELL_ROW_32_236
*1840 TAP_TAPCELL_ROW_32_237
*1841 TAP_TAPCELL_ROW_32_238
*1842 TAP_TAPCELL_ROW_33_239
*1843 TAP_TAPCELL_ROW_33_240
*1844 TAP_TAPCELL_ROW_33_241
*1845 TAP_TAPCELL_ROW_33_242
*1846 TAP_TAPCELL_ROW_33_243
*1847 TAP_TAPCELL_ROW_33_244
*1848 TAP_TAPCELL_ROW_33_245
*1849 TAP_TAPCELL_ROW_34_246
*1850 TAP_TAPCELL_ROW_34_247
*1851 TAP_TAPCELL_ROW_34_248
*1852 TAP_TAPCELL_ROW_34_249
*1853 TAP_TAPCELL_ROW_34_250
*1854 TAP_TAPCELL_ROW_34_251
*1855 TAP_TAPCELL_ROW_34_252
*1856 TAP_TAPCELL_ROW_35_253
*1857 TAP_TAPCELL_ROW_35_254
*1858 TAP_TAPCELL_ROW_35_255
*1859 TAP_TAPCELL_ROW_35_256
*1860 TAP_TAPCELL_ROW_35_257
*1861 TAP_TAPCELL_ROW_35_258
*1862 TAP_TAPCELL_ROW_35_259
*1863 TAP_TAPCELL_ROW_36_260
*1864 TAP_TAPCELL_ROW_36_261
*1865 TAP_TAPCELL_ROW_36_262
*1866 TAP_TAPCELL_ROW_36_263
*1867 TAP_TAPCELL_ROW_36_264
*1868 TAP_TAPCELL_ROW_36_265
*1869 TAP_TAPCELL_ROW_36_266
*1870 TAP_TAPCELL_ROW_37_267
*1871 TAP_TAPCELL_ROW_37_268
*1872 TAP_TAPCELL_ROW_37_269
*1873 TAP_TAPCELL_ROW_37_270
*1874 TAP_TAPCELL_ROW_37_271
*1875 TAP_TAPCELL_ROW_37_272
*1876 TAP_TAPCELL_ROW_37_273
*1877 TAP_TAPCELL_ROW_38_274
*1878 TAP_TAPCELL_ROW_38_275
*1879 TAP_TAPCELL_ROW_38_276
*1880 TAP_TAPCELL_ROW_38_277
*1881 TAP_TAPCELL_ROW_38_278
*1882 TAP_TAPCELL_ROW_38_279
*1883 TAP_TAPCELL_ROW_38_280
*1884 TAP_TAPCELL_ROW_39_281
*1885 TAP_TAPCELL_ROW_39_282
*1886 TAP_TAPCELL_ROW_39_283
*1887 TAP_TAPCELL_ROW_39_284
*1888 TAP_TAPCELL_ROW_39_285
*1889 TAP_TAPCELL_ROW_39_286
*1890 TAP_TAPCELL_ROW_39_287
*1891 TAP_TAPCELL_ROW_3_29
*1892 TAP_TAPCELL_ROW_3_30
*1893 TAP_TAPCELL_ROW_3_31
*1894 TAP_TAPCELL_ROW_3_32
*1895 TAP_TAPCELL_ROW_3_33
*1896 TAP_TAPCELL_ROW_3_34
*1897 TAP_TAPCELL_ROW_3_35
*1898 TAP_TAPCELL_ROW_40_288
*1899 TAP_TAPCELL_ROW_40_289
*1900 TAP_TAPCELL_ROW_40_290
*1901 TAP_TAPCELL_ROW_40_291
*1902 TAP_TAPCELL_ROW_40_292
*1903 TAP_TAPCELL_ROW_40_293
*1904 TAP_TAPCELL_ROW_40_294
*1905 TAP_TAPCELL_ROW_41_295
*1906 TAP_TAPCELL_ROW_41_296
*1907 TAP_TAPCELL_ROW_41_297
*1908 TAP_TAPCELL_ROW_41_298
*1909 TAP_TAPCELL_ROW_41_299
*1910 TAP_TAPCELL_ROW_41_300
*1911 TAP_TAPCELL_ROW_41_301
*1912 TAP_TAPCELL_ROW_42_302
*1913 TAP_TAPCELL_ROW_42_303
*1914 TAP_TAPCELL_ROW_42_304
*1915 TAP_TAPCELL_ROW_42_305
*1916 TAP_TAPCELL_ROW_42_306
*1917 TAP_TAPCELL_ROW_42_307
*1918 TAP_TAPCELL_ROW_42_308
*1919 TAP_TAPCELL_ROW_43_309
*1920 TAP_TAPCELL_ROW_43_310
*1921 TAP_TAPCELL_ROW_43_311
*1922 TAP_TAPCELL_ROW_43_312
*1923 TAP_TAPCELL_ROW_43_313
*1924 TAP_TAPCELL_ROW_43_314
*1925 TAP_TAPCELL_ROW_43_315
*1926 TAP_TAPCELL_ROW_44_316
*1927 TAP_TAPCELL_ROW_44_317
*1928 TAP_TAPCELL_ROW_44_318
*1929 TAP_TAPCELL_ROW_44_319
*1930 TAP_TAPCELL_ROW_44_320
*1931 TAP_TAPCELL_ROW_44_321
*1932 TAP_TAPCELL_ROW_44_322
*1933 TAP_TAPCELL_ROW_45_323
*1934 TAP_TAPCELL_ROW_45_324
*1935 TAP_TAPCELL_ROW_45_325
*1936 TAP_TAPCELL_ROW_45_326
*1937 TAP_TAPCELL_ROW_45_327
*1938 TAP_TAPCELL_ROW_45_328
*1939 TAP_TAPCELL_ROW_45_329
*1940 TAP_TAPCELL_ROW_46_330
*1941 TAP_TAPCELL_ROW_46_331
*1942 TAP_TAPCELL_ROW_46_332
*1943 TAP_TAPCELL_ROW_46_333
*1944 TAP_TAPCELL_ROW_46_334
*1945 TAP_TAPCELL_ROW_46_335
*1946 TAP_TAPCELL_ROW_46_336
*1947 TAP_TAPCELL_ROW_47_337
*1948 TAP_TAPCELL_ROW_47_338
*1949 TAP_TAPCELL_ROW_47_339
*1950 TAP_TAPCELL_ROW_47_340
*1951 TAP_TAPCELL_ROW_47_341
*1952 TAP_TAPCELL_ROW_47_342
*1953 TAP_TAPCELL_ROW_47_343
*1954 TAP_TAPCELL_ROW_48_344
*1955 TAP_TAPCELL_ROW_48_345
*1956 TAP_TAPCELL_ROW_48_346
*1957 TAP_TAPCELL_ROW_48_347
*1958 TAP_TAPCELL_ROW_48_348
*1959 TAP_TAPCELL_ROW_48_349
*1960 TAP_TAPCELL_ROW_48_350
*1961 TAP_TAPCELL_ROW_49_351
*1962 TAP_TAPCELL_ROW_49_352
*1963 TAP_TAPCELL_ROW_49_353
*1964 TAP_TAPCELL_ROW_49_354
*1965 TAP_TAPCELL_ROW_49_355
*1966 TAP_TAPCELL_ROW_49_356
*1967 TAP_TAPCELL_ROW_49_357
*1968 TAP_TAPCELL_ROW_4_36
*1969 TAP_TAPCELL_ROW_4_37
*1970 TAP_TAPCELL_ROW_4_38
*1971 TAP_TAPCELL_ROW_4_39
*1972 TAP_TAPCELL_ROW_4_40
*1973 TAP_TAPCELL_ROW_4_41
*1974 TAP_TAPCELL_ROW_4_42
*1975 TAP_TAPCELL_ROW_50_358
*1976 TAP_TAPCELL_ROW_50_359
*1977 TAP_TAPCELL_ROW_50_360
*1978 TAP_TAPCELL_ROW_50_361
*1979 TAP_TAPCELL_ROW_50_362
*1980 TAP_TAPCELL_ROW_50_363
*1981 TAP_TAPCELL_ROW_50_364
*1982 TAP_TAPCELL_ROW_51_365
*1983 TAP_TAPCELL_ROW_51_366
*1984 TAP_TAPCELL_ROW_51_367
*1985 TAP_TAPCELL_ROW_51_368
*1986 TAP_TAPCELL_ROW_51_369
*1987 TAP_TAPCELL_ROW_51_370
*1988 TAP_TAPCELL_ROW_51_371
*1989 TAP_TAPCELL_ROW_51_372
*1990 TAP_TAPCELL_ROW_51_373
*1991 TAP_TAPCELL_ROW_51_374
*1992 TAP_TAPCELL_ROW_51_375
*1993 TAP_TAPCELL_ROW_51_376
*1994 TAP_TAPCELL_ROW_51_377
*1995 TAP_TAPCELL_ROW_51_378
*1996 TAP_TAPCELL_ROW_51_379
*1997 TAP_TAPCELL_ROW_5_43
*1998 TAP_TAPCELL_ROW_5_44
*1999 TAP_TAPCELL_ROW_5_45
*2000 TAP_TAPCELL_ROW_5_46
*2001 TAP_TAPCELL_ROW_5_47
*2002 TAP_TAPCELL_ROW_5_48
*2003 TAP_TAPCELL_ROW_5_49
*2004 TAP_TAPCELL_ROW_6_50
*2005 TAP_TAPCELL_ROW_6_51
*2006 TAP_TAPCELL_ROW_6_52
*2007 TAP_TAPCELL_ROW_6_53
*2008 TAP_TAPCELL_ROW_6_54
*2009 TAP_TAPCELL_ROW_6_55
*2010 TAP_TAPCELL_ROW_6_56
*2011 TAP_TAPCELL_ROW_7_57
*2012 TAP_TAPCELL_ROW_7_58
*2013 TAP_TAPCELL_ROW_7_59
*2014 TAP_TAPCELL_ROW_7_60
*2015 TAP_TAPCELL_ROW_7_61
*2016 TAP_TAPCELL_ROW_7_62
*2017 TAP_TAPCELL_ROW_7_63
*2018 TAP_TAPCELL_ROW_8_64
*2019 TAP_TAPCELL_ROW_8_65
*2020 TAP_TAPCELL_ROW_8_66
*2021 TAP_TAPCELL_ROW_8_67
*2022 TAP_TAPCELL_ROW_8_68
*2023 TAP_TAPCELL_ROW_8_69
*2024 TAP_TAPCELL_ROW_8_70
*2025 TAP_TAPCELL_ROW_9_71
*2026 TAP_TAPCELL_ROW_9_72
*2027 TAP_TAPCELL_ROW_9_73
*2028 TAP_TAPCELL_ROW_9_74
*2029 TAP_TAPCELL_ROW_9_75
*2030 TAP_TAPCELL_ROW_9_76
*2031 TAP_TAPCELL_ROW_9_77
*2032 _216_
*2033 _217_
*2034 _218_
*2035 _219_
*2036 _220_
*2037 _221_
*2038 _222_
*2039 _223_
*2040 _224_
*2041 _225_
*2042 _226_
*2043 _227_
*2044 _228_
*2045 _229_
*2046 _230_
*2047 _231_
*2048 _232_
*2049 _233_
*2050 _234_
*2051 _235_
*2052 _236_
*2053 _237_
*2054 _238_
*2055 _239_
*2056 _240_
*2057 _241_
*2058 _242_
*2059 _243_
*2060 _244_
*2061 _245_
*2062 _246_
*2063 _247_
*2064 _248_
*2065 _249_
*2066 _250_
*2067 _251_
*2068 _252_
*2069 _253_
*2070 _254_
*2071 _255_
*2072 _256_
*2073 _257_
*2074 _258_
*2075 _259_
*2076 _260_
*2077 _261_
*2078 _262_
*2079 _263_
*2080 _264_
*2081 _265_
*2082 _266_
*2083 _267_
*2084 _268_
*2085 _269_
*2086 _270_
*2087 _271_
*2088 _272_
*2089 _273_
*2090 _274_
*2091 _275_
*2092 _276_
*2093 _277_
*2094 _278_
*2095 _279_
*2096 _280_
*2097 _281_
*2098 _282_
*2099 _283_
*2100 _284_
*2101 _285_
*2102 _286_
*2103 _287_
*2104 _288_
*2105 _289_
*2106 _290_
*2107 _291_
*2108 _292_
*2109 _293_
*2110 _294_
*2111 _295_
*2112 _296_
*2113 _297_
*2114 _298_
*2115 _299_
*2116 _300_
*2117 _301_
*2118 _302_
*2119 _303_
*2120 _304_
*2121 _305_
*2122 _306_
*2123 _307_
*2124 _308_
*2125 _309_
*2126 _310_
*2127 _311_
*2128 _312_
*2129 _313_
*2130 _314_
*2131 _315_
*2132 _316_
*2133 _317_
*2134 _318_
*2135 _319_
*2136 _320_
*2137 _321_
*2138 _322_
*2139 _323_
*2140 _324_
*2141 _325_
*2142 _326_
*2143 _327_
*2144 _328_
*2145 _329_
*2146 _330_
*2147 _331_
*2148 _332_
*2149 _333_
*2150 _334_
*2151 _335_
*2152 _336_
*2153 _337_
*2154 _338_
*2155 _339_
*2156 _340_
*2157 _341_
*2158 _342_
*2159 _343_
*2160 _344_
*2161 _345_
*2162 _346_
*2163 _347_
*2164 _348_
*2165 _349_
*2166 _350_
*2167 _351_
*2168 _352_
*2169 _353_
*2170 _354_
*2171 _355_
*2172 _356_
*2173 _357_
*2174 _358_
*2175 _359_
*2176 _360_
*2177 _361_
*2178 _362_
*2179 _363_
*2180 _364_
*2181 _365_
*2182 _366_
*2183 _367_
*2184 _368_
*2185 _369_
*2186 _370_
*2187 _371_
*2188 _372_
*2189 _373_
*2190 _374_
*2191 _375_
*2192 _376_
*2193 _377_
*2194 _378_
*2195 _379_
*2196 _380_
*2197 _381_
*2198 _382_
*2199 _383_
*2200 _384_
*2201 _385_
*2202 _386_
*2203 _387_
*2204 _388_
*2205 _389_
*2206 _390_
*2207 _391_
*2208 _392_
*2209 _393_
*2210 _394_
*2211 _395_
*2212 _396_
*2213 _397_
*2214 _398_
*2215 _399_
*2216 _400_
*2217 _401_
*2218 _402_
*2219 _403_
*2220 _404_
*2221 _405_
*2222 _406_
*2223 _407_
*2224 _408_
*2225 _409_
*2226 _410_
*2227 _411_
*2228 _412_
*2229 _413_
*2230 _414_
*2231 _415_
*2232 _416_
*2233 _417_
*2234 _418_
*2235 _419_
*2236 _420_
*2237 _421_
*2238 _422_
*2239 _423_
*2240 _424_
*2241 _425_
*2242 _426_
*2243 _427_
*2244 _428_
*2245 _429_
*2246 _430_
*2247 _431_
*2248 _432_
*2249 _433_
*2250 _434_
*2251 _435_
*2252 _436_
*2253 _437_
*2254 _438_
*2255 _439_
*2256 _440_
*2257 _441_
*2258 _442_
*2259 _443_
*2260 _444_
*2261 _445_
*2262 _446_
*2263 _447_
*2264 _448_
*2265 _449_
*2266 _450_
*2267 _451_
*2268 _452_
*2269 _453_
*2270 _454_
*2271 _455_
*2272 _456_
*2273 _457_
*2274 _458_
*2275 _459_
*2276 _460_
*2277 _461_
*2278 _462_
*2279 _463_
*2280 _464_
*2281 _465_
*2282 _466_
*2283 _467_
*2284 _468_
*2285 _469_
*2286 _470_
*2287 _471_
*2288 _472_
*2289 _473_
*2290 _474_
*2291 _475_
*2292 _476_
*2293 _477_
*2294 _478_
*2295 _479_
*2296 _480_
*2297 _481_
*2298 _482_
*2299 _483_
*2300 _484_
*2301 _485_
*2302 _486_
*2303 _487_
*2304 _488_
*2305 _489_
*2306 _490_
*2307 _491_
*2308 _492_
*2309 _493_
*2310 _494_
*2311 _495_
*2312 _496_
*2313 clkbuf_0_clk
*2314 clkbuf_3_0__f_clk
*2315 clkbuf_3_1__f_clk
*2316 clkbuf_3_2__f_clk
*2317 clkbuf_3_3__f_clk
*2318 clkbuf_3_4__f_clk
*2319 clkbuf_3_5__f_clk
*2320 clkbuf_3_6__f_clk
*2321 clkbuf_3_7__f_clk
*2322 clkload0
*2323 clkload1
*2324 clkload2
*2325 clkload3
*2326 clkload4
*2327 clkload5
*2328 clkload6
*2329 input10
*2330 input11
*2331 input12
*2332 input13
*2333 input14
*2334 input15
*2335 input16
*2336 input17
*2337 input18
*2338 input19
*2339 input20
*2340 input21
*2341 input22
*2342 input23
*2343 input24
*2344 input25
*2345 input26
*2346 input27
*2347 input28
*2348 input29
*2349 input30
*2350 input31
*2351 input32
*2352 input33
*2353 input34
*2354 input35
*2355 input36
*2356 input37
*2357 input38
*2358 input39
*2359 input40
*2360 input41
*2361 input8
*2362 input9
*2363 load_slew43
*2364 load_slew44
*2365 load_slew45
*2366 load_slew46
*2367 place6
*2368 place7
*2369 spare_aoi_0
*2370 spare_dff_0
*2371 spare_inverter_0
*2372 spare_mux2_0
*2373 spare_nand2_0
*2374 spare_nor2_0
*2375 spare_tielo_drv
*2376 wire42

*PORTS
clk I
p O
rst I
x[0] I
x[10] I
x[11] I
x[12] I
x[13] I
x[14] I
x[15] I
x[16] I
x[17] I
x[18] I
x[19] I
x[1] I
x[20] I
x[21] I
x[22] I
x[23] I
x[24] I
x[25] I
x[26] I
x[27] I
x[28] I
x[29] I
x[2] I
x[30] I
x[31] I
x[3] I
x[4] I
x[5] I
x[6] I
x[7] I
x[8] I
x[9] I
y I

*D_NET *39 0.00130455
*CONN
*I *2305:D I *D gf180mcu_fd_sc_mcu7t5v0__dffq_1
*I *2069:ZN O *D gf180mcu_fd_sc_mcu7t5v0__nor3_1
*CAP
1 *2305:D 0.000465885
2 *2069:ZN 0.000465885
3 *2305:D *2069:A2 0.000121269
4 *2305:D *2069:A3 0.000199521
5 *2305:D *2180:A2 5.19908e-05
*RES
1 *2069:ZN *2305:D 11.7273 
*END

*D_NET *40 0.00274286
*CONN
*I *2304:D I *D gf180mcu_fd_sc_mcu7t5v0__dffq_1
*I *2072:ZN O *D gf180mcu_fd_sc_mcu7t5v0__nor3_1
*CAP
1 *2304:D 0.000228165
2 *2072:ZN 0.000228165
3 *2304:D *2070:B1 4.80664e-05
4 *2304:D *2072:A2 0.00129547
5 *2304:D *2072:A3 0.000349075
6 *2304:D *2184:A1 4.80664e-05
7 *2304:D *2184:A2 0.000448837
8 *2304:D *186:14 9.7015e-05
*RES
1 *2072:ZN *2304:D 11.6364 
*END

*D_NET *41 0.00178414
*CONN
*I *2303:D I *D gf180mcu_fd_sc_mcu7t5v0__dffq_1
*I *2075:ZN O *D gf180mcu_fd_sc_mcu7t5v0__nor3_1
*CAP
1 *2303:D 0.000368493
2 *2075:ZN 0.000368493
3 *2303:D *2073:A1 4.33385e-06
4 *2303:D *2075:A2 0.0006063
5 *2303:D *189:10 0.000436524
*RES
1 *2075:ZN *2303:D 11.7273 
*END

*D_NET *42 0.000716626
*CONN
*I *2302:D I *D gf180mcu_fd_sc_mcu7t5v0__dffq_1
*I *2078:ZN O *D gf180mcu_fd_sc_mcu7t5v0__nor3_1
*CAP
1 *2302:D 0.000358313
2 *2078:ZN 0.000358313
3 *2302:D *2076:A1 0
4 *2302:D *2302:CLK 0
*RES
1 *2078:ZN *2302:D 10.6364 
*END

*D_NET *43 0.00281143
*CONN
*I *2301:D I *D gf180mcu_fd_sc_mcu7t5v0__dffq_1
*I *2081:ZN O *D gf180mcu_fd_sc_mcu7t5v0__nor3_1
*CAP
1 *2301:D 0.000513125
2 *2081:ZN 0.000513125
3 *2301:D *2196:A1 0.000522881
4 *2301:D *2196:A2 0.000358011
5 *2301:D *195:10 0.000666329
6 *2301:D *289:71 8.01148e-05
7 *2301:D *305:24 8.66771e-06
8 *2301:D *349:10 0.000149171
*RES
1 *2081:ZN *2301:D 21.8182 
*END

*D_NET *44 0.000944666
*CONN
*I *2300:D I *D gf180mcu_fd_sc_mcu7t5v0__dffq_1
*I *2084:ZN O *D gf180mcu_fd_sc_mcu7t5v0__nor3_1
*CAP
1 *2300:D 0.00038283
2 *2084:ZN 0.00038283
3 *2300:D *2084:A3 8.95028e-05
4 *2300:D *2203:A2 0
5 *2300:D *2267:D 8.95028e-05
6 *2300:D *2300:CLK 0
*RES
1 *2084:ZN *2300:D 20.1818 
*END

*D_NET *45 0.00528864
*CONN
*I *2299:D I *D gf180mcu_fd_sc_mcu7t5v0__dffq_1
*I *2087:ZN O *D gf180mcu_fd_sc_mcu7t5v0__nor3_1
*CAP
1 *2299:D 0.000671514
2 *2087:ZN 0.000671514
3 *2299:D *2085:B1 0.00133267
4 *2299:D *2085:B2 0.00143089
5 *2299:D *2087:A2 0.000462902
6 *2299:D *2087:A3 0
7 *2299:D *2266:D 8.95028e-05
8 *2299:D *264:10 6.58577e-05
9 *2299:D *346:33 0.000563788
*RES
1 *2087:ZN *2299:D 23.8182 
*END

*D_NET *46 0.00170793
*CONN
*I *2298:D I *D gf180mcu_fd_sc_mcu7t5v0__dffq_1
*I *2090:ZN O *D gf180mcu_fd_sc_mcu7t5v0__nor3_1
*CAP
1 *2298:D 0.000505972
2 *2090:ZN 0.000505972
3 *2298:D *2090:A2 0.000139317
4 *2298:D *2090:A3 0.000483906
5 *2298:D *204:10 0
6 *2298:D *288:29 7.27612e-05
*RES
1 *2090:ZN *2298:D 20.7273 
*END

*D_NET *47 0.00215811
*CONN
*I *2297:D I *D gf180mcu_fd_sc_mcu7t5v0__dffq_1
*I *2093:ZN O *D gf180mcu_fd_sc_mcu7t5v0__nor3_1
*CAP
1 *2297:D 0.000729431
2 *2093:ZN 0.000729431
3 *2297:D *2093:A2 0.000315615
4 *2297:D *2214:A1 2.67049e-05
5 *2297:D *334:102 3.64721e-05
6 *2297:D *334:125 0.000320459
*RES
1 *2093:ZN *2297:D 22.3636 
*END

*D_NET *48 0.000962414
*CONN
*I *2296:D I *D gf180mcu_fd_sc_mcu7t5v0__dffq_1
*I *2096:ZN O *D gf180mcu_fd_sc_mcu7t5v0__nor3_1
*CAP
1 *2296:D 0.000354392
2 *2096:ZN 0.000354392
3 *2296:D *2096:A1 2.42537e-05
4 *2296:D *2096:A2 8.01107e-05
5 *2296:D *2216:A2 6.07869e-05
6 *2296:D *2296:CLK 5.20062e-05
7 *2296:D *343:8 3.64721e-05
*RES
1 *2096:ZN *2296:D 11 
*END

*D_NET *49 0.001735
*CONN
*I *2295:D I *D gf180mcu_fd_sc_mcu7t5v0__dffq_1
*I *2099:ZN O *D gf180mcu_fd_sc_mcu7t5v0__nor3_1
*CAP
1 *2295:D 0.000484396
2 *2099:ZN 0.000484396
3 *2295:D *2099:A1 0
4 *2295:D *2099:A2 0
5 *2295:D *2099:A3 4.86295e-05
6 *2295:D *260:18 5.12534e-05
7 *2295:D *290:52 0.000666327
8 *1:14 *2295:D 0
*RES
1 *2099:ZN *2295:D 20.9091 
*END

*D_NET *50 0.000597716
*CONN
*I *2294:D I *D gf180mcu_fd_sc_mcu7t5v0__dffq_1
*I *2102:ZN O *D gf180mcu_fd_sc_mcu7t5v0__nor3_1
*CAP
1 *2294:D 0.000152649
2 *2102:ZN 0.000152649
3 *2294:D *2102:A1 0.000292418
4 *1:14 *2294:D 0
*RES
1 *2102:ZN *2294:D 10.1818 
*END

*D_NET *51 0.000858676
*CONN
*I *2293:D I *D gf180mcu_fd_sc_mcu7t5v0__dffq_1
*I *2105:ZN O *D gf180mcu_fd_sc_mcu7t5v0__nor3_1
*CAP
1 *2293:D 0.000175777
2 *2105:ZN 0.000175777
3 *2293:D *2103:B2 0
4 *2293:D *2104:A1 0.000266791
5 *2293:D *2105:A2 0.000176243
6 *2293:D *2105:A3 6.40885e-05
*RES
1 *2105:ZN *2293:D 10.6364 
*END

*D_NET *52 0.000714042
*CONN
*I *2292:D I *D gf180mcu_fd_sc_mcu7t5v0__dffq_1
*I *2108:ZN O *D gf180mcu_fd_sc_mcu7t5v0__nor3_1
*CAP
1 *2292:D 0.000198685
2 *2108:ZN 0.000198685
3 *2292:D *2108:A1 0
4 *2292:D *2108:A2 0.000266791
5 *2292:D *297:16 4.98809e-05
*RES
1 *2108:ZN *2292:D 10.1818 
*END

*D_NET *53 0.00173234
*CONN
*I *2291:D I *D gf180mcu_fd_sc_mcu7t5v0__dffq_1
*I *2111:ZN O *D gf180mcu_fd_sc_mcu7t5v0__nor3_1
*CAP
1 *2291:D 0.00070398
2 *2111:ZN 0.00070398
3 *2291:D *2111:A2 0
4 *2291:D *2111:A3 1.58411e-05
5 *2291:D *2291:CLK 0.000274274
6 *2291:D *291:25 3.42649e-05
*RES
1 *2111:ZN *2291:D 13.1818 
*END

*D_NET *54 0.00109945
*CONN
*I *2290:D I *D gf180mcu_fd_sc_mcu7t5v0__dffq_1
*I *2114:ZN O *D gf180mcu_fd_sc_mcu7t5v0__nor3_1
*CAP
1 *2290:D 0.000290641
2 *2114:ZN 0.000290641
3 *2290:D *2112:B1 7.41956e-05
4 *2290:D *2113:A1 1.01589e-05
5 *2290:D *2114:A2 0.000121269
6 *2290:D *2114:A3 0.000196851
7 *2290:D *291:69 0
8 *2290:D *313:22 0.000115691
*RES
1 *2114:ZN *2290:D 11.1818 
*END

*D_NET *55 0.00261451
*CONN
*I *2289:D I *D gf180mcu_fd_sc_mcu7t5v0__dffq_1
*I *2117:ZN O *D gf180mcu_fd_sc_mcu7t5v0__nor3_1
*CAP
1 *2289:D 0.000416852
2 *2117:ZN 0.000416852
3 *2289:D *2115:B1 0.000206649
4 *2289:D *2117:A2 0.000181109
5 *2289:D *2117:A3 0.000268509
6 *2289:D *2289:CLK 0
7 *2289:D *285:16 0.000276562
8 *2289:D *320:20 0.000847973
*RES
1 *2117:ZN *2289:D 20.9091 
*END

*D_NET *56 0.00159312
*CONN
*I *2288:D I *D gf180mcu_fd_sc_mcu7t5v0__dffq_1
*I *2120:ZN O *D gf180mcu_fd_sc_mcu7t5v0__nor3_1
*CAP
1 *2288:D 0.000301587
2 *2120:ZN 0.000301587
3 *2288:D *2120:A2 0.000125439
4 *2288:D *300:22 0.000208288
5 *2288:D *301:18 0.000656224
*RES
1 *2120:ZN *2288:D 11.9091 
*END

*D_NET *57 0.00139508
*CONN
*I *2287:D I *D gf180mcu_fd_sc_mcu7t5v0__dffq_1
*I *2123:ZN O *D gf180mcu_fd_sc_mcu7t5v0__nor3_1
*CAP
1 *2287:D 0.000689531
2 *2123:ZN 0.000689531
3 *2287:D *2121:A1 0
4 *2287:D *2123:A2 1.60221e-05
5 *2287:D *2175:A2 0
6 *2287:D *2287:CLK 0
7 *2287:D *330:37 0
*RES
1 *2123:ZN *2287:D 12.8182 
*END

*D_NET *58 0.00212007
*CONN
*I *2286:D I *D gf180mcu_fd_sc_mcu7t5v0__dffq_1
*I *2126:ZN O *D gf180mcu_fd_sc_mcu7t5v0__nor3_1
*CAP
1 *2286:D 0.000369777
2 *2126:ZN 0.000369777
3 *2286:D *2125:A1 9.61328e-05
4 *2286:D *2125:A2 1.98013e-05
5 *2286:D *2126:A2 0.000110931
6 *2286:D *2126:A3 0.000595896
7 *2286:D *2183:A1 0.000400553
8 *2286:D *282:12 0.000144199
9 *2286:D *311:30 1.30016e-05
*RES
1 *2126:ZN *2286:D 12.4545 
*END

*D_NET *59 0.00136924
*CONN
*I *2285:D I *D gf180mcu_fd_sc_mcu7t5v0__dffq_1
*I *2129:ZN O *D gf180mcu_fd_sc_mcu7t5v0__nor3_1
*CAP
1 *2285:D 0.000398854
2 *2129:ZN 0.000398854
3 *2285:D *2127:A2 0
4 *2285:D *2127:B1 1.28922e-05
5 *2285:D *2127:B2 0.000124744
6 *2285:D *2129:A2 0.000189061
7 *2285:D *2175:A2 3.27361e-05
8 *2285:D *243:10 0.000212103
*RES
1 *2129:ZN *2285:D 11.7273 
*END

*D_NET *60 0.000651367
*CONN
*I *2284:D I *D gf180mcu_fd_sc_mcu7t5v0__dffq_1
*I *2132:ZN O *D gf180mcu_fd_sc_mcu7t5v0__nor3_1
*CAP
1 *2284:D 0.000170696
2 *2132:ZN 0.000170696
3 *2284:D *2132:A2 0.000176243
4 *2284:D *303:16 0.000133731
*RES
1 *2132:ZN *2284:D 10.6364 
*END

*D_NET *61 0.00650685
*CONN
*I *2279:D I *D gf180mcu_fd_sc_mcu7t5v0__dffq_1
*I *2135:ZN O *D gf180mcu_fd_sc_mcu7t5v0__nor3_1
*CAP
1 *2279:D 0.00104709
2 *2135:ZN 0.00104709
3 *2279:D *2150:A1 0.00138389
4 *2279:D *2156:A1 0.000563788
5 *2279:D *2156:A2 3.29289e-05
6 *2279:D *2160:A2 0
7 *2279:D *2279:CLK 0.000168291
8 *2279:D *159:12 0.000115088
9 *2279:D *311:30 0.000149643
10 *2279:D *369:575 0.00199904
*RES
1 *2135:ZN *2279:D 26.1818 
*END

*D_NET *62 0.00283603
*CONN
*I *2280:D I *D gf180mcu_fd_sc_mcu7t5v0__dffq_2
*I *2136:Z O *D gf180mcu_fd_sc_mcu7t5v0__and2_1
*CAP
1 *2280:D 0.00047715
2 *2136:Z 0.00047715
3 *2280:D *2312:CLK 0.00102511
4 *2280:D *306:20 0.000208259
5 *2280:D *307:30 0.000648361
6 *2280:D *319:14 0
7 *2280:D *321:24 0
*RES
1 *2136:Z *2280:D 21.1818 
*END

*D_NET *63 0.000613518
*CONN
*I *2248:D I *D gf180mcu_fd_sc_mcu7t5v0__dffq_1
*I *2141:ZN O *D gf180mcu_fd_sc_mcu7t5v0__nor2_1
*CAP
1 *2248:D 0.000136096
2 *2141:ZN 0.000136096
3 *2248:D *2141:A2 0.000185886
4 *2248:D *305:24 0.000144586
5 *2248:D *313:22 1.08548e-05
*RES
1 *2141:ZN *2248:D 10.4448 
*END

*D_NET *64 0.00158358
*CONN
*I *2312:D I *D gf180mcu_fd_sc_mcu7t5v0__dffq_1
*I *2142:Z O *D gf180mcu_fd_sc_mcu7t5v0__and2_1
*CAP
1 *2312:D 0.000336686
2 *2142:Z 0.000336686
3 *2312:D *2175:A2 0.000303913
4 *2312:D *323:16 0.0006063
*RES
1 *2142:Z *2312:D 11.6364 
*END

*D_NET *65 0.00287927
*CONN
*I *2283:D I *D gf180mcu_fd_sc_mcu7t5v0__dffq_1
*I *2145:ZN O *D gf180mcu_fd_sc_mcu7t5v0__nor3_1
*CAP
1 *2283:D 0.000419516
2 *2145:ZN 0.000419516
3 *2283:D *2145:A2 0.000218284
4 *2283:D *2145:A3 0.000695658
5 *2283:D *2322:I 4.98809e-05
6 *2283:D *293:16 0.00107641
7 *2283:D *334:87 0
*RES
1 *2145:ZN *2283:D 21.9091 
*END

*D_NET *66 0.00144511
*CONN
*I *2282:D I *D gf180mcu_fd_sc_mcu7t5v0__dffq_1
*I *2148:ZN O *D gf180mcu_fd_sc_mcu7t5v0__nor3_1
*CAP
1 *2282:D 0.000712567
2 *2148:ZN 0.000712567
3 *2282:D *2148:A1 0
4 *2282:D *2148:A3 1.99728e-05
5 *2282:D *334:269 0
*RES
1 *2148:ZN *2282:D 13 
*END

*D_NET *67 0.00182306
*CONN
*I *2281:D I *D gf180mcu_fd_sc_mcu7t5v0__dffq_1
*I *2149:ZN O *D gf180mcu_fd_sc_mcu7t5v0__aoi211_1
*CAP
1 *2281:D 0.000249579
2 *2149:ZN 0.000249579
3 *2281:D *2137:A1 4.85075e-05
4 *2281:D *2140:A3 0.000498807
5 *2281:D *2149:A2 0.000242537
6 *2281:D *2281:CLK 0.000461294
7 *2281:D *151:12 0
8 *2336:I *2281:D 7.27612e-05
*RES
1 *2149:ZN *2281:D 20.0909 
*END

*D_NET *68 0.00128448
*CONN
*I *2278:D I *D gf180mcu_fd_sc_mcu7t5v0__dffq_1
*I *2154:ZN O *D gf180mcu_fd_sc_mcu7t5v0__nor2_1
*CAP
1 *2278:D 0.000345627
2 *2154:ZN 0.000345627
3 *2278:D *2060:C 0
4 *2278:D *2154:A1 0.000593224
5 *2278:D *2154:A2 0
*RES
1 *2154:ZN *2278:D 11.5357 
*END

*D_NET *69 0.00132232
*CONN
*I *2277:D I *D gf180mcu_fd_sc_mcu7t5v0__dffq_1
*I *2159:ZN O *D gf180mcu_fd_sc_mcu7t5v0__nor2_1
*CAP
1 *2277:D 0.000535015
2 *2159:ZN 0.000535015
3 *2277:D *2159:A1 9.26359e-05
4 *2277:D *2159:A2 1.60221e-05
5 *2277:D *2160:A2 0.000134349
6 *2277:D *322:16 0
7 *2277:D *332:60 9.28683e-06
*RES
1 *2159:ZN *2277:D 12.1818 
*END

*D_NET *70 0.00136812
*CONN
*I *2276:D I *D gf180mcu_fd_sc_mcu7t5v0__dffq_1
*I *2164:ZN O *D gf180mcu_fd_sc_mcu7t5v0__nor2_1
*CAP
1 *2276:D 0.00050151
2 *2164:ZN 0.00050151
3 *2276:D *2164:A1 0.000121269
4 *2276:D *2164:A2 9.64239e-05
5 *2276:D *2276:CLK 7.46502e-05
6 *2276:D *295:80 7.27612e-05
*RES
1 *2164:ZN *2276:D 12.3636 
*END

*D_NET *71 0.00180199
*CONN
*I *2275:D I *D gf180mcu_fd_sc_mcu7t5v0__dffq_1
*I *2169:ZN O *D gf180mcu_fd_sc_mcu7t5v0__nor2_1
*CAP
1 *2275:D 0.00083241
2 *2169:ZN 0.00083241
3 *2275:D *2169:A1 0.000137172
4 *2275:D *2275:CLK 0
*RES
1 *2169:ZN *2275:D 22.3539 
*END

*D_NET *72 0.000672852
*CONN
*I *2274:D I *D gf180mcu_fd_sc_mcu7t5v0__dffq_1
*I *2174:ZN O *D gf180mcu_fd_sc_mcu7t5v0__nor2_1
*CAP
1 *2274:D 0.00031259
2 *2174:ZN 0.00031259
3 *2274:D *2274:CLK 4.76724e-05
*RES
1 *2174:ZN *2274:D 11.0909 
*END

*D_NET *73 0.00164503
*CONN
*I *2273:D I *D gf180mcu_fd_sc_mcu7t5v0__dffq_1
*I *2179:ZN O *D gf180mcu_fd_sc_mcu7t5v0__nor2_1
*CAP
1 *2273:D 0.000432211
2 *2179:ZN 0.000432211
3 *2273:D *2179:A1 9.44174e-05
4 *2273:D *355:10 0.000686188
*RES
1 *2179:ZN *2273:D 20.4448 
*END

*D_NET *74 0.000536338
*CONN
*I *2272:D I *D gf180mcu_fd_sc_mcu7t5v0__dffq_1
*I *2183:ZN O *D gf180mcu_fd_sc_mcu7t5v0__nor3_1
*CAP
1 *2272:D 0.000185281
2 *2183:ZN 0.000185281
3 *2272:D *2183:A1 3.20443e-05
4 *2272:D *2183:A3 0.000133731
*RES
1 *2183:ZN *2272:D 10.4545 
*END

*D_NET *75 0.0016881
*CONN
*I *2271:D I *D gf180mcu_fd_sc_mcu7t5v0__dffq_1
*I *2187:ZN O *D gf180mcu_fd_sc_mcu7t5v0__nor3_1
*CAP
1 *2271:D 0.00041892
2 *2187:ZN 0.00041892
3 *2271:D *2187:A1 4.85075e-05
4 *2271:D *2187:A2 1.60221e-05
5 *2271:D *2271:CLK 0
6 *2271:D *179:12 0.000436567
7 *2271:D *292:70 0.000349165
*RES
1 *2187:ZN *2271:D 11.7273 
*END

*D_NET *76 0.00252353
*CONN
*I *2270:D I *D gf180mcu_fd_sc_mcu7t5v0__dffq_1
*I *2191:ZN O *D gf180mcu_fd_sc_mcu7t5v0__nor3_1
*CAP
1 *2270:D 0.000930117
2 *2191:ZN 0.000930117
3 *2270:D *2191:A1 0.000460821
4 *2270:D *175:16 0.000202473
*RES
1 *2191:ZN *2270:D 14.9091 
*END

*D_NET *77 0.00216709
*CONN
*I *2269:D I *D gf180mcu_fd_sc_mcu7t5v0__dffq_1
*I *2195:ZN O *D gf180mcu_fd_sc_mcu7t5v0__nor3_1
*CAP
1 *2269:D 0.000655496
2 *2195:ZN 0.000655496
3 *2269:D *2081:A2 0
4 *2269:D *2195:A1 4.80664e-05
5 *2269:D *2195:A2 9.7015e-05
6 *2269:D *2195:A3 0.000211681
7 *2269:D *304:20 0
8 *2269:D *307:48 0.000146877
9 *2269:D *328:32 0.000352458
10 *2269:D *334:10 0
*RES
1 *2195:ZN *2269:D 22.4545 
*END

*D_NET *78 0.000532304
*CONN
*I *2268:D I *D gf180mcu_fd_sc_mcu7t5v0__dffq_1
*I *2199:ZN O *D gf180mcu_fd_sc_mcu7t5v0__nor3_1
*CAP
1 *2268:D 0.00012257
2 *2199:ZN 0.00012257
3 *2268:D *2199:A2 4.98809e-05
4 *2268:D *2300:CLK 9.64239e-06
5 *2268:D *289:12 0.000106066
6 *2268:D *328:161 0.000121574
*RES
1 *2199:ZN *2268:D 10.1818 
*END

*D_NET *79 0.00409268
*CONN
*I *2267:D I *D gf180mcu_fd_sc_mcu7t5v0__dffq_1
*I *2203:ZN O *D gf180mcu_fd_sc_mcu7t5v0__nor3_1
*CAP
1 *2267:D 0.00170746
2 *2203:ZN 0.00170746
3 *2267:D *2084:A2 7.71391e-05
4 *2267:D *2084:A3 1.60221e-05
5 *2267:D *2203:A2 0.000146896
6 *2267:D *2203:A3 0.000148269
7 *2267:D *2267:CLK 0
8 *2267:D *328:173 4.85075e-05
9 *2267:D *346:14 0.000151431
10 *2300:D *2267:D 8.95028e-05
*RES
1 *2203:ZN *2267:D 28.4545 
*END

*D_NET *80 0.00369669
*CONN
*I *2266:D I *D gf180mcu_fd_sc_mcu7t5v0__dffq_1
*I *2207:ZN O *D gf180mcu_fd_sc_mcu7t5v0__nor3_1
*CAP
1 *2266:D 0.00130113
2 *2207:ZN 0.00130113
3 *2266:D *2085:A1 0
4 *2266:D *2085:A2 0.000218284
5 *2266:D *2085:B1 0.000307553
6 *2266:D *2085:B2 4.2082e-05
7 *2266:D *2087:A2 0.000242836
8 *2266:D *2207:A1 2.43148e-05
9 *2266:D *2207:A2 7.27612e-05
10 *2266:D *2207:A3 9.70896e-05
11 *2266:D *2267:CLK 0
12 *2266:D *288:35 0
13 *2266:D *334:63 0
14 *2299:D *2266:D 8.95028e-05
*RES
1 *2207:ZN *2266:D 25.9091 
*END

*D_NET *81 0.00149847
*CONN
*I *2265:D I *D gf180mcu_fd_sc_mcu7t5v0__dffq_1
*I *2211:ZN O *D gf180mcu_fd_sc_mcu7t5v0__nor3_1
*CAP
1 *2265:D 0.000460835
2 *2211:ZN 0.000460835
3 *2265:D *2211:A2 8.01107e-05
4 *2265:D *288:10 0
5 *2265:D *334:95 6.06552e-05
6 *2265:D *334:102 0.000436031
*RES
1 *2211:ZN *2265:D 12.2727 
*END

*D_NET *82 0.00132955
*CONN
*I *2264:D I *D gf180mcu_fd_sc_mcu7t5v0__dffq_1
*I *2215:ZN O *D gf180mcu_fd_sc_mcu7t5v0__nor3_1
*CAP
1 *2264:D 0.000361417
2 *2215:ZN 0.000361417
3 *2264:D *2215:A1 6.07869e-05
4 *2264:D *2215:A3 0.000496046
5 *2264:D *290:112 0
6 *2264:D *344:10 4.98809e-05
*RES
1 *2215:ZN *2264:D 11 
*END

*D_NET *83 0.00803487
*CONN
*I *2263:D I *D gf180mcu_fd_sc_mcu7t5v0__dffq_1
*I *2219:ZN O *D gf180mcu_fd_sc_mcu7t5v0__nor3_1
*CAP
1 *2263:D 0.00123133
2 *2219:ZN 0.00123133
3 *2263:D *2094:A2 3.63434e-05
4 *2263:D *2094:B1 2.67049e-05
5 *2263:D *2096:A3 0.000652272
6 *2263:D *2213:A1 0
7 *2263:D *2215:A2 0
8 *2263:D *2296:CLK 0.000428251
9 *2263:D *329:73 0.00137238
10 *2263:D *329:75 0.000895028
11 *2263:D *329:77 0.000982324
12 *2263:D *329:83 0.00117891
*RES
1 *2219:ZN *2263:D 29.5454 
*END

*D_NET *84 0.00288454
*CONN
*I *2262:D I *D gf180mcu_fd_sc_mcu7t5v0__dffq_1
*I *2223:ZN O *D gf180mcu_fd_sc_mcu7t5v0__nor3_1
*CAP
1 *2262:D 0.000445764
2 *2223:ZN 0.000445764
3 *2262:D *2213:B 1.92848e-05
4 *2262:D *2223:A1 4.80664e-05
5 *2262:D *2223:A2 0.0012969
6 *2262:D *2223:A3 0.000544596
7 *2262:D *302:20 8.41641e-05
*RES
1 *2223:ZN *2262:D 22 
*END

*D_NET *85 0.000836064
*CONN
*I *2261:D I *D gf180mcu_fd_sc_mcu7t5v0__dffq_1
*I *2227:ZN O *D gf180mcu_fd_sc_mcu7t5v0__nor3_1
*CAP
1 *2261:D 0.000160134
2 *2227:ZN 0.000160134
3 *2261:D *2227:A1 4.85075e-05
4 *2261:D *2227:A3 0.000176243
5 *2261:D *335:43 0.000291045
*RES
1 *2227:ZN *2261:D 10.4545 
*END

*D_NET *86 0.000687376
*CONN
*I *2260:D I *D gf180mcu_fd_sc_mcu7t5v0__dffq_1
*I *2231:ZN O *D gf180mcu_fd_sc_mcu7t5v0__nor3_1
*CAP
1 *2260:D 0.000281107
2 *2231:ZN 0.000281107
3 *2260:D *2231:A2 7.27612e-05
4 *2260:D *2231:A3 4.80664e-05
5 *2260:D *298:22 4.33385e-06
*RES
1 *2231:ZN *2260:D 10.8182 
*END

*D_NET *87 0.00115573
*CONN
*I *2259:D I *D gf180mcu_fd_sc_mcu7t5v0__dffq_1
*I *2235:ZN O *D gf180mcu_fd_sc_mcu7t5v0__nor3_1
*CAP
1 *2259:D 0.000430054
2 *2235:ZN 0.000430054
3 *2259:D *2235:A1 0.000121269
4 *2259:D *2235:A2 9.7259e-05
5 *2259:D *2235:A3 4.33385e-06
6 *2259:D *2259:CLK 7.27612e-05
7 *2259:D *291:23 0
8 *2259:D *291:25 0
*RES
1 *2235:ZN *2259:D 11.7273 
*END

*D_NET *88 0.00142997
*CONN
*I *2258:D I *D gf180mcu_fd_sc_mcu7t5v0__dffq_1
*I *2239:ZN O *D gf180mcu_fd_sc_mcu7t5v0__nor3_1
*CAP
1 *2258:D 0.000241138
2 *2239:ZN 0.000241138
3 *2258:D *2109:A2 0.000116208
4 *2258:D *2237:B 2.42537e-05
5 *2258:D *2239:A2 0.000137291
6 *2258:D *2239:A3 0.000196851
7 *2258:D *225:18 0.000473091
8 *2258:D *291:90 0
*RES
1 *2239:ZN *2258:D 11 
*END

*D_NET *89 0.001101
*CONN
*I *2257:D I *D gf180mcu_fd_sc_mcu7t5v0__dffq_1
*I *2243:ZN O *D gf180mcu_fd_sc_mcu7t5v0__nor3_1
*CAP
1 *2257:D 0.000495806
2 *2243:ZN 0.000495806
3 *2257:D *2243:A2 6.07869e-05
4 *2257:D *294:12 4.76724e-05
5 *2257:D *294:18 9.28683e-07
6 *2257:D *303:16 0
7 *2257:D *325:14 0
8 *2257:D *325:16 0
*RES
1 *2243:ZN *2257:D 11.9091 
*END

*D_NET *90 0.00141471
*CONN
*I *2256:D I *D gf180mcu_fd_sc_mcu7t5v0__dffq_1
*I *2247:ZN O *D gf180mcu_fd_sc_mcu7t5v0__nor3_1
*CAP
1 *2256:D 0.000159299
2 *2247:ZN 0.000159299
3 *2256:D *2117:A1 2.89272e-05
4 *2256:D *2247:A2 0.000243507
5 *2256:D *2247:A3 0.000704326
6 *2256:D *231:10 4.89247e-05
7 *2256:D *331:27 9.64239e-06
8 *2256:D *331:36 6.07869e-05
*RES
1 *2247:ZN *2256:D 11.1818 
*END

*D_NET *91 0.00145777
*CONN
*I *2255:D I *D gf180mcu_fd_sc_mcu7t5v0__dffq_1
*I *2035:ZN O *D gf180mcu_fd_sc_mcu7t5v0__nor3_1
*CAP
1 *2255:D 0.000217164
2 *2035:ZN 0.000217164
3 *2255:D *2175:A2 0.000417141
4 *2255:D *330:27 0.0006063
*RES
1 *2035:ZN *2255:D 11.4545 
*END

*D_NET *92 0.00107607
*CONN
*I *2254:D I *D gf180mcu_fd_sc_mcu7t5v0__dffq_1
*I *2039:ZN O *D gf180mcu_fd_sc_mcu7t5v0__nor3_1
*CAP
1 *2254:D 0.00045246
2 *2039:ZN 0.00045246
3 *2254:D *2039:A1 0.000121269
4 *2254:D *2254:CLK 4.98809e-05
5 *2254:D *322:16 0
*RES
1 *2039:ZN *2254:D 11.9091 
*END

*D_NET *93 0.00437427
*CONN
*I *2253:D I *D gf180mcu_fd_sc_mcu7t5v0__dffq_1
*I *2043:ZN O *D gf180mcu_fd_sc_mcu7t5v0__nor3_1
*CAP
1 *2253:D 0.000339252
2 *2043:ZN 0.000339252
3 *2253:D *2040:A2 9.72373e-05
4 *2253:D *2043:A1 0.000548599
5 *2253:D *2043:A3 0.000713441
6 *2253:D *2124:A1 4.93933e-05
7 *2253:D *330:54 0.00169147
8 *2253:D *330:67 0.00015376
9 *2253:D *369:200 0.000441861
*RES
1 *2043:ZN *2253:D 22.3636 
*END

*D_NET *94 0.00203404
*CONN
*I *2252:D I *D gf180mcu_fd_sc_mcu7t5v0__dffq_1
*I *2047:ZN O *D gf180mcu_fd_sc_mcu7t5v0__nor3_1
*CAP
1 *2252:D 0.000400931
2 *2047:ZN 0.000400931
3 *2252:D *292:38 0
4 *2252:D *307:30 0.000598568
5 *2252:D *321:41 6.67623e-05
6 *2252:D *331:53 0.000566851
*RES
1 *2047:ZN *2252:D 21.0909 
*END

*D_NET *95 0.00711104
*CONN
*I *2251:D I *D gf180mcu_fd_sc_mcu7t5v0__dffq_1
*I *2051:ZN O *D gf180mcu_fd_sc_mcu7t5v0__nor3_1
*CAP
1 *2251:D 0.00345068
2 *2051:ZN 0.00345068
3 *2251:D *2051:A3 8.95028e-05
4 *2251:D *2143:A2 0
5 *2251:D *2144:A2 0
6 *2251:D *2146:A1 0.000120172
7 *2251:D *288:82 0
8 *2251:D *317:14 0
9 *2251:D *317:16 0
10 *2251:D *334:183 0
*RES
1 *2051:ZN *2251:D 34.3636 
*END

*D_NET *96 0.00126569
*CONN
*I *2250:D I *D gf180mcu_fd_sc_mcu7t5v0__dffq_1
*I *2055:ZN O *D gf180mcu_fd_sc_mcu7t5v0__nor3_1
*CAP
1 *2250:D 0.00022231
2 *2055:ZN 0.00022231
3 *2250:D *2055:A2 0.000493127
4 *2250:D *2282:CLK 0.000206675
5 *2250:D *328:128 0.000121269
*RES
1 *2055:ZN *2250:D 11.3636 
*END

*D_NET *97 0.00197539
*CONN
*I *2249:D I *D gf180mcu_fd_sc_mcu7t5v0__dffq_1
*I *2059:ZN O *D gf180mcu_fd_sc_mcu7t5v0__nor3_1
*CAP
1 *2249:D 0.000491419
2 *2059:ZN 0.000491419
3 *2249:D *2057:B 1.28087e-05
4 *2249:D *2059:A1 3.64721e-05
5 *2249:D *2059:A2 0.000125603
6 *2249:D *2059:A3 0.000595896
7 *2249:D *305:24 0
8 *2249:D *313:22 0.000221775
*RES
1 *2059:ZN *2249:D 12.2727 
*END

*D_NET *98 0.00140857
*CONN
*I *2311:D I *D gf180mcu_fd_sc_mcu7t5v0__dffq_1
*I *2060:ZN O *D gf180mcu_fd_sc_mcu7t5v0__aoi211_1
*CAP
1 *2311:D 0.000248464
2 *2060:ZN 0.000248464
3 *2311:D *2060:A2 7.27612e-05
4 *2311:D *2151:A1 1.92848e-05
5 *2311:D *2151:A2 0
6 *2311:D *2153:A3 0.000606511
7 *2311:D *2311:CLK 2.42537e-05
8 *2311:D *159:12 0.000188835
*RES
1 *2060:ZN *2311:D 10.8182 
*END

*D_NET *99 0.00170302
*CONN
*I *2310:D I *D gf180mcu_fd_sc_mcu7t5v0__dffq_1
*I *2061:ZN O *D gf180mcu_fd_sc_mcu7t5v0__aoi211_1
*CAP
1 *2310:D 0.000328059
2 *2061:ZN 0.000328059
3 *2310:D *2061:A2 9.7015e-05
4 *2310:D *2156:A1 0.000160122
5 *2310:D *2156:A2 0.000102212
6 *2310:D *2158:A3 0.000687553
*RES
1 *2061:ZN *2310:D 11.3636 
*END

*D_NET *100 0.000920385
*CONN
*I *2309:D I *D gf180mcu_fd_sc_mcu7t5v0__dffq_1
*I *2062:ZN O *D gf180mcu_fd_sc_mcu7t5v0__aoi211_1
*CAP
1 *2309:D 0.000153524
2 *2062:ZN 0.000153524
3 *2309:D *2062:C 0.000104096
4 *2309:D *2161:A1 0
5 *2309:D *2163:A1 0.000242494
6 *2309:D *2163:A2 0.000169776
7 *2309:D *357:17 9.69717e-05
*RES
1 *2062:ZN *2309:D 10.4545 
*END

*D_NET *101 0.00113339
*CONN
*I *2308:D I *D gf180mcu_fd_sc_mcu7t5v0__dffq_1
*I *2063:ZN O *D gf180mcu_fd_sc_mcu7t5v0__aoi211_1
*CAP
1 *2308:D 0.000343448
2 *2063:ZN 0.000343448
3 *2308:D *2063:B 9.97618e-05
4 *2308:D *2063:C 0.000188835
5 *2308:D *2167:A2 1.30016e-05
6 *2308:D *2169:A2 0.000144894
*RES
1 *2063:ZN *2308:D 11.0909 
*END

*D_NET *102 0.00108429
*CONN
*I *2307:D I *D gf180mcu_fd_sc_mcu7t5v0__dffq_1
*I *2064:ZN O *D gf180mcu_fd_sc_mcu7t5v0__aoi211_1
*CAP
1 *2307:D 0.000204789
2 *2064:ZN 0.000204789
3 *2307:D *2064:A1 0.00033088
4 *2307:D *2064:B 0.000242537
5 *2307:D *2064:C 6.06552e-05
6 *2307:D *2171:A1 4.06358e-05
*RES
1 *2064:ZN *2307:D 11 
*END

*D_NET *103 0.00158155
*CONN
*I *2306:D I *D gf180mcu_fd_sc_mcu7t5v0__dffq_1
*I *2065:ZN O *D gf180mcu_fd_sc_mcu7t5v0__aoi211_1
*CAP
1 *2306:D 0.000371981
2 *2065:ZN 0.000371981
3 *2306:D *2065:A2 0.00079663
4 *2306:D *2065:C 1.92848e-05
5 *2306:D *179:12 2.16693e-05
6 *2306:D *292:70 0
*RES
1 *2065:ZN *2306:D 11.7273 
*END

*D_NET *104 0.00432076
*CONN
*I *2142:A1 I *D gf180mcu_fd_sc_mcu7t5v0__and2_1
*I *2136:A1 I *D gf180mcu_fd_sc_mcu7t5v0__and2_1
*I *2066:ZN O *D gf180mcu_fd_sc_mcu7t5v0__clkinv_1
*CAP
1 *2142:A1 9.2365e-05
2 *2136:A1 0.000481821
3 *2066:ZN 2.54965e-05
4 *104:6 0.000599682
5 *2136:A1 *2066:I 0.00041227
6 *2136:A1 *2160:A2 0.0012814
7 *2136:A1 *2175:A2 0.000133731
8 *2136:A1 *2312:CLK 0.000548599
9 *2136:A1 *310:18 7.29443e-05
10 *2136:A1 *321:24 4.85075e-05
11 *2136:A1 *332:26 0.000441861
12 *2136:A1 *332:39 8.41641e-05
13 *2142:A1 *2175:A2 9.79138e-05
14 *2142:A1 *306:20 0
*RES
1 *2066:ZN *104:6 4.68182 
2 *104:6 *2136:A1 18.2273 
3 *104:6 *2142:A1 5.40909 
*END

*D_NET *105 0.00435143
*CONN
*I *2069:A2 I *D gf180mcu_fd_sc_mcu7t5v0__nor3_1
*I *2067:ZN O *D gf180mcu_fd_sc_mcu7t5v0__aoi22_1
*CAP
1 *2069:A2 0.000605399
2 *2067:ZN 0.000605399
3 *2069:A2 *2067:B2 2.17096e-05
4 *2069:A2 *2068:A2 4.81947e-05
5 *2069:A2 *2069:A1 0.00212106
6 *2069:A2 *2069:A3 0.000234069
7 *2069:A2 *271:14 0.000142029
8 *2069:A2 *271:21 0.00040617
9 *2069:A2 *293:53 3.85523e-05
10 *2069:A2 *353:20 7.57616e-06
11 *2305:D *2069:A2 0.000121269
*RES
1 *2067:ZN *2069:A2 22.526 
*END

*D_NET *106 0.00169176
*CONN
*I *2069:A3 I *D gf180mcu_fd_sc_mcu7t5v0__nor3_1
*I *2068:ZN O *D gf180mcu_fd_sc_mcu7t5v0__nor2_1
*CAP
1 *2069:A3 0.000517492
2 *2068:ZN 0.000517492
3 *2069:A3 *2068:A2 0.000104457
4 *2069:A3 *271:14 2.2578e-05
5 *2069:A3 *271:21 9.61541e-05
6 *2069:A3 *293:53 0
7 *2069:A2 *2069:A3 0.000234069
8 *2305:D *2069:A3 0.000199521
*RES
1 *2068:ZN *2069:A3 20.8084 
*END

*D_NET *107 0.00336578
*CONN
*I *2072:A2 I *D gf180mcu_fd_sc_mcu7t5v0__nor3_1
*I *2070:ZN O *D gf180mcu_fd_sc_mcu7t5v0__aoi22_1
*CAP
1 *2072:A2 0.000594617
2 *2070:ZN 0.000594617
3 *2072:A2 *2070:A1 3.20443e-05
4 *2072:A2 *2070:A2 0.000503717
5 *2072:A2 *2070:B1 0.000248291
6 *2072:A2 *2071:A1 0
7 *2072:A2 *2071:A2 3.03292e-05
8 *2072:A2 *2072:A3 6.66978e-05
9 *2072:A2 *331:87 0
10 *2304:D *2072:A2 0.00129547
*RES
1 *2070:ZN *2072:A2 13.5455 
*END

*D_NET *108 0.00169968
*CONN
*I *2072:A3 I *D gf180mcu_fd_sc_mcu7t5v0__nor3_1
*I *2071:ZN O *D gf180mcu_fd_sc_mcu7t5v0__nor2_1
*CAP
1 *2072:A3 0.000629795
2 *2071:ZN 0.000629795
3 *2072:A3 *2071:A2 2.43148e-05
4 *2072:A3 *331:87 0
5 *2072:A3 *331:98 0
6 *2072:A3 *331:111 0
7 *2072:A3 *352:12 0
8 *2072:A2 *2072:A3 6.66978e-05
9 *2304:D *2072:A3 0.000349075
*RES
1 *2071:ZN *2072:A3 20.8864 
*END

*D_NET *109 0.00435026
*CONN
*I *2075:A2 I *D gf180mcu_fd_sc_mcu7t5v0__nor3_1
*I *2073:ZN O *D gf180mcu_fd_sc_mcu7t5v0__aoi22_1
*CAP
1 *2075:A2 0.000527935
2 *2073:ZN 0.000527935
3 *2075:A2 *2073:A2 9.44174e-05
4 *2075:A2 *2073:B1 2.89099e-05
5 *2075:A2 *2074:A2 4.86295e-05
6 *2075:A2 *2075:A3 0.00227659
7 *2075:A2 *189:10 9.7259e-05
8 *2075:A2 *369:291 0.000142289
9 *2303:D *2075:A2 0.0006063
*RES
1 *2073:ZN *2075:A2 14.0714 
*END

*D_NET *110 0.00555752
*CONN
*I *2075:A3 I *D gf180mcu_fd_sc_mcu7t5v0__nor3_1
*I *2074:ZN O *D gf180mcu_fd_sc_mcu7t5v0__nor2_1
*CAP
1 *2075:A3 0.00079652
2 *2074:ZN 0.00079652
3 *2075:A3 *2074:A1 0.00149108
4 *2075:A3 *2074:A2 0
5 *2075:A3 *328:79 0.00014818
6 *2075:A3 *351:8 0
7 *2075:A3 *369:291 4.86295e-05
8 *2075:A2 *2075:A3 0.00227659
*RES
1 *2074:ZN *2075:A3 23.8993 
*END

*D_NET *111 0.000507008
*CONN
*I *2078:A2 I *D gf180mcu_fd_sc_mcu7t5v0__nor3_1
*I *2076:ZN O *D gf180mcu_fd_sc_mcu7t5v0__aoi22_1
*CAP
1 *2078:A2 0.000172943
2 *2076:ZN 0.000172943
3 *2078:A2 *2076:A1 4.33385e-06
4 *2078:A2 *2076:A2 0
5 *2078:A2 *2078:A1 0.000156788
*RES
1 *2076:ZN *2078:A2 10.0714 
*END

*D_NET *112 0.00143558
*CONN
*I *2078:A3 I *D gf180mcu_fd_sc_mcu7t5v0__nor3_1
*I *2077:ZN O *D gf180mcu_fd_sc_mcu7t5v0__nor2_1
*CAP
1 *2078:A3 0.000587051
2 *2077:ZN 0.000587051
3 *2078:A3 *2078:A1 0.000158505
4 *2078:A3 *268:10 0
5 *2078:A3 *268:16 0.000102973
*RES
1 *2077:ZN *2078:A3 20.776 
*END

*D_NET *113 0.00360184
*CONN
*I *2081:A2 I *D gf180mcu_fd_sc_mcu7t5v0__nor3_1
*I *2079:ZN O *D gf180mcu_fd_sc_mcu7t5v0__aoi22_1
*CAP
1 *2081:A2 0.000603388
2 *2079:ZN 0.000603388
3 *2081:A2 *2079:B1 0.00020884
4 *2081:A2 *2079:B2 3.1472e-05
5 *2081:A2 *2080:A1 0.000125603
6 *2081:A2 *2080:A2 2.00277e-05
7 *2081:A2 *2081:A1 0.000192266
8 *2081:A2 *2081:A3 0.000612639
9 *2081:A2 *2170:A2 0.000768774
10 *2081:A2 *2196:A1 8.95028e-05
11 *2081:A2 *267:8 0.000149171
12 *2081:A2 *328:118 1.64644e-05
13 *2081:A2 *328:120 8.23222e-05
14 *2081:A2 *349:10 0
15 *2081:A2 *369:316 9.79803e-05
16 *2269:D *2081:A2 0
*RES
1 *2079:ZN *2081:A2 22.0877 
*END

*D_NET *114 0.00232484
*CONN
*I *2081:A3 I *D gf180mcu_fd_sc_mcu7t5v0__nor3_1
*I *2080:ZN O *D gf180mcu_fd_sc_mcu7t5v0__nor2_1
*CAP
1 *2081:A3 0.000357301
2 *2080:ZN 0.000357301
3 *2081:A3 *2080:A1 0.000174498
4 *2081:A3 *2080:A2 0.000823099
5 *2081:A2 *2081:A3 0.000612639
*RES
1 *2080:ZN *2081:A3 11.7857 
*END

*D_NET *115 0.00476433
*CONN
*I *2084:A2 I *D gf180mcu_fd_sc_mcu7t5v0__nor3_1
*I *2082:ZN O *D gf180mcu_fd_sc_mcu7t5v0__aoi22_1
*CAP
1 *2084:A2 0.000650118
2 *2082:ZN 0.000650118
3 *2084:A2 *2082:A1 0.000238715
4 *2084:A2 *2082:B1 0.000886988
5 *2084:A2 *2084:A1 0.000454983
6 *2084:A2 *2200:A2 0.000133731
7 *2084:A2 *2201:B 2.60515e-06
8 *2084:A2 *2202:A1 0.000388269
9 *2084:A2 *2203:A2 0.000448926
10 *2084:A2 *2203:A3 0.000666295
11 *2084:A2 *198:6 6.07652e-05
12 *2084:A2 *265:12 4.33385e-06
13 *2084:A2 *328:173 9.7015e-05
14 *2084:A2 *334:43 4.33385e-06
15 *2267:D *2084:A2 7.71391e-05
*RES
1 *2082:ZN *2084:A2 23.1623 
*END

*D_NET *116 0.00121767
*CONN
*I *2084:A3 I *D gf180mcu_fd_sc_mcu7t5v0__nor3_1
*I *2083:ZN O *D gf180mcu_fd_sc_mcu7t5v0__nor2_1
*CAP
1 *2084:A3 0.000507526
2 *2083:ZN 0.000507526
3 *2084:A3 *2084:A1 6.67623e-05
4 *2084:A3 *265:12 3.03276e-05
5 *2267:D *2084:A3 1.60221e-05
6 *2300:D *2084:A3 8.95028e-05
*RES
1 *2083:ZN *2084:A3 20.4123 
*END

*D_NET *117 0.00393489
*CONN
*I *2087:A2 I *D gf180mcu_fd_sc_mcu7t5v0__nor3_1
*I *2085:ZN O *D gf180mcu_fd_sc_mcu7t5v0__aoi22_1
*CAP
1 *2087:A2 0.000337085
2 *2085:ZN 0.000337085
3 *2087:A2 *2085:A2 8.41641e-05
4 *2087:A2 *2085:B1 0.000596686
5 *2087:A2 *2207:A1 0.00179401
6 *2087:A2 *2207:A3 8.01147e-05
7 *2266:D *2087:A2 0.000242836
8 *2299:D *2087:A2 0.000462902
*RES
1 *2085:ZN *2087:A2 22.4351 
*END

*D_NET *118 0.00228154
*CONN
*I *2087:A3 I *D gf180mcu_fd_sc_mcu7t5v0__nor3_1
*I *2086:ZN O *D gf180mcu_fd_sc_mcu7t5v0__nor2_1
*CAP
1 *2087:A3 0.000876241
2 *2086:ZN 0.000876241
3 *2087:A3 *2086:A1 9.4373e-05
4 *2087:A3 *2086:A2 0.000231451
5 *2087:A3 *2267:CLK 0
6 *2087:A3 *201:6 5.4274e-05
7 *2087:A3 *264:10 6.66296e-05
8 *2087:A3 *346:14 0
9 *2087:A3 *346:33 8.23277e-05
10 *2299:D *2087:A3 0
*RES
1 *2086:ZN *2087:A3 22.6266 
*END

*D_NET *119 0.00508708
*CONN
*I *2090:A2 I *D gf180mcu_fd_sc_mcu7t5v0__nor3_1
*I *2088:ZN O *D gf180mcu_fd_sc_mcu7t5v0__aoi22_1
*CAP
1 *2090:A2 0.00161925
2 *2088:ZN 0.00161925
3 *2090:A2 *2088:B1 6.06266e-05
4 *2090:A2 *2090:A1 0.000169733
5 *2090:A2 *2090:A3 0
6 *2090:A2 *2210:A2 0.000197573
7 *2090:A2 *2211:A3 0
8 *2090:A2 *292:12 0.00128134
9 *2298:D *2090:A2 0.000139317
*RES
1 *2088:ZN *2090:A2 25.9805 
*END

*D_NET *120 0.0028981
*CONN
*I *2090:A3 I *D gf180mcu_fd_sc_mcu7t5v0__nor3_1
*I *2089:ZN O *D gf180mcu_fd_sc_mcu7t5v0__nor2_1
*CAP
1 *2090:A3 0.00105969
2 *2089:ZN 0.00105969
3 *2090:A3 *2089:A2 0
4 *2090:A3 *204:10 0
5 *2090:A3 *288:10 0
6 *2090:A3 *288:29 0.000294813
7 *2090:A2 *2090:A3 0
8 *2298:D *2090:A3 0.000483906
*RES
1 *2089:ZN *2090:A3 23.3312 
*END

*D_NET *121 0.00136827
*CONN
*I *2093:A2 I *D gf180mcu_fd_sc_mcu7t5v0__nor3_1
*I *2091:ZN O *D gf180mcu_fd_sc_mcu7t5v0__aoi22_1
*CAP
1 *2093:A2 0.000220675
2 *2091:ZN 0.000220675
3 *2093:A2 *2091:A1 8.9073e-05
4 *2093:A2 *2091:B1 8.9073e-05
5 *2093:A2 *2093:A3 0
6 *2093:A2 *2214:A1 0.000268509
7 *2093:A2 *287:13 0.000164644
8 *2297:D *2093:A2 0.000315615
*RES
1 *2091:ZN *2093:A2 20.0714 
*END

*D_NET *122 0.00155697
*CONN
*I *2093:A3 I *D gf180mcu_fd_sc_mcu7t5v0__nor3_1
*I *2092:ZN O *D gf180mcu_fd_sc_mcu7t5v0__nor2_1
*CAP
1 *2093:A3 0.000317411
2 *2092:ZN 0.000317411
3 *2093:A3 *2092:A1 1.92967e-05
4 *2093:A3 *2092:A2 3.20443e-05
5 *2093:A3 *287:15 0.000282383
6 *2093:A3 *287:75 0.000342694
7 *2093:A3 *329:83 0.000210601
8 *2093:A3 *329:96 3.51258e-05
9 *2093:A2 *2093:A3 0
*RES
1 *2092:ZN *2093:A3 11.7857 
*END

*D_NET *123 0.00290402
*CONN
*I *2096:A2 I *D gf180mcu_fd_sc_mcu7t5v0__nor3_1
*I *2094:ZN O *D gf180mcu_fd_sc_mcu7t5v0__aoi22_1
*CAP
1 *2096:A2 0.000809201
2 *2094:ZN 0.000809201
3 *2096:A2 *2094:A1 8.9073e-05
4 *2096:A2 *2094:B1 6.31231e-05
5 *2096:A2 *2095:A2 4.60026e-05
6 *2096:A2 *2096:A3 0.000482086
7 *2096:A2 *2216:A2 0
8 *2096:A2 *2296:CLK 7.63867e-05
9 *2096:A2 *343:8 0.000448839
10 *2296:D *2096:A2 8.01107e-05
*RES
1 *2094:ZN *2096:A2 22.526 
*END

*D_NET *124 0.00445576
*CONN
*I *2096:A3 I *D gf180mcu_fd_sc_mcu7t5v0__nor3_1
*I *2095:ZN O *D gf180mcu_fd_sc_mcu7t5v0__nor2_1
*CAP
1 *2096:A3 0.000786691
2 *2095:ZN 0.000786691
3 *2096:A3 *2094:A1 7.79584e-05
4 *2096:A3 *2094:A2 8.9073e-05
5 *2096:A3 *2094:B1 0.000268509
6 *2096:A3 *2094:B2 8.66771e-06
7 *2096:A3 *2095:A1 0.000672703
8 *2096:A3 *2095:A2 0
9 *2096:A3 *2216:A2 1.29938e-05
10 *2096:A3 *2296:CLK 0.000486336
11 *2096:A3 *261:18 0.000131777
12 *2096:A2 *2096:A3 0.000482086
13 *2263:D *2096:A3 0.000652272
*RES
1 *2095:ZN *2096:A3 23.4318 
*END

*D_NET *125 0.00183376
*CONN
*I *2099:A2 I *D gf180mcu_fd_sc_mcu7t5v0__nor3_1
*I *2097:ZN O *D gf180mcu_fd_sc_mcu7t5v0__aoi22_1
*CAP
1 *2099:A2 0.000348919
2 *2097:ZN 0.000348919
3 *2099:A2 *2097:A1 0.000449154
4 *2099:A2 *2097:B1 0.000149643
5 *2099:A2 *2099:A3 0.000100561
6 *2099:A2 *260:18 0.000436567
7 *2295:D *2099:A2 0
*RES
1 *2097:ZN *2099:A2 12.3636 
*END

*D_NET *126 0.00146401
*CONN
*I *2099:A3 I *D gf180mcu_fd_sc_mcu7t5v0__nor3_1
*I *2098:ZN O *D gf180mcu_fd_sc_mcu7t5v0__nor2_1
*CAP
1 *2099:A3 0.000377803
2 *2098:ZN 0.000377803
3 *2099:A3 *2098:A1 0.000122642
4 *2099:A3 *260:18 0.000436567
5 *2099:A2 *2099:A3 0.000100561
6 *2295:D *2099:A3 4.86295e-05
*RES
1 *2098:ZN *2099:A3 11.7273 
*END

*D_NET *127 0.00239224
*CONN
*I *2102:A2 I *D gf180mcu_fd_sc_mcu7t5v0__nor3_1
*I *2100:ZN O *D gf180mcu_fd_sc_mcu7t5v0__aoi22_1
*CAP
1 *2102:A2 0.000512225
2 *2100:ZN 0.000512225
3 *2102:A2 *2100:A1 8.9073e-05
4 *2102:A2 *2101:A1 2.67049e-05
5 *2102:A2 *2101:A2 0.000273533
6 *2102:A2 *2102:A1 1.60221e-05
7 *2102:A2 *2102:A3 0.000292802
8 *2102:A2 *259:27 0.000188789
9 *2102:A2 *333:61 5.78371e-05
10 *2102:A2 *341:16 0.000153763
11 *2102:A2 *341:22 0.000256267
12 *1:14 *2102:A2 1.30016e-05
*RES
1 *2100:ZN *2102:A2 21.4351 
*END

*D_NET *128 0.00153737
*CONN
*I *2102:A3 I *D gf180mcu_fd_sc_mcu7t5v0__nor3_1
*I *2101:ZN O *D gf180mcu_fd_sc_mcu7t5v0__nor2_1
*CAP
1 *2102:A3 0.000477533
2 *2101:ZN 0.000477533
3 *2102:A3 *2100:B2 8.60928e-06
4 *2102:A3 *2102:A1 0.000165484
5 *2102:A3 *2224:A1 4.33385e-06
6 *2102:A3 *259:27 4.33385e-06
7 *2102:A3 *341:22 8.67643e-05
8 *2102:A2 *2102:A3 0.000292802
9 *1:14 *2102:A3 1.99728e-05
*RES
1 *2101:ZN *2102:A3 20.4123 
*END

*D_NET *129 0.00296299
*CONN
*I *2105:A2 I *D gf180mcu_fd_sc_mcu7t5v0__nor3_1
*I *2103:ZN O *D gf180mcu_fd_sc_mcu7t5v0__aoi22_1
*CAP
1 *2105:A2 0.000449153
2 *2103:ZN 0.000449153
3 *2105:A2 *2103:B1 0.000598568
4 *2105:A2 *2104:A1 5.78543e-05
5 *2105:A2 *2229:B 0
6 *2105:A2 *219:10 0.00013676
7 *2105:A2 *258:23 0.000598568
8 *2105:A2 *335:35 0.000496686
9 *2293:D *2105:A2 0.000176243
*RES
1 *2103:ZN *2105:A2 13.0909 
*END

*D_NET *130 0.000254863
*CONN
*I *2105:A3 I *D gf180mcu_fd_sc_mcu7t5v0__nor3_1
*I *2104:ZN O *D gf180mcu_fd_sc_mcu7t5v0__nor2_1
*CAP
1 *2105:A3 9.53874e-05
2 *2104:ZN 9.53874e-05
3 *2293:D *2105:A3 6.40885e-05
*RES
1 *2104:ZN *2105:A3 9.81818 
*END

*D_NET *131 0.00155071
*CONN
*I *2108:A2 I *D gf180mcu_fd_sc_mcu7t5v0__nor3_1
*I *2106:ZN O *D gf180mcu_fd_sc_mcu7t5v0__aoi22_1
*CAP
1 *2108:A2 0.000331244
2 *2106:ZN 0.000331244
3 *2108:A2 *2108:A3 0.000416575
4 *2108:A2 *297:16 0.000204854
5 *2292:D *2108:A2 0.000266791
*RES
1 *2106:ZN *2108:A2 11.7078 
*END

*D_NET *132 0.00149301
*CONN
*I *2108:A3 I *D gf180mcu_fd_sc_mcu7t5v0__nor3_1
*I *2107:ZN O *D gf180mcu_fd_sc_mcu7t5v0__nor2_1
*CAP
1 *2108:A3 0.000492309
2 *2107:ZN 0.000492309
3 *2108:A3 *2106:B2 4.85075e-05
4 *2108:A3 *2292:CLK 4.33103e-05
5 *2108:A2 *2108:A3 0.000416575
*RES
1 *2107:ZN *2108:A3 12.0909 
*END

*D_NET *133 0.00218352
*CONN
*I *2111:A2 I *D gf180mcu_fd_sc_mcu7t5v0__nor3_1
*I *2109:ZN O *D gf180mcu_fd_sc_mcu7t5v0__aoi22_1
*CAP
1 *2111:A2 0.000514649
2 *2109:ZN 0.000514649
3 *2111:A2 *2109:A1 9.79803e-05
4 *2111:A2 *2110:A2 0.000176242
5 *2111:A2 *2111:A3 3.98454e-05
6 *2111:A2 *2236:A2 3.02862e-05
7 *2111:A2 *291:47 0.000768844
8 *2111:A2 *338:6 4.10243e-05
9 *2291:D *2111:A2 0
*RES
1 *2109:ZN *2111:A2 21.2695 
*END

*D_NET *134 0.00172263
*CONN
*I *2111:A3 I *D gf180mcu_fd_sc_mcu7t5v0__nor3_1
*I *2110:ZN O *D gf180mcu_fd_sc_mcu7t5v0__nor2_1
*CAP
1 *2111:A3 0.00032357
2 *2110:ZN 0.00032357
3 *2111:A3 *256:8 4.59089e-05
4 *2111:A3 *291:47 0
5 *2111:A3 *294:12 0.000973895
6 *2111:A2 *2111:A3 3.98454e-05
7 *2291:D *2111:A3 1.58411e-05
*RES
1 *2110:ZN *2111:A3 20.0487 
*END

*D_NET *135 0.000924182
*CONN
*I *2114:A2 I *D gf180mcu_fd_sc_mcu7t5v0__nor3_1
*I *2112:ZN O *D gf180mcu_fd_sc_mcu7t5v0__aoi22_1
*CAP
1 *2114:A2 0.000191865
2 *2112:ZN 0.000191865
3 *2114:A2 *2112:A1 1.21574e-05
4 *2114:A2 *2112:A2 0.000198421
5 *2114:A2 *2112:B1 0.000144516
6 *2114:A2 *313:22 6.40885e-05
7 *2290:D *2114:A2 0.000121269
*RES
1 *2112:ZN *2114:A2 10.6364 
*END

*D_NET *136 0.00132859
*CONN
*I *2114:A3 I *D gf180mcu_fd_sc_mcu7t5v0__nor3_1
*I *2113:ZN O *D gf180mcu_fd_sc_mcu7t5v0__nor2_1
*CAP
1 *2114:A3 0.000273865
2 *2113:ZN 0.000273865
3 *2114:A3 *2113:A1 0.000472678
4 *2114:A3 *2113:A2 1.21145e-05
5 *2114:A3 *291:69 9.92145e-05
6 *2290:D *2114:A3 0.000196851
*RES
1 *2113:ZN *2114:A3 19.5308 
*END

*D_NET *137 0.00262568
*CONN
*I *2117:A2 I *D gf180mcu_fd_sc_mcu7t5v0__nor3_1
*I *2115:ZN O *D gf180mcu_fd_sc_mcu7t5v0__aoi22_1
*CAP
1 *2117:A2 0.000520536
2 *2115:ZN 0.000520536
3 *2117:A2 *2115:A1 0.000110245
4 *2117:A2 *2115:A2 9.44174e-05
5 *2117:A2 *2115:B1 4.86295e-05
6 *2117:A2 *2117:A1 3.64721e-05
7 *2117:A2 *2117:A3 9.70896e-05
8 *2117:A2 *2244:A1 0.000218284
9 *2117:A2 *2289:CLK 0
10 *2117:A2 *301:18 0.00026809
11 *2117:A2 *320:20 0.000349166
12 *2117:A2 *366:21 0.000181109
13 *2289:D *2117:A2 0.000181109
*RES
1 *2115:ZN *2117:A2 21.7987 
*END

*D_NET *138 0.00153463
*CONN
*I *2117:A3 I *D gf180mcu_fd_sc_mcu7t5v0__nor3_1
*I *2116:ZN O *D gf180mcu_fd_sc_mcu7t5v0__nor2_1
*CAP
1 *2117:A3 0.000184387
2 *2116:ZN 0.000184387
3 *2117:A3 *2289:CLK 1.82517e-05
4 *2117:A3 *285:16 0.000658208
5 *2117:A3 *301:18 0.000123794
6 *2117:A2 *2117:A3 9.70896e-05
7 *2289:D *2117:A3 0.000268509
*RES
1 *2116:ZN *2117:A3 19.5308 
*END

*D_NET *139 0.0024884
*CONN
*I *2120:A2 I *D gf180mcu_fd_sc_mcu7t5v0__nor3_1
*I *2118:ZN O *D gf180mcu_fd_sc_mcu7t5v0__aoi22_1
*CAP
1 *2120:A2 0.000613986
2 *2118:ZN 0.000613986
3 *2120:A2 *2118:A1 0.000288595
4 *2120:A2 *2118:B1 2.43148e-05
5 *2120:A2 *2119:A2 0.000203992
6 *2120:A2 *2120:A3 3.98454e-05
7 *2120:A2 *300:22 0.000457594
8 *2120:A2 *301:18 3.13867e-05
9 *2120:A2 *365:26 8.92662e-05
10 *2288:D *2120:A2 0.000125439
*RES
1 *2118:ZN *2120:A2 13.3442 
*END

*D_NET *140 0.00249069
*CONN
*I *2120:A3 I *D gf180mcu_fd_sc_mcu7t5v0__nor3_1
*I *2119:ZN O *D gf180mcu_fd_sc_mcu7t5v0__nor2_1
*CAP
1 *2120:A3 0.000376746
2 *2119:ZN 0.000376746
3 *2120:A3 *2119:A2 0.000512542
4 *2120:A3 *2120:A1 0.000871354
5 *2120:A3 *2165:A2 0.00010682
6 *2120:A3 *300:22 4.84579e-05
7 *2120:A3 *301:18 8.19472e-05
8 *2120:A3 *326:14 3.03276e-05
9 *2120:A3 *331:23 4.59089e-05
10 *2120:A2 *2120:A3 3.98454e-05
*RES
1 *2119:ZN *2120:A3 20.5942 
*END

*D_NET *141 0.000575186
*CONN
*I *2123:A2 I *D gf180mcu_fd_sc_mcu7t5v0__nor3_1
*I *2121:ZN O *D gf180mcu_fd_sc_mcu7t5v0__aoi22_1
*CAP
1 *2123:A2 0.000160912
2 *2121:ZN 0.000160912
3 *2123:A2 *2121:A1 0
4 *2123:A2 *330:31 0.000213086
5 *2123:A2 *330:37 2.42537e-05
6 *2287:D *2123:A2 1.60221e-05
*RES
1 *2121:ZN *2123:A2 10.0714 
*END

*D_NET *142 0.00121314
*CONN
*I *2123:A3 I *D gf180mcu_fd_sc_mcu7t5v0__nor3_1
*I *2122:ZN O *D gf180mcu_fd_sc_mcu7t5v0__nor2_1
*CAP
1 *2123:A3 0.00049532
2 *2122:ZN 0.00049532
3 *2123:A3 *2121:B1 0
4 *2123:A3 *2121:B2 7.87441e-05
5 *2123:A3 *2165:A2 9.44174e-05
6 *2123:A3 *295:31 0
7 *2123:A3 *330:37 2.63221e-05
8 *2123:A3 *369:174 2.30122e-05
*RES
1 *2122:ZN *2123:A3 20.0487 
*END

*D_NET *143 0.00283117
*CONN
*I *2126:A2 I *D gf180mcu_fd_sc_mcu7t5v0__nor3_1
*I *2124:ZN O *D gf180mcu_fd_sc_mcu7t5v0__aoi22_1
*CAP
1 *2126:A2 0.000632468
2 *2124:ZN 0.000632468
3 *2126:A2 *2040:A2 2.60515e-06
4 *2126:A2 *2124:A2 0.000147374
5 *2126:A2 *171:10 0.00128144
6 *2126:A2 *311:30 0
7 *2126:A2 *363:12 2.38806e-05
8 *2286:D *2126:A2 0.000110931
*RES
1 *2124:ZN *2126:A2 22.4513 
*END

*D_NET *144 0.00112975
*CONN
*I *2126:A3 I *D gf180mcu_fd_sc_mcu7t5v0__nor3_1
*I *2125:ZN O *D gf180mcu_fd_sc_mcu7t5v0__nor2_1
*CAP
1 *2126:A3 0.00018215
2 *2125:ZN 0.00018215
3 *2126:A3 *2125:A2 0.000145237
4 *2126:A3 *282:16 2.43148e-05
5 *2286:D *2126:A3 0.000595896
*RES
1 *2125:ZN *2126:A3 10.6315 
*END

*D_NET *145 0.00090029
*CONN
*I *2129:A2 I *D gf180mcu_fd_sc_mcu7t5v0__nor3_1
*I *2127:ZN O *D gf180mcu_fd_sc_mcu7t5v0__aoi22_1
*CAP
1 *2129:A2 0.000274403
2 *2127:ZN 0.000274403
3 *2129:A2 *2127:A1 5.67341e-05
4 *2129:A2 *2127:B1 4.85075e-05
5 *2129:A2 *2129:A1 1.73354e-05
6 *2129:A2 *2129:A3 3.98454e-05
7 *2129:A2 *2175:A2 0
8 *2129:A2 *330:54 0
9 *2285:D *2129:A2 0.000189061
*RES
1 *2127:ZN *2129:A2 11.2727 
*END

*D_NET *146 0.00248781
*CONN
*I *2129:A3 I *D gf180mcu_fd_sc_mcu7t5v0__nor3_1
*I *2128:ZN O *D gf180mcu_fd_sc_mcu7t5v0__nor2_1
*CAP
1 *2129:A3 0.000750493
2 *2128:ZN 0.000750493
3 *2129:A3 *2044:A1 0
4 *2129:A3 *2127:A1 0.000115251
5 *2129:A3 *2128:A2 3.20443e-05
6 *2129:A3 *2175:A2 7.1199e-06
7 *2129:A3 *281:19 0
8 *2129:A3 *330:54 0.000648361
9 *2129:A3 *369:174 0.000144199
10 *2129:A2 *2129:A3 3.98454e-05
*RES
1 *2128:ZN *2129:A3 21.7857 
*END

*D_NET *147 0.00239642
*CONN
*I *2132:A2 I *D gf180mcu_fd_sc_mcu7t5v0__nor3_1
*I *2130:ZN O *D gf180mcu_fd_sc_mcu7t5v0__aoi22_1
*CAP
1 *2132:A2 0.000747031
2 *2130:ZN 0.000747031
3 *2132:A2 *2130:A1 2.43148e-05
4 *2132:A2 *2130:B1 0.000200313
5 *2132:A2 *2130:B2 6.40599e-05
6 *2132:A2 *2131:A2 9.96709e-05
7 *2132:A2 *2132:A1 4.98809e-05
8 *2132:A2 *2132:A3 3.98454e-05
9 *2132:A2 *246:12 0.000199524
10 *2132:A2 *280:16 4.85075e-05
11 *2132:A2 *303:16 0
12 *2284:D *2132:A2 0.000176243
*RES
1 *2130:ZN *2132:A2 13.3636 
*END

*D_NET *148 0.00179807
*CONN
*I *2132:A3 I *D gf180mcu_fd_sc_mcu7t5v0__nor3_1
*I *2131:ZN O *D gf180mcu_fd_sc_mcu7t5v0__nor2_1
*CAP
1 *2132:A3 0.000266614
2 *2131:ZN 0.000266614
3 *2132:A3 *2132:A1 0.000217043
4 *2132:A3 *293:16 0.000973858
5 *2132:A3 *303:16 1.58411e-05
6 *2132:A3 *309:18 1.82517e-05
7 *2132:A2 *2132:A3 3.98454e-05
*RES
1 *2131:ZN *2132:A3 20.0487 
*END

*D_NET *149 0.00499677
*CONN
*I *2135:A2 I *D gf180mcu_fd_sc_mcu7t5v0__nor3_1
*I *2142:A2 I *D gf180mcu_fd_sc_mcu7t5v0__and2_1
*I *2133:Z O *D gf180mcu_fd_sc_mcu7t5v0__and3_1
*CAP
1 *2135:A2 0.000178475
2 *2142:A2 0.000729618
3 *2133:Z 0.000458362
4 *149:8 0.00136646
5 *2142:A2 *2134:B 0.000118524
6 *2142:A2 *2135:A3 0.000168012
7 *2142:A2 *2136:A2 0.000184827
8 *2142:A2 *2150:A2 0.00010682
9 *2142:A2 *2155:A2 0
10 *2142:A2 *2175:A2 1.92848e-05
11 *2142:A2 *319:14 0.000768836
12 *2142:A2 *369:560 0.000138954
13 *149:8 *2133:A3 0.000412314
14 *149:8 *2134:B 9.69717e-05
15 *149:8 *369:560 0.000249315
*RES
1 *2133:Z *149:8 7.13636 
2 *149:8 *2142:A2 17.6818 
3 *149:8 *2135:A2 5.77273 
*END

*D_NET *150 0.00117455
*CONN
*I *2135:A3 I *D gf180mcu_fd_sc_mcu7t5v0__nor3_1
*I *2134:ZN O *D gf180mcu_fd_sc_mcu7t5v0__aoi21_1
*CAP
1 *2135:A3 0.000241442
2 *2134:ZN 0.000241442
3 *2135:A3 *2134:B 0.000284878
4 *2135:A3 *2136:A2 5.97681e-05
5 *2135:A3 *369:575 0.000179006
6 *2142:A2 *2135:A3 0.000168012
*RES
1 *2134:ZN *2135:A3 19.5877 
*END

*D_NET *151 0.0058523
*CONN
*I *2149:A1 I *D gf180mcu_fd_sc_mcu7t5v0__aoi211_1
*I *2140:A3 I *D gf180mcu_fd_sc_mcu7t5v0__xor3_1
*I *2137:ZN O *D gf180mcu_fd_sc_mcu7t5v0__nand2_1
*CAP
1 *2149:A1 0
2 *2140:A3 0.000269386
3 *2137:ZN 0.00022533
4 *151:12 0.000494716
5 *2140:A3 *2140:A1 0.000648449
6 *2140:A3 *2141:A2 0.000666329
7 *2140:A3 *2149:A2 9.61328e-05
8 *2140:A3 *2149:B 0.00148573
9 *2140:A3 *309:18 0.000666327
10 *151:12 *2149:B 0.000110451
11 *151:12 *2281:CLK 0
12 *151:12 *321:24 0.000666327
13 *2281:D *2140:A3 0.000498807
14 *2281:D *151:12 0
15 *2336:I *2140:A3 9.55222e-06
16 *2336:I *151:12 1.47625e-05
*RES
1 *2137:ZN *151:12 14.8831 
2 *151:12 *2140:A3 17.3896 
3 *151:12 *2149:A1 4.5 
*END

*D_NET *152 0.00479554
*CONN
*I *2149:A2 I *D gf180mcu_fd_sc_mcu7t5v0__aoi211_1
*I *2138:ZN O *D gf180mcu_fd_sc_mcu7t5v0__nand2_1
*CAP
1 *2149:A2 0.000629935
2 *2138:ZN 0.000629935
3 *2149:A2 *2138:A1 8.6353e-05
4 *2149:A2 *2140:A1 0.000182056
5 *2149:A2 *2140:A2 0.00028837
6 *2149:A2 *303:16 0.000421925
7 *2149:A2 *369:67 0.000297512
8 *2140:A3 *2149:A2 9.61328e-05
9 *2281:D *2149:A2 0.000242537
10 *2336:I *2149:A2 0.00192078
*RES
1 *2138:ZN *2149:A2 15.0909 
*END

*D_NET *153 0.00399219
*CONN
*I *2149:B I *D gf180mcu_fd_sc_mcu7t5v0__aoi211_1
*I *2139:ZN O *D gf180mcu_fd_sc_mcu7t5v0__nor2_1
*CAP
1 *2149:B 0.000503173
2 *2139:ZN 0.000503173
3 *2149:B *2140:A1 2.42537e-05
4 *2149:B *2140:A2 0.000144171
5 *2149:B *255:23 0.00114717
6 *2149:B *332:8 2.81232e-05
7 *2149:B *332:16 2.8611e-05
8 *2140:A3 *2149:B 0.00148573
9 *2347:I *2149:B 1.73354e-05
10 *151:12 *2149:B 0.000110451
*RES
1 *2139:ZN *2149:B 13.2727 
*END

*D_NET *154 0.00814996
*CONN
*I *2141:A2 I *D gf180mcu_fd_sc_mcu7t5v0__nor2_1
*I *2140:Z O *D gf180mcu_fd_sc_mcu7t5v0__xor3_1
*CAP
1 *2141:A2 0.00113471
2 *2140:Z 0.00113471
3 *2141:A2 *296:12 0.00271492
4 *2141:A2 *297:16 0
5 *2141:A2 *305:24 0
6 *2141:A2 *309:18 0.00131271
7 *2141:A2 *313:22 0.000748211
8 *2141:A2 *325:14 0.000252492
9 *2140:A3 *2141:A2 0.000666329
10 *2248:D *2141:A2 0.000185886
11 *2358:I *2141:A2 0
*RES
1 *2140:Z *2141:A2 28 
*END

*D_NET *155 0.00219264
*CONN
*I *2145:A2 I *D gf180mcu_fd_sc_mcu7t5v0__nor3_1
*I *2143:ZN O *D gf180mcu_fd_sc_mcu7t5v0__aoi22_1
*CAP
1 *2145:A2 0.0004057
2 *2143:ZN 0.0004057
3 *2145:A2 *2052:A1 0
4 *2145:A2 *2052:A2 2.8611e-05
5 *2145:A2 *2145:A1 0.000307107
6 *2145:A2 *2145:A3 0
7 *2145:A2 *249:12 2.17096e-05
8 *2145:A2 *293:16 0.000805526
9 *2145:A2 *334:173 0
10 *2283:D *2145:A2 0.000218284
*RES
1 *2143:ZN *2145:A2 21.6169 
*END

*D_NET *156 0.00206152
*CONN
*I *2145:A3 I *D gf180mcu_fd_sc_mcu7t5v0__nor3_1
*I *2144:ZN O *D gf180mcu_fd_sc_mcu7t5v0__nor2_1
*CAP
1 *2145:A3 0.000637963
2 *2144:ZN 0.000637963
3 *2145:A3 *2144:A1 5.78902e-05
4 *2145:A3 *2144:A2 3.20443e-05
5 *2145:A2 *2145:A3 0
6 *2283:D *2145:A3 0.000695658
*RES
1 *2144:ZN *2145:A3 12.3588 
*END

*D_NET *157 0.00218164
*CONN
*I *2148:A2 I *D gf180mcu_fd_sc_mcu7t5v0__nor3_1
*I *2146:ZN O *D gf180mcu_fd_sc_mcu7t5v0__aoi22_1
*CAP
1 *2148:A2 0.000316424
2 *2146:ZN 0.000316424
3 *2148:A2 *2056:A2 0.000488118
4 *2148:A2 *2146:A1 5.45152e-05
5 *2148:A2 *2146:A2 0.00023734
6 *2148:A2 *2148:A3 0.000768815
*RES
1 *2146:ZN *2148:A2 20.4351 
*END

*D_NET *158 0.00288311
*CONN
*I *2148:A3 I *D gf180mcu_fd_sc_mcu7t5v0__nor3_1
*I *2147:ZN O *D gf180mcu_fd_sc_mcu7t5v0__nor2_1
*CAP
1 *2148:A3 0.000828122
2 *2147:ZN 0.000828122
3 *2148:A3 *2056:A1 1.08548e-05
4 *2148:A3 *2147:A2 0.000266791
5 *2148:A3 *301:18 0
6 *2148:A3 *305:24 0.000144586
7 *2148:A3 *334:269 1.58411e-05
8 *2148:A2 *2148:A3 0.000768815
9 *2282:D *2148:A3 1.99728e-05
*RES
1 *2147:ZN *2148:A3 22.2305 
*END

*D_NET *159 0.00573022
*CONN
*I *2060:A1 I *D gf180mcu_fd_sc_mcu7t5v0__aoi211_1
*I *2153:A3 I *D gf180mcu_fd_sc_mcu7t5v0__xor3_1
*I *2150:ZN O *D gf180mcu_fd_sc_mcu7t5v0__nand2_1
*CAP
1 *2060:A1 0
2 *2153:A3 0.00029534
3 *2150:ZN 0.0015706
4 *159:12 0.00186594
5 *2153:A3 *2060:B 8.83529e-05
6 *2153:A3 *2060:C 0.000543221
7 *2153:A3 *2311:CLK 0.000298835
8 *2153:A3 *295:80 0
9 *159:12 *2151:A1 5.45152e-05
10 *159:12 *311:12 0.000102973
11 *2279:D *159:12 0.000115088
12 *2311:D *2153:A3 0.000606511
13 *2311:D *159:12 0.000188835
*RES
1 *2150:ZN *159:12 22.6623 
2 *159:12 *2153:A3 7.7013 
3 *159:12 *2060:A1 4.5 
*END

*D_NET *160 0.000336002
*CONN
*I *2060:A2 I *D gf180mcu_fd_sc_mcu7t5v0__aoi211_1
*I *2151:ZN O *D gf180mcu_fd_sc_mcu7t5v0__nand2_1
*CAP
1 *2060:A2 0.00011522
2 *2151:ZN 0.00011522
3 *2060:A2 *2151:A1 9.72772e-06
4 *2060:A2 *2151:A2 2.30729e-05
5 *2311:D *2060:A2 7.27612e-05
*RES
1 *2151:ZN *2060:A2 10.0909 
*END

*D_NET *161 0.00261738
*CONN
*I *2060:B I *D gf180mcu_fd_sc_mcu7t5v0__aoi211_1
*I *2152:ZN O *D gf180mcu_fd_sc_mcu7t5v0__nor2_1
*CAP
1 *2060:B 0.000607189
2 *2152:ZN 0.000607189
3 *2060:B *2060:C 0.000181708
4 *2060:B *2151:A1 0.000263096
5 *2060:B *2153:A2 9.44174e-05
6 *2060:B *278:10 0.000526025
7 *2060:B *360:6 0.000249403
8 *2153:A3 *2060:B 8.83529e-05
*RES
1 *2152:ZN *2060:B 21.5032 
*END

*D_NET *162 0.000397524
*CONN
*I *2154:A2 I *D gf180mcu_fd_sc_mcu7t5v0__nor2_1
*I *2153:Z O *D gf180mcu_fd_sc_mcu7t5v0__xor3_1
*CAP
1 *2154:A2 0.000198762
2 *2153:Z 0.000198762
3 *2154:A2 *2060:C 0
4 *2278:D *2154:A2 0
*RES
1 *2153:Z *2154:A2 10.4545 
*END

*D_NET *163 0.00416234
*CONN
*I *2061:A1 I *D gf180mcu_fd_sc_mcu7t5v0__aoi211_1
*I *2158:A3 I *D gf180mcu_fd_sc_mcu7t5v0__xor3_1
*I *2155:ZN O *D gf180mcu_fd_sc_mcu7t5v0__nand2_1
*CAP
1 *2061:A1 0
2 *2158:A3 0.000325202
3 *2155:ZN 6.95167e-05
4 *163:10 0.000394719
5 *2158:A3 *2061:B 9.7015e-05
6 *2158:A3 *2156:A1 8.66771e-06
7 *2158:A3 *2156:A2 0.00118636
8 *2158:A3 *2157:A2 8.66771e-06
9 *2158:A3 *2158:A1 5.20062e-05
10 *163:10 *2150:A1 0.000410046
11 *163:10 *2279:CLK 0.000666319
12 *163:10 *369:575 0.000256273
13 *2310:D *2158:A3 0.000687553
*RES
1 *2155:ZN *163:10 14.6818 
2 *163:10 *2158:A3 7.2987 
3 *163:10 *2061:A1 4.5 
*END

*D_NET *164 0.00125859
*CONN
*I *2061:A2 I *D gf180mcu_fd_sc_mcu7t5v0__aoi211_1
*I *2156:ZN O *D gf180mcu_fd_sc_mcu7t5v0__nand2_1
*CAP
1 *2061:A2 0.000263175
2 *2156:ZN 0.000263175
3 *2061:A2 *2150:A2 0
4 *2061:A2 *2155:A1 0.000448837
5 *2061:A2 *2156:A1 0.000137876
6 *2061:A2 *2156:A2 4.85075e-05
7 *2310:D *2061:A2 9.7015e-05
*RES
1 *2156:ZN *2061:A2 11.1818 
*END

*D_NET *165 0.0036236
*CONN
*I *2061:B I *D gf180mcu_fd_sc_mcu7t5v0__aoi211_1
*I *2157:ZN O *D gf180mcu_fd_sc_mcu7t5v0__nor2_1
*CAP
1 *2061:B 0.000274156
2 *2157:ZN 0.000274156
3 *2061:B *2061:C 1.55917e-05
4 *2061:B *2156:A2 0.00097971
5 *2061:B *2157:A1 0.00129155
6 *2061:B *2157:A2 0.000448926
7 *2061:B *332:60 0.000242494
8 *2158:A3 *2061:B 9.7015e-05
*RES
1 *2157:ZN *2061:B 12.3214 
*END

*D_NET *166 0.000736383
*CONN
*I *2159:A2 I *D gf180mcu_fd_sc_mcu7t5v0__nor2_1
*I *2158:Z O *D gf180mcu_fd_sc_mcu7t5v0__xor3_1
*CAP
1 *2159:A2 0.000240014
2 *2158:Z 0.000240014
3 *2159:A2 *2160:A2 0
4 *2159:A2 *332:60 0.000240332
5 *2277:D *2159:A2 1.60221e-05
*RES
1 *2158:Z *2159:A2 10.5455 
*END

*D_NET *167 0.00508271
*CONN
*I *2062:A1 I *D gf180mcu_fd_sc_mcu7t5v0__aoi211_1
*I *2163:A3 I *D gf180mcu_fd_sc_mcu7t5v0__xor3_1
*I *2160:ZN O *D gf180mcu_fd_sc_mcu7t5v0__nand2_1
*CAP
1 *2062:A1 0
2 *2163:A3 0.000977657
3 *2160:ZN 0.000579113
4 *167:12 0.00155677
5 *2163:A3 *2062:A2 4.33103e-05
6 *2163:A3 *2062:C 0.000678883
7 *2163:A3 *2162:A2 0.000149553
8 *2163:A3 *2163:A1 0.000308984
9 *2163:A3 *2163:A2 0.000327841
10 *2163:A3 *2164:A1 0.000205014
11 *2163:A3 *2276:CLK 0.000144636
12 *167:12 *2062:A2 2.9451e-05
13 *167:12 *2062:C 1.60221e-05
14 *167:12 *2160:A1 5.12534e-05
15 *167:12 *2161:A1 1.21574e-05
16 *167:12 *357:17 2.06623e-06
*RES
1 *2160:ZN *167:12 16.1558 
2 *167:12 *2163:A3 19.2987 
3 *167:12 *2062:A1 4.5 
*END

*D_NET *168 0.00145768
*CONN
*I *2062:A2 I *D gf180mcu_fd_sc_mcu7t5v0__aoi211_1
*I *2161:ZN O *D gf180mcu_fd_sc_mcu7t5v0__nand2_1
*CAP
1 *2062:A2 0.000469037
2 *2161:ZN 0.000469037
3 *2062:A2 *2062:B 1.92848e-05
4 *2062:A2 *2062:C 3.64721e-05
5 *2062:A2 *2161:A1 0.000371809
6 *2062:A2 *2161:A2 1.92848e-05
7 *2062:A2 *311:30 0
8 *2163:A3 *2062:A2 4.33103e-05
9 *167:12 *2062:A2 2.9451e-05
*RES
1 *2161:ZN *2062:A2 11.6364 
*END

*D_NET *169 0.00140388
*CONN
*I *2062:B I *D gf180mcu_fd_sc_mcu7t5v0__aoi211_1
*I *2162:ZN O *D gf180mcu_fd_sc_mcu7t5v0__nor2_1
*CAP
1 *2062:B 0.000358747
2 *2162:ZN 0.000358747
3 *2062:B *2161:A1 9.97618e-05
4 *2062:B *2163:A1 8.95028e-05
5 *2062:B *275:12 0.000447514
6 *2062:B *332:77 3.03276e-05
7 *2062:A2 *2062:B 1.92848e-05
*RES
1 *2162:ZN *2062:B 19.8993 
*END

*D_NET *170 0.000910861
*CONN
*I *2164:A2 I *D gf180mcu_fd_sc_mcu7t5v0__nor2_1
*I *2163:Z O *D gf180mcu_fd_sc_mcu7t5v0__xor3_1
*CAP
1 *2164:A2 0.000124864
2 *2163:Z 0.000124864
3 *2164:A2 *2164:A1 1.60221e-05
4 *2164:A2 *2276:CLK 0.000548687
5 *2276:D *2164:A2 9.64239e-05
*RES
1 *2163:Z *2164:A2 10.3636 
*END

*D_NET *171 0.0107771
*CONN
*I *2168:A3 I *D gf180mcu_fd_sc_mcu7t5v0__xor3_1
*I *2063:A1 I *D gf180mcu_fd_sc_mcu7t5v0__aoi211_1
*I *2165:ZN O *D gf180mcu_fd_sc_mcu7t5v0__nand2_1
*CAP
1 *2168:A3 8.52315e-05
2 *2063:A1 0.000212319
3 *2165:ZN 0.00183557
4 *171:10 0.00213312
5 *2063:A1 *2168:A1 2.42537e-05
6 *2063:A1 *2169:A1 8.9073e-05
7 *2063:A1 *2169:A2 0.00058788
8 *2168:A3 *2063:C 1.33525e-05
9 *2168:A3 *2168:A2 0.000871372
10 *2168:A3 *2169:A2 0.000871372
11 *171:10 *2063:C 2.54669e-05
12 *171:10 *2124:A1 0.000775691
13 *171:10 *2124:A2 0.000280402
14 *171:10 *2124:B1 0.000563802
15 *171:10 *322:22 9.34672e-05
16 *171:10 *330:67 0
17 *171:10 *330:97 0.000296805
18 *171:10 *369:189 2.1041e-05
19 *171:10 *369:200 0.000715395
20 *2126:A2 *171:10 0.00128144
*RES
1 *2165:ZN *171:10 22.2727 
2 *171:10 *2063:A1 10.2532 
3 *171:10 *2168:A3 10.7273 
*END

*D_NET *172 0.00382402
*CONN
*I *2063:A2 I *D gf180mcu_fd_sc_mcu7t5v0__aoi211_1
*I *2166:ZN O *D gf180mcu_fd_sc_mcu7t5v0__nand2_1
*CAP
1 *2063:A2 0.000434134
2 *2166:ZN 0.000434134
3 *2063:A2 *2063:B 0.000871362
4 *2063:A2 *2063:C 0.00019201
5 *2063:A2 *2168:A1 0.00107639
6 *2063:A2 *2169:A1 0.000149643
7 *2063:A2 *274:12 0.000512588
8 *2063:A2 *330:97 0.00015376
*RES
1 *2166:ZN *2063:A2 22 
*END

*D_NET *173 0.00154177
*CONN
*I *2063:B I *D gf180mcu_fd_sc_mcu7t5v0__aoi211_1
*I *2167:ZN O *D gf180mcu_fd_sc_mcu7t5v0__nor2_1
*CAP
1 *2063:B 0.000265184
2 *2167:ZN 0.000265184
3 *2063:B *2169:A2 4.02759e-05
4 *2063:A2 *2063:B 0.000871362
5 *2308:D *2063:B 9.97618e-05
*RES
1 *2167:ZN *2063:B 19.8993 
*END

*D_NET *174 0.00723759
*CONN
*I *2169:A2 I *D gf180mcu_fd_sc_mcu7t5v0__nor2_1
*I *2168:Z O *D gf180mcu_fd_sc_mcu7t5v0__xor3_1
*CAP
1 *2169:A2 0.00111297
2 *2168:Z 0.00111297
3 *2169:A2 *2063:C 0.000101379
4 *2169:A2 *2168:A1 0.000789032
5 *2169:A2 *2168:A2 5.96686e-05
6 *2169:A2 *2169:A1 0.00202535
7 *2169:A2 *274:12 9.34672e-05
8 *2169:A2 *356:19 0.000298343
9 *2063:A1 *2169:A2 0.00058788
10 *2063:B *2169:A2 4.02759e-05
11 *2168:A3 *2169:A2 0.000871372
12 *2308:D *2169:A2 0.000144894
*RES
1 *2168:Z *2169:A2 28.3636 
*END

*D_NET *175 0.00940013
*CONN
*I *2173:A3 I *D gf180mcu_fd_sc_mcu7t5v0__xor3_1
*I *2064:A1 I *D gf180mcu_fd_sc_mcu7t5v0__aoi211_1
*I *2170:ZN O *D gf180mcu_fd_sc_mcu7t5v0__nand2_1
*CAP
1 *2173:A3 0.000524476
2 *2064:A1 0.000840713
3 *2170:ZN 0.00162736
4 *175:16 0.00299255
5 *2064:A1 *2064:A2 0.000159285
6 *2064:A1 *2064:B 9.64239e-05
7 *2064:A1 *2172:A2 0
8 *2064:A1 *2173:A2 0
9 *2064:A1 *2307:CLK 1.72186e-05
10 *2064:A1 *273:23 0
11 *2173:A3 *2192:A2 0
12 *2173:A3 *328:79 0
13 *2173:A3 *355:10 0.000146877
14 *2173:A3 *355:14 9.34672e-05
15 *175:16 *2170:A1 0.000130047
16 *175:16 *2170:A2 3.20443e-05
17 *175:16 *2190:A1 9.7015e-05
18 *175:16 *2190:A3 1.73354e-05
19 *175:16 *2191:A1 0
20 *175:16 *2191:A3 9.29171e-05
21 *175:16 *328:64 0.000768847
22 *175:16 *328:79 0.0012302
23 *2270:D *175:16 0.000202473
24 *2307:D *2064:A1 0.00033088
*RES
1 *2170:ZN *175:16 23.8636 
2 *175:16 *2064:A1 9.13636 
3 *175:16 *2173:A3 16.3182 
*END

*D_NET *176 0.00159703
*CONN
*I *2064:A2 I *D gf180mcu_fd_sc_mcu7t5v0__aoi211_1
*I *2171:ZN O *D gf180mcu_fd_sc_mcu7t5v0__nand2_1
*CAP
1 *2064:A2 0.000672139
2 *2171:ZN 0.000672139
3 *2064:A2 *273:10 9.34672e-05
4 *2064:A2 *292:78 0
5 *2064:A1 *2064:A2 0.000159285
*RES
1 *2171:ZN *2064:A2 20.5455 
*END

*D_NET *177 0.00181313
*CONN
*I *2064:B I *D gf180mcu_fd_sc_mcu7t5v0__aoi211_1
*I *2172:ZN O *D gf180mcu_fd_sc_mcu7t5v0__nor2_1
*CAP
1 *2064:B 0.000274874
2 *2172:ZN 0.000274874
3 *2064:B *2064:C 0.00069833
4 *2064:B *2172:A2 4.80664e-05
5 *2064:B *273:23 0.000178024
6 *2064:A1 *2064:B 9.64239e-05
7 *2307:D *2064:B 0.000242537
*RES
1 *2172:ZN *2064:B 11.4545 
*END

*D_NET *178 0.00158609
*CONN
*I *2174:A2 I *D gf180mcu_fd_sc_mcu7t5v0__nor2_1
*I *2173:Z O *D gf180mcu_fd_sc_mcu7t5v0__xor3_1
*CAP
1 *2174:A2 0.000764896
2 *2173:Z 0.000764896
3 *2174:A2 *2174:A1 3.20443e-05
4 *2174:A2 *2274:CLK 2.42537e-05
5 *2174:A2 *328:83 0
*RES
1 *2173:Z *2174:A2 12.9091 
*END

*D_NET *179 0.00931487
*CONN
*I *2178:A3 I *D gf180mcu_fd_sc_mcu7t5v0__xor3_1
*I *2065:A1 I *D gf180mcu_fd_sc_mcu7t5v0__aoi211_1
*I *2175:ZN O *D gf180mcu_fd_sc_mcu7t5v0__nand2_1
*CAP
1 *2178:A3 0.000873159
2 *2065:A1 2.83467e-05
3 *2175:ZN 0.00139972
4 *179:12 0.00230123
5 *2065:A1 *2065:A2 2.8611e-05
6 *2065:A1 *2065:C 2.17096e-05
7 *2178:A3 *2065:B 0.000387846
8 *2178:A3 *2177:A1 0.000221992
9 *2178:A3 *2177:A2 0
10 *2178:A3 *2179:A1 0
11 *2178:A3 *2179:A2 9.64239e-05
12 *2178:A3 *272:16 0.000208288
13 *2178:A3 *355:10 0.000173582
14 *179:12 *2185:A1 4.86295e-05
15 *179:12 *2185:A2 0.000237297
16 *179:12 *2187:A1 4.33385e-06
17 *179:12 *2187:A2 5.32419e-05
18 *179:12 *2187:A3 4.76647e-05
19 *179:12 *292:70 0.00244416
20 *179:12 *310:18 0
21 *179:12 *355:10 0.000280402
22 *2271:D *179:12 0.000436567
23 *2306:D *179:12 2.16693e-05
*RES
1 *2175:ZN *179:12 18.7273 
2 *179:12 *2065:A1 9.16234 
3 *179:12 *2178:A3 14.0909 
*END

*D_NET *180 0.00213768
*CONN
*I *2065:A2 I *D gf180mcu_fd_sc_mcu7t5v0__aoi211_1
*I *2176:ZN O *D gf180mcu_fd_sc_mcu7t5v0__nand2_1
*CAP
1 *2065:A2 0.000519295
2 *2176:ZN 0.000519295
3 *2065:A2 *2065:B 8.66771e-06
4 *2065:A2 *2176:A1 0.000130047
5 *2065:A2 *2176:A2 0.000130797
6 *2065:A2 *2177:A2 0
7 *2065:A2 *292:70 0
8 *2065:A2 *292:76 0
9 *2065:A2 *354:21 4.33385e-06
10 *2065:A1 *2065:A2 2.8611e-05
11 *2306:D *2065:A2 0.00079663
*RES
1 *2176:ZN *2065:A2 12.2727 
*END

*D_NET *181 0.0011913
*CONN
*I *2065:B I *D gf180mcu_fd_sc_mcu7t5v0__aoi211_1
*I *2177:ZN O *D gf180mcu_fd_sc_mcu7t5v0__nor2_1
*CAP
1 *2065:B 0.000183085
2 *2177:ZN 0.000183085
3 *2065:B *2177:A1 9.44174e-05
4 *2065:B *2177:A2 6.06649e-05
5 *2065:B *355:10 0.000273533
6 *2065:A2 *2065:B 8.66771e-06
7 *2178:A3 *2065:B 0.000387846
*RES
1 *2177:ZN *2065:B 19.5357 
*END

*D_NET *182 0.000480387
*CONN
*I *2179:A2 I *D gf180mcu_fd_sc_mcu7t5v0__nor2_1
*I *2178:Z O *D gf180mcu_fd_sc_mcu7t5v0__xor3_1
*CAP
1 *2179:A2 0.000191982
2 *2178:Z 0.000191982
3 *2178:A3 *2179:A2 9.64239e-05
*RES
1 *2178:Z *2179:A2 10.2727 
*END

*D_NET *183 0.00264922
*CONN
*I *2181:B I *D gf180mcu_fd_sc_mcu7t5v0__aoi21_1
*I *2182:A3 I *D gf180mcu_fd_sc_mcu7t5v0__and3_1
*I *2180:Z O *D gf180mcu_fd_sc_mcu7t5v0__xor2_1
*CAP
1 *2181:B 0.00031194
2 *2182:A3 8.57139e-05
3 *2180:Z 0.000288002
4 *183:12 0.000685656
5 *2181:B *2067:A2 1.92848e-05
6 *2181:B *2183:A2 0.00014473
7 *2181:B *2183:A3 0.000620544
8 *2181:B *2272:CLK 0.000137938
9 *2181:B *311:32 0.000114717
10 *2182:A3 *2067:A2 4.80664e-05
11 *2182:A3 *2180:A1 4.33385e-06
12 *2182:A3 *353:20 1.30016e-05
13 *183:12 *2067:A2 3.46708e-05
14 *183:12 *2180:A1 2.43148e-05
15 *183:12 *2183:A3 0.000116312
*RES
1 *2180:Z *183:12 6.22078 
2 *183:12 *2182:A3 5.22727 
3 *183:12 *2181:B 7.86363 
*END

*D_NET *184 0.000967913
*CONN
*I *2183:A2 I *D gf180mcu_fd_sc_mcu7t5v0__nor3_1
*I *2181:ZN O *D gf180mcu_fd_sc_mcu7t5v0__aoi21_1
*CAP
1 *2183:A2 0.000282868
2 *2181:ZN 0.000282868
3 *2183:A2 *2181:A1 8.9073e-05
4 *2183:A2 *2183:A3 1.21574e-05
5 *2183:A2 *2272:CLK 0.000156217
6 *2181:B *2183:A2 0.00014473
*RES
1 *2181:ZN *2183:A2 11.4058 
*END

*D_NET *185 0.00170339
*CONN
*I *2183:A3 I *D gf180mcu_fd_sc_mcu7t5v0__nor3_1
*I *2182:Z O *D gf180mcu_fd_sc_mcu7t5v0__and3_1
*CAP
1 *2183:A3 0.000410321
2 *2182:Z 0.000410321
3 *2181:B *2183:A3 0.000620544
4 *2183:A2 *2183:A3 1.21574e-05
5 *2272:D *2183:A3 0.000133731
6 *183:12 *2183:A3 0.000116312
*RES
1 *2182:Z *2183:A3 12.2727 
*END

*D_NET *186 0.00297461
*CONN
*I *2186:A3 I *D gf180mcu_fd_sc_mcu7t5v0__and3_1
*I *2185:B I *D gf180mcu_fd_sc_mcu7t5v0__aoi21_1
*I *2184:Z O *D gf180mcu_fd_sc_mcu7t5v0__xor2_1
*CAP
1 *2186:A3 0.000351669
2 *2185:B 0
3 *2184:Z 0.000478128
4 *186:14 0.000829797
5 *2186:A3 *2185:A1 0.000141606
6 *2186:A3 *2186:A2 0.000146807
7 *186:14 *2070:A2 8.01148e-05
8 *186:14 *2070:B2 6.67623e-05
9 *186:14 *2185:A1 1.38593e-05
10 *186:14 *331:87 0.000768855
11 *186:14 *331:98 0
12 *2304:D *186:14 9.7015e-05
*RES
1 *2184:Z *186:14 16.6623 
2 *186:14 *2185:B 4.5 
3 *186:14 *2186:A3 6.15584 
*END

*D_NET *187 0.00167456
*CONN
*I *2187:A2 I *D gf180mcu_fd_sc_mcu7t5v0__nor3_1
*I *2185:ZN O *D gf180mcu_fd_sc_mcu7t5v0__aoi21_1
*CAP
1 *2187:A2 0.000495616
2 *2185:ZN 0.000495616
3 *2187:A2 *2175:A2 0
4 *2187:A2 *2187:A3 4.72087e-05
5 *2187:A2 *292:70 0
6 *2187:A2 *331:72 0.000268509
7 *2187:A2 *331:87 0.000298343
8 *2271:D *2187:A2 1.60221e-05
9 *179:12 *2187:A2 5.32419e-05
*RES
1 *2185:ZN *2187:A2 20.6364 
*END

*D_NET *188 0.0036328
*CONN
*I *2187:A3 I *D gf180mcu_fd_sc_mcu7t5v0__nor3_1
*I *2186:Z O *D gf180mcu_fd_sc_mcu7t5v0__and3_1
*CAP
1 *2187:A3 0.000714949
2 *2186:Z 0.000714949
3 *2187:A3 *2070:A2 0.000461281
4 *2187:A3 *292:42 0
5 *2187:A3 *310:18 0.000919346
6 *2187:A3 *310:29 0.000461281
7 *2187:A3 *331:72 3.46708e-05
8 *2187:A3 *369:234 0
9 *2187:A3 *369:251 0.000231451
10 *2187:A2 *2187:A3 4.72087e-05
11 *179:12 *2187:A3 4.76647e-05
*RES
1 *2186:Z *2187:A3 22.4497 
*END

*D_NET *189 0.00580607
*CONN
*I *2189:B I *D gf180mcu_fd_sc_mcu7t5v0__aoi21_1
*I *2190:A3 I *D gf180mcu_fd_sc_mcu7t5v0__and3_1
*I *2188:Z O *D gf180mcu_fd_sc_mcu7t5v0__xor2_1
*CAP
1 *2189:B 0.000174907
2 *2190:A3 0.000488223
3 *2188:Z 0.000537902
4 *189:10 0.00120103
5 *2189:B *2189:A1 9.18177e-05
6 *2189:B *2191:A2 5.66211e-05
7 *2189:B *351:14 3.37344e-05
8 *2190:A3 *2190:A1 3.64721e-05
9 *2190:A3 *2191:A3 0.000249315
10 *2190:A3 *309:22 4.33385e-06
11 *2190:A3 *369:295 0.000119337
12 *2190:A3 *369:297 0.000566851
13 *189:10 *2073:B1 0.000548689
14 *189:10 *2188:A1 0.00059848
15 *189:10 *2303:CLK 0
16 *189:10 *269:12 4.00574e-05
17 *189:10 *369:295 0.000507183
18 *2075:A2 *189:10 9.7259e-05
19 *2303:D *189:10 0.000436524
20 *175:16 *2190:A3 1.73354e-05
*RES
1 *2188:Z *189:10 12.9091 
2 *189:10 *2190:A3 11.7273 
3 *189:10 *2189:B 9.70779 
*END

*D_NET *190 0.0015857
*CONN
*I *2191:A2 I *D gf180mcu_fd_sc_mcu7t5v0__nor3_1
*I *2189:ZN O *D gf180mcu_fd_sc_mcu7t5v0__aoi21_1
*CAP
1 *2191:A2 0.000600084
2 *2189:ZN 0.000600084
3 *2191:A2 *2191:A1 4.85075e-05
4 *2191:A2 *2191:A3 0.000246658
5 *2191:A2 *2303:CLK 3.37421e-05
6 *2191:A2 *351:14 0
7 *2189:B *2191:A2 5.66211e-05
*RES
1 *2189:ZN *2191:A2 12.776 
*END

*D_NET *191 0.00182709
*CONN
*I *2191:A3 I *D gf180mcu_fd_sc_mcu7t5v0__nor3_1
*I *2190:Z O *D gf180mcu_fd_sc_mcu7t5v0__and3_1
*CAP
1 *2191:A3 0.000605942
2 *2190:Z 0.000605942
3 *2191:A3 *2191:A1 2.63221e-05
4 *2190:A3 *2191:A3 0.000249315
5 *2191:A2 *2191:A3 0.000246658
6 *175:16 *2191:A3 9.29171e-05
*RES
1 *2190:Z *2191:A3 12.6039 
*END

*D_NET *192 0.0027134
*CONN
*I *2193:B I *D gf180mcu_fd_sc_mcu7t5v0__aoi21_1
*I *2194:A3 I *D gf180mcu_fd_sc_mcu7t5v0__and3_1
*I *2192:Z O *D gf180mcu_fd_sc_mcu7t5v0__xor2_1
*CAP
1 *2193:B 1.45259e-05
2 *2194:A3 0.000402381
3 *2192:Z 0.00016706
4 *192:8 0.000583967
5 *2193:B *2078:A1 4.33103e-05
6 *2193:B *308:26 3.91921e-05
7 *2194:A3 *2076:A1 1.64644e-05
8 *2194:A3 *2192:A2 5.45152e-05
9 *2194:A3 *2195:A3 0.000410036
10 *2194:A3 *334:25 0.000399779
11 *192:8 *2076:A2 4.72081e-05
12 *192:8 *2078:A1 0.000412314
13 *192:8 *308:26 0.00012265
*RES
1 *2192:Z *192:8 6.04545 
2 *192:8 *2194:A3 15.5909 
3 *192:8 *2193:B 4.66234 
*END

*D_NET *193 0.00184847
*CONN
*I *2195:A2 I *D gf180mcu_fd_sc_mcu7t5v0__nor3_1
*I *2193:ZN O *D gf180mcu_fd_sc_mcu7t5v0__aoi21_1
*CAP
1 *2195:A2 0.000334719
2 *2193:ZN 0.000334719
3 *2195:A2 *2193:A1 7.65136e-05
4 *2195:A2 *2193:A2 4.85075e-05
5 *2195:A2 *2194:A2 0.000648447
6 *2195:A2 *2195:A1 8.66771e-06
7 *2195:A2 *2195:A3 9.61042e-05
8 *2195:A2 *308:26 2.70653e-05
9 *2195:A2 *308:28 2.70653e-05
10 *2195:A2 *334:10 0.000149643
11 *2269:D *2195:A2 9.7015e-05
*RES
1 *2193:ZN *2195:A2 11.9578 
*END

*D_NET *194 0.00230995
*CONN
*I *2195:A3 I *D gf180mcu_fd_sc_mcu7t5v0__nor3_1
*I *2194:Z O *D gf180mcu_fd_sc_mcu7t5v0__and3_1
*CAP
1 *2195:A3 0.000367188
2 *2194:Z 0.000367188
3 *2195:A3 *2076:A1 0.000289998
4 *2195:A3 *2194:A1 0.000149643
5 *2195:A3 *2194:A2 7.27612e-05
6 *2195:A3 *334:25 0.000272594
7 *2195:A3 *334:29 7.27612e-05
8 *2194:A3 *2195:A3 0.000410036
9 *2195:A2 *2195:A3 9.61042e-05
10 *2269:D *2195:A3 0.000211681
*RES
1 *2194:Z *2195:A3 21.2727 
*END

*D_NET *195 0.00446656
*CONN
*I *2197:B I *D gf180mcu_fd_sc_mcu7t5v0__aoi21_1
*I *2198:A3 I *D gf180mcu_fd_sc_mcu7t5v0__and3_1
*I *2196:Z O *D gf180mcu_fd_sc_mcu7t5v0__xor2_1
*CAP
1 *2197:B 0.000352227
2 *2198:A3 9.97193e-05
3 *2196:Z 0.000392259
4 *195:10 0.000844206
5 *2197:B *2197:A2 8.65997e-06
6 *2197:B *2198:A2 2.16615e-05
7 *2197:B *328:152 0
8 *2197:B *334:51 0.000139443
9 *2198:A3 *2199:A3 0.000149171
10 *2198:A3 *289:56 6.66296e-05
11 *2198:A3 *307:48 0.000126246
12 *195:10 *2196:A1 5.52191e-05
13 *195:10 *2196:A2 0.000153774
14 *195:10 *289:56 0.000151431
15 *195:10 *289:71 7.87441e-05
16 *195:10 *305:24 0.000171911
17 *195:10 *307:48 0.000988928
18 *2301:D *195:10 0.000666329
*RES
1 *2196:Z *195:10 13.9497 
2 *195:10 *2198:A3 10 
3 *195:10 *2197:B 10.7987 
*END

*D_NET *196 0.00106904
*CONN
*I *2199:A2 I *D gf180mcu_fd_sc_mcu7t5v0__nor3_1
*I *2197:ZN O *D gf180mcu_fd_sc_mcu7t5v0__aoi21_1
*CAP
1 *2199:A2 0.000321291
2 *2197:ZN 0.000321291
3 *2199:A2 *2199:A3 3.98454e-05
4 *2199:A2 *289:12 1.02155e-05
5 *2199:A2 *304:20 0
6 *2199:A2 *328:161 0.000104425
7 *2199:A2 *334:43 4.85075e-05
8 *2199:A2 *334:51 0.000133525
9 *2199:A2 *334:57 4.00574e-05
10 *2268:D *2199:A2 4.98809e-05
*RES
1 *2197:ZN *2199:A2 20.2727 
*END

*D_NET *197 0.00236838
*CONN
*I *2199:A3 I *D gf180mcu_fd_sc_mcu7t5v0__nor3_1
*I *2198:Z O *D gf180mcu_fd_sc_mcu7t5v0__and3_1
*CAP
1 *2199:A3 0.000546539
2 *2198:Z 0.000546539
3 *2199:A3 *2198:A1 6.07652e-05
4 *2199:A3 *289:12 0.000141525
5 *2199:A3 *289:34 1.21574e-05
6 *2199:A3 *289:38 0
7 *2199:A3 *307:48 0.000358774
8 *2199:A3 *328:152 2.89272e-05
9 *2199:A3 *328:161 1.92848e-05
10 *2199:A3 *334:43 8.66771e-06
11 *2199:A3 *334:51 0.000187673
12 *2199:A3 *334:57 0.000268509
13 *2198:A3 *2199:A3 0.000149171
14 *2199:A2 *2199:A3 3.98454e-05
*RES
1 *2198:Z *2199:A3 21.3312 
*END

*D_NET *198 0.00235999
*CONN
*I *2201:B I *D gf180mcu_fd_sc_mcu7t5v0__aoi21_1
*I *2202:A3 I *D gf180mcu_fd_sc_mcu7t5v0__and3_1
*I *2200:Z O *D gf180mcu_fd_sc_mcu7t5v0__xor2_1
*CAP
1 *2201:B 0.000274876
2 *2202:A3 0
3 *2200:Z 0.000214055
4 *198:6 0.000488931
5 *2201:B *2200:A2 4.33103e-05
6 *2201:B *2201:A1 4.33103e-05
7 *2201:B *2201:A2 0.000507183
8 *2201:B *2202:A1 1.25888e-05
9 *2201:B *2202:A2 4.98809e-05
10 *2201:B *2203:A3 0.000566851
11 *2201:B *334:33 4.2082e-05
12 *198:6 *2082:B1 5.35497e-05
13 *2084:A2 *2201:B 2.60515e-06
14 *2084:A2 *198:6 6.07652e-05
*RES
1 *2200:Z *198:6 5.45941 
2 *198:6 *2202:A3 4.5 
3 *198:6 *2201:B 15.6623 
*END

*D_NET *199 0.00185509
*CONN
*I *2203:A2 I *D gf180mcu_fd_sc_mcu7t5v0__nor3_1
*I *2201:ZN O *D gf180mcu_fd_sc_mcu7t5v0__aoi21_1
*CAP
1 *2203:A2 0.000216226
2 *2201:ZN 0.000216226
3 *2203:A2 *2084:A1 2.98343e-05
4 *2203:A2 *2200:A2 5.16556e-06
5 *2203:A2 *2203:A3 6.67623e-05
6 *2203:A2 *328:173 0.000725052
7 *2084:A2 *2203:A2 0.000448926
8 *2267:D *2203:A2 0.000146896
9 *2300:D *2203:A2 0
*RES
1 *2201:ZN *2203:A2 19.9578 
*END

*D_NET *200 0.00327021
*CONN
*I *2203:A3 I *D gf180mcu_fd_sc_mcu7t5v0__nor3_1
*I *2202:Z O *D gf180mcu_fd_sc_mcu7t5v0__and3_1
*CAP
1 *2203:A3 0.000713304
2 *2202:Z 0.000713304
3 *2203:A3 *2201:A2 0.000164644
4 *2203:A3 *2300:CLK 0
5 *2203:A3 *328:173 0.000177374
6 *2203:A3 *334:33 5.34098e-05
7 *2084:A2 *2203:A3 0.000666295
8 *2201:B *2203:A3 0.000566851
9 *2203:A2 *2203:A3 6.67623e-05
10 *2267:D *2203:A3 0.000148269
*RES
1 *2202:Z *2203:A3 23 
*END

*D_NET *201 0.00260323
*CONN
*I *2205:B I *D gf180mcu_fd_sc_mcu7t5v0__aoi21_1
*I *2206:A3 I *D gf180mcu_fd_sc_mcu7t5v0__and3_1
*I *2204:Z O *D gf180mcu_fd_sc_mcu7t5v0__xor2_1
*CAP
1 *2205:B 0.000417762
2 *2206:A3 0.000301448
3 *2204:Z 0.000263621
4 *201:6 0.000982831
5 *2205:B *2205:A2 1.93476e-05
6 *2205:B *2207:A2 0.000115929
7 *2206:A3 *2085:A1 3.20443e-05
8 *2206:A3 *2205:A2 4.98809e-05
9 *2206:A3 *2207:A3 6.40885e-05
10 *2206:A3 *304:35 0.000249315
11 *201:6 *2204:A1 1.92848e-05
12 *201:6 *264:19 3.3404e-05
13 *2087:A3 *201:6 5.4274e-05
*RES
1 *2204:Z *201:6 5.54221 
2 *201:6 *2206:A3 5.95454 
3 *201:6 *2205:B 6.86363 
*END

*D_NET *202 0.00245049
*CONN
*I *2207:A2 I *D gf180mcu_fd_sc_mcu7t5v0__nor3_1
*I *2205:ZN O *D gf180mcu_fd_sc_mcu7t5v0__aoi21_1
*CAP
1 *2207:A2 0.000470579
2 *2205:ZN 0.000470579
3 *2207:A2 *2085:A1 9.59639e-06
4 *2207:A2 *2205:A2 0.000231277
5 *2207:A2 *2207:A3 0.00107637
6 *2207:A2 *334:63 3.40517e-06
7 *2205:B *2207:A2 0.000115929
8 *2266:D *2207:A2 7.27612e-05
*RES
1 *2205:ZN *2207:A2 21.2305 
*END

*D_NET *203 0.00292111
*CONN
*I *2207:A3 I *D gf180mcu_fd_sc_mcu7t5v0__nor3_1
*I *2206:Z O *D gf180mcu_fd_sc_mcu7t5v0__and3_1
*CAP
1 *2207:A3 0.000443715
2 *2206:Z 0.000443715
3 *2207:A3 *2085:A2 0.000507183
4 *2207:A3 *304:20 0.00020884
5 *2207:A3 *334:59 0
6 *2087:A2 *2207:A3 8.01147e-05
7 *2206:A3 *2207:A3 6.40885e-05
8 *2207:A2 *2207:A3 0.00107637
9 *2266:D *2207:A3 9.70896e-05
*RES
1 *2206:Z *2207:A3 21.1769 
*END

*D_NET *204 0.00539534
*CONN
*I *2210:A3 I *D gf180mcu_fd_sc_mcu7t5v0__and3_1
*I *2209:B I *D gf180mcu_fd_sc_mcu7t5v0__aoi21_1
*I *2208:Z O *D gf180mcu_fd_sc_mcu7t5v0__xor2_1
*CAP
1 *2210:A3 0
2 *2209:B 0.000282626
3 *2208:Z 0.00129094
4 *204:10 0.00157356
5 *2209:B *2209:A1 4.33103e-05
6 *2209:B *2211:A2 0.000871351
7 *2209:B *2211:A3 0.000256281
8 *2209:B *293:16 7.87441e-05
9 *2209:B *334:89 0.000149171
10 *2209:B *334:95 5.96686e-05
11 *204:10 *2088:B2 0
12 *204:10 *2208:A1 9.97618e-05
13 *204:10 *2208:A2 0.000149643
14 *204:10 *2209:A2 0.000106106
15 *204:10 *2210:A2 0.000397706
16 *204:10 *2211:A3 3.64721e-05
17 *2090:A3 *204:10 0
18 *2298:D *204:10 0
*RES
1 *2208:Z *204:10 10.6818 
2 *204:10 *2209:B 15.7532 
3 *204:10 *2210:A3 4.5 
*END

*D_NET *205 0.00365624
*CONN
*I *2211:A2 I *D gf180mcu_fd_sc_mcu7t5v0__nor3_1
*I *2209:ZN O *D gf180mcu_fd_sc_mcu7t5v0__aoi21_1
*CAP
1 *2211:A2 0.000406045
2 *2209:ZN 0.000406045
3 *2211:A2 *2209:A1 9.97618e-05
4 *2211:A2 *2209:A2 4.85075e-05
5 *2211:A2 *2211:A1 1.60221e-05
6 *2211:A2 *2211:A3 0.000517194
7 *2211:A2 *288:10 3.23709e-05
8 *2211:A2 *334:95 0.00117883
9 *2209:B *2211:A2 0.000871351
10 *2265:D *2211:A2 8.01107e-05
*RES
1 *2209:ZN *2211:A2 22.0909 
*END

*D_NET *206 0.00220283
*CONN
*I *2211:A3 I *D gf180mcu_fd_sc_mcu7t5v0__nor3_1
*I *2210:Z O *D gf180mcu_fd_sc_mcu7t5v0__and3_1
*CAP
1 *2211:A3 0.000503848
2 *2210:Z 0.000503848
3 *2211:A3 *2211:A1 0.000358862
4 *2211:A3 *288:10 2.63221e-05
5 *2090:A2 *2211:A3 0
6 *2209:B *2211:A3 0.000256281
7 *2211:A2 *2211:A3 0.000517194
8 *204:10 *2211:A3 3.64721e-05
*RES
1 *2210:Z *2211:A3 20.9675 
*END

*D_NET *207 0.00909986
*CONN
*I *2213:B I *D gf180mcu_fd_sc_mcu7t5v0__aoi21_1
*I *2214:A3 I *D gf180mcu_fd_sc_mcu7t5v0__and3_1
*I *2212:Z O *D gf180mcu_fd_sc_mcu7t5v0__xor2_1
*CAP
1 *2213:B 0.000841053
2 *2214:A3 0.000216602
3 *2212:Z 7.23851e-05
4 *207:6 0.00113004
5 *2213:B *2212:A1 4.98809e-05
6 *2213:B *2213:A1 0.00246013
7 *2213:B *2213:A2 7.57616e-06
8 *2213:B *2223:A1 0
9 *2213:B *2223:A3 2.8611e-05
10 *2213:B *2264:CLK 0
11 *2213:B *290:112 0
12 *2214:A3 *2092:A1 0.00015376
13 *2214:A3 *262:10 0.00015376
14 *2214:A3 *262:12 0.00179393
15 *2214:A3 *344:12 0.00199896
16 *207:6 *2212:A1 0.000149643
17 *207:6 *2213:A1 2.42537e-05
18 *2262:D *2213:B 1.92848e-05
*RES
1 *2212:Z *207:6 4.86364 
2 *207:6 *2214:A3 17.0455 
3 *207:6 *2213:B 10.1169 
*END

*D_NET *208 0.00523763
*CONN
*I *2215:A2 I *D gf180mcu_fd_sc_mcu7t5v0__nor3_1
*I *2213:ZN O *D gf180mcu_fd_sc_mcu7t5v0__aoi21_1
*CAP
1 *2215:A2 0.000848016
2 *2213:ZN 0.000848016
3 *2215:A2 *2213:A1 0.00167278
4 *2215:A2 *2215:A3 0.000510397
5 *2215:A2 *2296:CLK 0.000922612
6 *2215:A2 *290:37 0.000411571
7 *2215:A2 *344:10 2.4229e-05
8 *2263:D *2215:A2 0
*RES
1 *2213:ZN *2215:A2 24.9578 
*END

*D_NET *209 0.0046895
*CONN
*I *2215:A3 I *D gf180mcu_fd_sc_mcu7t5v0__nor3_1
*I *2214:Z O *D gf180mcu_fd_sc_mcu7t5v0__and3_1
*CAP
1 *2215:A3 0.000900958
2 *2214:Z 0.000900958
3 *2215:A3 *2264:CLK 4.30986e-05
4 *2215:A3 *2297:CLK 4.80378e-05
5 *2215:A3 *329:83 0
6 *2215:A3 *344:10 0.000805526
7 *2215:A3 *344:12 0.000984478
8 *2215:A2 *2215:A3 0.000510397
9 *2264:D *2215:A3 0.000496046
*RES
1 *2214:Z *2215:A3 24.7224 
*END

*D_NET *210 0.00172964
*CONN
*I *2218:A3 I *D gf180mcu_fd_sc_mcu7t5v0__and3_1
*I *2217:B I *D gf180mcu_fd_sc_mcu7t5v0__aoi21_1
*I *2216:Z O *D gf180mcu_fd_sc_mcu7t5v0__xor2_1
*CAP
1 *2218:A3 0
2 *2217:B 0.000269664
3 *2216:Z 0.000146351
4 *210:6 0.000416015
5 *2217:B *2217:A1 5.03314e-05
6 *2217:B *2217:A2 3.09934e-05
7 *2217:B *2219:A2 0.000285257
8 *2217:B *301:27 0.000208346
9 *210:6 *2095:A1 1.17086e-05
10 *210:6 *2218:A1 1.25888e-05
11 *210:6 *2219:A2 3.85696e-05
12 *210:6 *2219:A3 0.000103772
13 *210:6 *261:18 0.000156045
*RES
1 *2216:Z *210:6 5.63961 
2 *210:6 *2217:B 6.48052 
3 *210:6 *2218:A3 4.5 
*END

*D_NET *211 0.00241945
*CONN
*I *2219:A2 I *D gf180mcu_fd_sc_mcu7t5v0__nor3_1
*I *2217:ZN O *D gf180mcu_fd_sc_mcu7t5v0__aoi21_1
*CAP
1 *2219:A2 0.000618906
2 *2217:ZN 0.000618906
3 *2219:A2 *2217:A1 0.000124167
4 *2219:A2 *2219:A3 0.000598568
5 *2219:A2 *329:73 1.21574e-05
6 *2219:A2 *334:183 0.000122921
7 *2217:B *2219:A2 0.000285257
8 *210:6 *2219:A2 3.85696e-05
*RES
1 *2217:ZN *2219:A2 13.4058 
*END

*D_NET *212 0.00106082
*CONN
*I *2219:A3 I *D gf180mcu_fd_sc_mcu7t5v0__nor3_1
*I *2218:Z O *D gf180mcu_fd_sc_mcu7t5v0__and3_1
*CAP
1 *2219:A3 0.000179241
2 *2218:Z 0.000179241
3 *2219:A2 *2219:A3 0.000598568
4 *210:6 *2219:A3 0.000103772
*RES
1 *2218:Z *2219:A3 10.2727 
*END

*D_NET *213 0.00361732
*CONN
*I *2222:A3 I *D gf180mcu_fd_sc_mcu7t5v0__and3_1
*I *2221:B I *D gf180mcu_fd_sc_mcu7t5v0__aoi21_1
*I *2220:Z O *D gf180mcu_fd_sc_mcu7t5v0__xor2_1
*CAP
1 *2222:A3 0.000157172
2 *2221:B 0.00025957
3 *2220:Z 1.00107e-05
4 *213:6 0.000426752
5 *2221:B *2097:A2 3.09934e-05
6 *2221:B *2221:A1 1.38593e-05
7 *2221:B *2222:A2 0.000268509
8 *2221:B *300:28 0.000298343
9 *2221:B *300:45 4.13245e-06
10 *2221:B *342:12 0.000973815
11 *2222:A3 *2220:A2 7.27612e-05
12 *2222:A3 *2221:A1 8.66771e-06
13 *2222:A3 *2222:A2 0.000648449
14 *2222:A3 *2223:A3 0.000363806
15 *213:6 *2220:A2 7.30399e-05
16 *213:6 *2223:A3 7.43885e-06
*RES
1 *2220:Z *213:6 4.63312 
2 *213:6 *2221:B 15.5714 
3 *213:6 *2222:A3 6.31818 
*END

*D_NET *214 0.00329448
*CONN
*I *2223:A2 I *D gf180mcu_fd_sc_mcu7t5v0__nor3_1
*I *2221:ZN O *D gf180mcu_fd_sc_mcu7t5v0__aoi21_1
*CAP
1 *2223:A2 0.000781439
2 *2221:ZN 0.000781439
3 *2223:A2 *2097:A2 0.000134175
4 *2223:A2 *2223:A3 0.000300527
5 *2262:D *2223:A2 0.0012969
*RES
1 *2221:ZN *2223:A2 14.4123 
*END

*D_NET *215 0.0047557
*CONN
*I *2223:A3 I *D gf180mcu_fd_sc_mcu7t5v0__nor3_1
*I *2222:Z O *D gf180mcu_fd_sc_mcu7t5v0__and3_1
*CAP
1 *2223:A3 0.000907878
2 *2222:Z 0.000907878
3 *2223:A3 *2097:A2 0.000487941
4 *2223:A3 *2220:A2 1.86485e-05
5 *2223:A3 *2221:A1 0.000121574
6 *2223:A3 *2223:A1 9.64239e-06
7 *2223:A3 *290:37 0.000231417
8 *2223:A3 *300:45 6.05696e-05
9 *2223:A3 *302:20 0.000461305
10 *2223:A3 *342:18 0.000303869
11 *2213:B *2223:A3 2.8611e-05
12 *2222:A3 *2223:A3 0.000363806
13 *2223:A2 *2223:A3 0.000300527
14 *2262:D *2223:A3 0.000544596
15 *213:6 *2223:A3 7.43885e-06
*RES
1 *2222:Z *2223:A3 25.7273 
*END

*D_NET *216 0.00509039
*CONN
*I *2226:A3 I *D gf180mcu_fd_sc_mcu7t5v0__and3_1
*I *2225:B I *D gf180mcu_fd_sc_mcu7t5v0__aoi21_1
*I *2224:Z O *D gf180mcu_fd_sc_mcu7t5v0__xor2_1
*CAP
1 *2226:A3 0.000251569
2 *2225:B 0.00037227
3 *2224:Z 0.000385452
4 *216:12 0.00100929
5 *2225:B *2225:A2 0.00016533
6 *2225:B *2227:A2 0.000507415
7 *2225:B *2227:A3 0.000363806
8 *2225:B *2261:CLK 7.27612e-05
9 *2225:B *333:49 9.18177e-05
10 *2225:B *333:57 2.42537e-05
11 *2226:A3 *2225:A2 0.000127417
12 *2226:A3 *2227:A3 0.000315299
13 *2226:A3 *2261:CLK 1.90565e-05
14 *2226:A3 *299:25 9.64239e-06
15 *216:12 *2102:A1 0
16 *216:12 *2261:CLK 0.000256438
17 *216:12 *259:18 0.00107645
18 *216:12 *333:61 4.21166e-05
19 *216:12 *335:54 0
*RES
1 *2224:Z *216:12 15.724 
2 *216:12 *2225:B 7.38961 
3 *216:12 *2226:A3 6.31818 
*END

*D_NET *217 0.00142533
*CONN
*I *2227:A2 I *D gf180mcu_fd_sc_mcu7t5v0__nor3_1
*I *2225:ZN O *D gf180mcu_fd_sc_mcu7t5v0__aoi21_1
*CAP
1 *2227:A2 0.000350081
2 *2225:ZN 0.000350081
3 *2227:A2 *2221:A1 0
4 *2227:A2 *2222:A1 4.82119e-05
5 *2227:A2 *2227:A3 4.85075e-05
6 *2227:A2 *333:57 0.000103232
7 *2227:A2 *333:81 1.78019e-05
8 *2225:B *2227:A2 0.000507415
*RES
1 *2225:ZN *2227:A2 11.5877 
*END

*D_NET *218 0.00180406
*CONN
*I *2227:A3 I *D gf180mcu_fd_sc_mcu7t5v0__nor3_1
*I *2226:Z O *D gf180mcu_fd_sc_mcu7t5v0__and3_1
*CAP
1 *2227:A3 0.000430816
2 *2226:Z 0.000430816
3 *2227:A3 *335:43 3.85696e-05
4 *2225:B *2227:A3 0.000363806
5 *2226:A3 *2227:A3 0.000315299
6 *2227:A2 *2227:A3 4.85075e-05
7 *2261:D *2227:A3 0.000176243
*RES
1 *2226:Z *2227:A3 11.8182 
*END

*D_NET *219 0.00259305
*CONN
*I *2230:A3 I *D gf180mcu_fd_sc_mcu7t5v0__and3_1
*I *2229:B I *D gf180mcu_fd_sc_mcu7t5v0__aoi21_1
*I *2228:Z O *D gf180mcu_fd_sc_mcu7t5v0__xor2_1
*CAP
1 *2230:A3 2.54343e-05
2 *2229:B 0.000234995
3 *2228:Z 0.000356537
4 *219:10 0.000616966
5 *2229:B *2103:A1 1.60221e-05
6 *2229:B *2103:B1 8.66771e-06
7 *2229:B *2103:B2 0
8 *2229:B *2230:A1 3.54776e-05
9 *2229:B *2230:A2 4.85075e-05
10 *2229:B *298:22 3.20443e-05
11 *2229:B *333:32 3.54776e-05
12 *2229:B *333:39 6.06552e-05
13 *2230:A3 *2230:A1 3.43331e-06
14 *2230:A3 *298:22 0.000149643
15 *219:10 *2103:A1 2.43148e-05
16 *219:10 *2103:B1 3.95527e-05
17 *219:10 *2231:A1 0
18 *219:10 *298:12 4.98809e-05
19 *219:10 *298:22 0.000718685
20 *2105:A2 *2229:B 0
21 *2105:A2 *219:10 0.00013676
*RES
1 *2228:Z *219:10 7.09415 
2 *219:10 *2229:B 6.31818 
3 *219:10 *2230:A3 4.77273 
*END

*D_NET *220 0.00413362
*CONN
*I *2231:A2 I *D gf180mcu_fd_sc_mcu7t5v0__nor3_1
*I *2229:ZN O *D gf180mcu_fd_sc_mcu7t5v0__aoi21_1
*CAP
1 *2231:A2 0.000711842
2 *2229:ZN 0.000711842
3 *2231:A2 *2103:A1 0
4 *2231:A2 *2229:A2 0.000973837
5 *2231:A2 *290:74 0.000299285
6 *2231:A2 *298:12 0
7 *2231:A2 *333:26 0.000960888
8 *2231:A2 *333:32 0.000210212
9 *2231:A2 *333:39 3.91921e-05
10 *2231:A2 *333:43 0.00015376
11 *2260:D *2231:A2 7.27612e-05
*RES
1 *2229:ZN *2231:A2 22.4545 
*END

*D_NET *221 0.000473359
*CONN
*I *2231:A3 I *D gf180mcu_fd_sc_mcu7t5v0__nor3_1
*I *2230:Z O *D gf180mcu_fd_sc_mcu7t5v0__and3_1
*CAP
1 *2231:A3 0.000206568
2 *2230:Z 0.000206568
3 *2231:A3 *2231:A1 1.21574e-05
4 *2231:A3 *298:22 0
5 *2260:D *2231:A3 4.80664e-05
*RES
1 *2230:Z *2231:A3 10.2679 
*END

*D_NET *222 0.0065495
*CONN
*I *2233:B I *D gf180mcu_fd_sc_mcu7t5v0__aoi21_1
*I *2234:A3 I *D gf180mcu_fd_sc_mcu7t5v0__and3_1
*I *2232:Z O *D gf180mcu_fd_sc_mcu7t5v0__xor2_1
*CAP
1 *2233:B 2.61592e-05
2 *2234:A3 0.000502014
3 *2232:Z 0.000877769
4 *222:10 0.00140594
5 *2233:B *2233:A1 4.33103e-05
6 *2234:A3 *2234:A1 0.000240332
7 *2234:A3 *2234:A2 0.000648449
8 *2234:A3 *297:33 8.66771e-06
9 *2234:A3 *300:28 0.000973858
10 *222:10 *2106:A1 0.000997615
11 *222:10 *2106:B2 1.21574e-05
12 *222:10 *2232:A1 0.000249404
13 *222:10 *2233:A1 0
14 *222:10 *297:33 0
15 *222:10 *300:28 0.00056382
*RES
1 *2232:Z *222:10 14.1818 
2 *222:10 *2234:A3 12.0909 
3 *222:10 *2233:B 9.16234 
*END

*D_NET *223 0.00125583
*CONN
*I *2235:A2 I *D gf180mcu_fd_sc_mcu7t5v0__nor3_1
*I *2233:ZN O *D gf180mcu_fd_sc_mcu7t5v0__aoi21_1
*CAP
1 *2235:A2 0.000380866
2 *2233:ZN 0.000380866
3 *2235:A2 *2234:A2 6.24803e-05
4 *2235:A2 *2235:A3 0.000218284
5 *2235:A2 *2259:CLK 9.18177e-05
6 *2235:A2 *297:33 2.42537e-05
7 *2259:D *2235:A2 9.7259e-05
*RES
1 *2233:ZN *2235:A2 11.5032 
*END

*D_NET *224 0.000723909
*CONN
*I *2235:A3 I *D gf180mcu_fd_sc_mcu7t5v0__nor3_1
*I *2234:Z O *D gf180mcu_fd_sc_mcu7t5v0__and3_1
*CAP
1 *2235:A3 0.000232735
2 *2234:Z 0.000232735
3 *2235:A3 *2234:A2 1.21574e-05
4 *2235:A3 *2235:A1 2.36635e-05
5 *2235:A2 *2235:A3 0.000218284
6 *2259:D *2235:A3 4.33385e-06
*RES
1 *2234:Z *2235:A3 10.4497 
*END

*D_NET *225 0.00628319
*CONN
*I *2237:B I *D gf180mcu_fd_sc_mcu7t5v0__aoi21_1
*I *2238:A3 I *D gf180mcu_fd_sc_mcu7t5v0__and3_1
*I *2236:Z O *D gf180mcu_fd_sc_mcu7t5v0__xor2_1
*CAP
1 *2237:B 0.00032141
2 *2238:A3 0
3 *2236:Z 0.00107759
4 *225:18 0.001399
5 *2237:B *2109:A2 8.00821e-05
6 *2237:B *2237:A1 0.000334831
7 *2237:B *2238:A1 1.25888e-05
8 *2237:B *2238:A2 0.000149643
9 *2237:B *2239:A1 2.07406e-05
10 *2237:B *2239:A2 0.000110104
11 *2237:B *296:12 0.000179006
12 *2237:B *296:16 0.000149171
13 *2237:B *298:12 0.000563809
14 *225:18 *2109:A2 0.000460394
15 *225:18 *2113:A2 0
16 *225:18 *2237:A1 0.000249315
17 *225:18 *2238:A1 8.01107e-05
18 *225:18 *291:69 0
19 *225:18 *291:90 0
20 *225:18 *298:12 0.000357697
21 *225:18 *333:12 0.000200287
22 *225:18 *333:14 4.00574e-05
23 *2258:D *2237:B 2.42537e-05
24 *2258:D *225:18 0.000473091
*RES
1 *2236:Z *225:18 20.2208 
2 *225:18 *2238:A3 4.5 
3 *225:18 *2237:B 16.026 
*END

*D_NET *226 0.00195988
*CONN
*I *2239:A2 I *D gf180mcu_fd_sc_mcu7t5v0__nor3_1
*I *2237:ZN O *D gf180mcu_fd_sc_mcu7t5v0__aoi21_1
*CAP
1 *2239:A2 0.000422329
2 *2237:ZN 0.000422329
3 *2239:A2 *2237:A1 3.72468e-05
4 *2239:A2 *2239:A1 0.000266791
5 *2239:A2 *2292:CLK 0
6 *2239:A2 *296:12 0.000563788
7 *2237:B *2239:A2 0.000110104
8 *2258:D *2239:A2 0.000137291
*RES
1 *2237:ZN *2239:A2 20.5942 
*END

*D_NET *227 0.000456935
*CONN
*I *2239:A3 I *D gf180mcu_fd_sc_mcu7t5v0__nor3_1
*I *2238:Z O *D gf180mcu_fd_sc_mcu7t5v0__and3_1
*CAP
1 *2239:A3 0.000106053
2 *2238:Z 0.000106053
3 *2239:A3 *2109:A2 4.79782e-05
4 *2258:D *2239:A3 0.000196851
*RES
1 *2238:Z *2239:A3 9.90422 
*END

*D_NET *228 0.00386553
*CONN
*I *2241:B I *D gf180mcu_fd_sc_mcu7t5v0__aoi21_1
*I *2242:A3 I *D gf180mcu_fd_sc_mcu7t5v0__and3_1
*I *2240:Z O *D gf180mcu_fd_sc_mcu7t5v0__xor2_1
*CAP
1 *2241:B 0.000464964
2 *2242:A3 0
3 *2240:Z 0.000258772
4 *228:10 0.000723736
5 *2241:B *2241:A1 4.33103e-05
6 *2241:B *2243:A1 0
7 *2241:B *325:14 1.72186e-05
8 *2241:B *326:14 0.000512756
9 *2241:B *326:16 0.000666311
10 *228:10 *2112:A2 0.000666582
11 *228:10 *2243:A1 0
12 *228:10 *286:10 0.000153827
13 *228:10 *304:18 0.000171911
14 *228:10 *326:16 0.000102551
15 *228:10 *337:14 8.35888e-05
*RES
1 *2240:Z *228:10 10.6769 
2 *228:10 *2242:A3 9 
3 *228:10 *2241:B 11.2532 
*END

*D_NET *229 0.00126672
*CONN
*I *2243:A2 I *D gf180mcu_fd_sc_mcu7t5v0__nor3_1
*I *2241:ZN O *D gf180mcu_fd_sc_mcu7t5v0__aoi21_1
*CAP
1 *2243:A2 0.000335516
2 *2241:ZN 0.000335516
3 *2243:A2 *2241:A1 0.000238716
4 *2243:A2 *2241:A2 9.18177e-05
5 *2243:A2 *2243:A1 4.85075e-05
6 *2243:A2 *2243:A3 0.000110914
7 *2243:A2 *303:16 4.49493e-05
8 *2243:A2 *325:14 0
9 *2257:D *2243:A2 6.07869e-05
*RES
1 *2241:ZN *2243:A2 11.5455 
*END

*D_NET *230 0.00112003
*CONN
*I *2243:A3 I *D gf180mcu_fd_sc_mcu7t5v0__nor3_1
*I *2242:Z O *D gf180mcu_fd_sc_mcu7t5v0__and3_1
*CAP
1 *2243:A3 0.000165719
2 *2242:Z 0.000165719
3 *2243:A3 *303:16 0.000677678
4 *2243:A2 *2243:A3 0.000110914
*RES
1 *2242:Z *2243:A3 10.4221 
*END

*D_NET *231 0.00514731
*CONN
*I *2246:A3 I *D gf180mcu_fd_sc_mcu7t5v0__and3_1
*I *2245:B I *D gf180mcu_fd_sc_mcu7t5v0__aoi21_1
*I *2244:Z O *D gf180mcu_fd_sc_mcu7t5v0__xor2_1
*CAP
1 *2246:A3 0.000213636
2 *2245:B 0.000166886
3 *2244:Z 0.000303714
4 *231:10 0.000684236
5 *2245:B *2115:A1 2.42537e-05
6 *2245:B *2245:A1 4.33103e-05
7 *2245:B *2247:A2 0.000238674
8 *2245:B *295:16 0.00138391
9 *2245:B *320:20 4.33103e-05
10 *2245:B *369:107 0.000973839
11 *2246:A3 *2247:A3 0.000315299
12 *2246:A3 *2256:CLK 0.000140282
13 *2246:A3 *294:37 0.000128177
14 *2246:A3 *331:27 0
15 *231:10 *2117:A1 4.82119e-05
16 *231:10 *2244:A1 5.23881e-05
17 *231:10 *2244:A2 0
18 *231:10 *2247:A3 0.000338253
19 *231:10 *301:18 0
20 *231:10 *331:36 0
21 *231:10 *366:6 0
22 *2256:D *231:10 4.89247e-05
*RES
1 *2244:Z *231:10 6.63311 
2 *231:10 *2245:B 16.1169 
3 *231:10 *2246:A3 5.86364 
*END

*D_NET *232 0.00526968
*CONN
*I *2247:A2 I *D gf180mcu_fd_sc_mcu7t5v0__nor3_1
*I *2245:ZN O *D gf180mcu_fd_sc_mcu7t5v0__aoi21_1
*CAP
1 *2247:A2 0.000638184
2 *2245:ZN 0.000638184
3 *2247:A2 *2117:A1 0
4 *2247:A2 *2247:A3 4.86295e-05
5 *2247:A2 *294:31 0.00138387
6 *2247:A2 *295:16 0.000252492
7 *2247:A2 *302:20 0.000263431
8 *2247:A2 *320:20 2.99592e-05
9 *2247:A2 *325:16 3.94831e-05
10 *2247:A2 *331:27 0.000314416
11 *2247:A2 *369:107 0.00117884
12 *2245:B *2247:A2 0.000238674
13 *2256:D *2247:A2 0.000243507
*RES
1 *2245:ZN *2247:A2 24.0422 
*END

*D_NET *233 0.00210882
*CONN
*I *2247:A3 I *D gf180mcu_fd_sc_mcu7t5v0__nor3_1
*I *2246:Z O *D gf180mcu_fd_sc_mcu7t5v0__and3_1
*CAP
1 *2247:A3 0.000333819
2 *2246:Z 0.000333819
3 *2247:A3 *331:27 3.46708e-05
4 *2246:A3 *2247:A3 0.000315299
5 *2247:A2 *2247:A3 4.86295e-05
6 *2256:D *2247:A3 0.000704326
7 *231:10 *2247:A3 0.000338253
*RES
1 *2246:Z *2247:A3 11.7224 
*END

*D_NET *234 0.00332261
*CONN
*I *2034:A3 I *D gf180mcu_fd_sc_mcu7t5v0__and3_1
*I *2033:B I *D gf180mcu_fd_sc_mcu7t5v0__aoi21_1
*I *2032:Z O *D gf180mcu_fd_sc_mcu7t5v0__xor2_1
*CAP
1 *2034:A3 0
2 *2033:B 0.000185633
3 *2032:Z 0.000319057
4 *234:14 0.00050469
5 *2033:B *2033:A1 6.89374e-05
6 *2033:B *2034:A2 7.27612e-05
7 *2033:B *2035:A2 0.000276036
8 *2033:B *306:20 4.80664e-05
9 *2033:B *310:18 0.000509796
10 *2033:B *365:20 5.97681e-05
11 *234:14 *2032:A1 0.000149642
12 *234:14 *2175:A2 0
13 *234:14 *306:20 1.60221e-05
14 *234:14 *310:18 0.000947557
15 *234:14 *324:12 8.23222e-05
16 *234:14 *330:12 8.23222e-05
*RES
1 *2032:Z *234:14 15.6818 
2 *234:14 *2033:B 6.2987 
3 *234:14 *2034:A3 4.5 
*END

*D_NET *235 0.00268894
*CONN
*I *2035:A2 I *D gf180mcu_fd_sc_mcu7t5v0__nor3_1
*I *2033:ZN O *D gf180mcu_fd_sc_mcu7t5v0__aoi21_1
*CAP
1 *2035:A2 0.00043977
2 *2033:ZN 0.00043977
3 *2035:A2 *2033:A1 1.64644e-05
4 *2035:A2 *2035:A3 9.70896e-05
5 *2035:A2 *2175:A2 0.000275248
6 *2035:A2 *306:20 4.84642e-05
7 *2035:A2 *310:18 4.84269e-05
8 *2035:A2 *324:12 0.000871309
9 *2035:A2 *365:20 0.000176364
10 *2033:B *2035:A2 0.000276036
*RES
1 *2033:ZN *2035:A2 21.0487 
*END

*D_NET *236 0.000349513
*CONN
*I *2035:A3 I *D gf180mcu_fd_sc_mcu7t5v0__nor3_1
*I *2034:Z O *D gf180mcu_fd_sc_mcu7t5v0__and3_1
*CAP
1 *2035:A3 9.34877e-05
2 *2034:Z 9.34877e-05
3 *2035:A3 *2175:A2 2.73954e-05
4 *2035:A3 *310:18 3.8053e-05
5 *2035:A2 *2035:A3 9.70896e-05
*RES
1 *2034:Z *2035:A3 9.90422 
*END

*D_NET *237 0.00378065
*CONN
*I *2038:A3 I *D gf180mcu_fd_sc_mcu7t5v0__and3_1
*I *2037:B I *D gf180mcu_fd_sc_mcu7t5v0__aoi21_1
*I *2036:Z O *D gf180mcu_fd_sc_mcu7t5v0__xor2_1
*CAP
1 *2038:A3 0.00020135
2 *2037:B 0.000333914
3 *2036:Z 0.000230896
4 *237:6 0.00076616
5 *2037:B *2037:A1 1.38593e-05
6 *2037:B *2039:A3 1.47625e-05
7 *2037:B *2160:A1 0.000256281
8 *2037:B *369:518 0.000768823
9 *2038:A3 *2038:A2 0.00049597
10 *2038:A3 *2039:A3 0.00011359
11 *237:6 *2037:A2 7.03174e-05
12 *237:6 *2038:A2 0.000349077
13 *237:6 *2039:A3 3.09934e-05
14 *237:6 *295:106 0.000134652
*RES
1 *2036:Z *237:6 5.64123 
2 *237:6 *2037:B 15.3896 
3 *237:6 *2038:A3 6.04545 
*END

*D_NET *238 0.00109419
*CONN
*I *2039:A2 I *D gf180mcu_fd_sc_mcu7t5v0__nor3_1
*I *2037:ZN O *D gf180mcu_fd_sc_mcu7t5v0__aoi21_1
*CAP
1 *2039:A2 0.000239978
2 *2037:ZN 0.000239978
3 *2039:A2 *2039:A1 0.000112126
4 *2039:A2 *2039:A3 0.000502106
5 *2039:A2 *295:106 0
*RES
1 *2037:ZN *2039:A2 10.776 
*END

*D_NET *239 0.00211905
*CONN
*I *2039:A3 I *D gf180mcu_fd_sc_mcu7t5v0__nor3_1
*I *2038:Z O *D gf180mcu_fd_sc_mcu7t5v0__and3_1
*CAP
1 *2039:A3 0.000562891
2 *2038:Z 0.000562891
3 *2039:A3 *2037:A1 4.33103e-05
4 *2039:A3 *2037:A2 0.000288507
5 *2039:A3 *295:106 0
6 *2037:B *2039:A3 1.47625e-05
7 *2038:A3 *2039:A3 0.00011359
8 *2039:A2 *2039:A3 0.000502106
9 *237:6 *2039:A3 3.09934e-05
*RES
1 *2038:Z *2039:A3 12.0909 
*END

*D_NET *240 0.00488533
*CONN
*I *2041:B I *D gf180mcu_fd_sc_mcu7t5v0__aoi21_1
*I *2042:A3 I *D gf180mcu_fd_sc_mcu7t5v0__and3_1
*I *2040:Z O *D gf180mcu_fd_sc_mcu7t5v0__xor2_1
*CAP
1 *2041:B 0.000147201
2 *2042:A3 0.000127105
3 *2040:Z 0.000539592
4 *240:10 0.000813898
5 *2041:B *2043:A2 0.000111387
6 *2041:B *2043:A3 4.98809e-05
7 *2041:B *311:30 0.000316569
8 *2041:B *369:222 6.96371e-05
9 *2041:B *369:226 2.42537e-05
10 *2042:A3 *2043:A2 4.80664e-05
11 *2042:A3 *362:12 8.23222e-05
12 *240:10 *2124:B1 0.000249404
13 *240:10 *2125:A2 4.85075e-05
14 *240:10 *282:16 0.00059848
15 *240:10 *293:96 0
16 *240:10 *293:107 0
17 *240:10 *311:30 0.00156958
18 *240:10 *330:67 4.00574e-05
19 *240:10 *362:12 4.93933e-05
*RES
1 *2040:Z *240:10 12.5455 
2 *240:10 *2042:A3 9.72727 
3 *240:10 *2041:B 10.6169 
*END

*D_NET *241 0.00343092
*CONN
*I *2043:A2 I *D gf180mcu_fd_sc_mcu7t5v0__nor3_1
*I *2041:ZN O *D gf180mcu_fd_sc_mcu7t5v0__aoi21_1
*CAP
1 *2043:A2 0.000556056
2 *2041:ZN 0.000556056
3 *2043:A2 *2042:A2 2.43148e-05
4 *2043:A2 *2043:A1 0.000272348
5 *2043:A2 *2043:A3 0.000669336
6 *2043:A2 *322:22 0.00038806
7 *2043:A2 *369:212 9.97618e-05
8 *2043:A2 *369:222 0.00070554
9 *2041:B *2043:A2 0.000111387
10 *2042:A3 *2043:A2 4.80664e-05
*RES
1 *2041:ZN *2043:A2 13.5032 
*END

*D_NET *242 0.00372023
*CONN
*I *2043:A3 I *D gf180mcu_fd_sc_mcu7t5v0__nor3_1
*I *2042:Z O *D gf180mcu_fd_sc_mcu7t5v0__and3_1
*CAP
1 *2043:A3 0.000577255
2 *2042:Z 0.000577255
3 *2043:A3 *2040:A2 8.01107e-05
4 *2043:A3 *2043:A1 4.85075e-05
5 *2043:A3 *2124:A1 0.000273533
6 *2043:A3 *282:16 0
7 *2043:A3 *311:30 7.27612e-05
8 *2043:A3 *322:22 0.00059848
9 *2043:A3 *330:67 5.96686e-05
10 *2041:B *2043:A3 4.98809e-05
11 *2043:A2 *2043:A3 0.000669336
12 *2253:D *2043:A3 0.000713441
*RES
1 *2042:Z *2043:A3 22.1818 
*END

*D_NET *243 0.00590113
*CONN
*I *2045:B I *D gf180mcu_fd_sc_mcu7t5v0__aoi21_1
*I *2046:A3 I *D gf180mcu_fd_sc_mcu7t5v0__and3_1
*I *2044:Z O *D gf180mcu_fd_sc_mcu7t5v0__xor2_1
*CAP
1 *2045:B 0
2 *2046:A3 0.000553607
3 *2044:Z 0.000400443
4 *243:10 0.000954051
5 *2046:A3 *2046:A2 0.000194313
6 *2046:A3 *2047:A3 3.20443e-05
7 *2046:A3 *2127:A2 0.000512553
8 *2046:A3 *2175:A2 0.000110451
9 *2046:A3 *292:38 0.000702359
10 *2046:A3 *321:41 0.000973839
11 *2046:A3 *361:10 0.000298343
12 *2046:A3 *369:273 0
13 *2046:A3 *369:277 0
14 *243:10 *2044:A2 0.000349165
15 *243:10 *2175:A2 0.000607856
16 *2285:D *243:10 0.000212103
*RES
1 *2044:Z *243:10 7.79383 
2 *243:10 *2046:A3 17.5195 
3 *243:10 *2045:B 4.5 
*END

*D_NET *244 0.00234807
*CONN
*I *2047:A2 I *D gf180mcu_fd_sc_mcu7t5v0__nor3_1
*I *2045:ZN O *D gf180mcu_fd_sc_mcu7t5v0__aoi21_1
*CAP
1 *2047:A2 0.00053542
2 *2045:ZN 0.00053542
3 *2047:A2 *2047:A3 0.000182239
4 *2047:A2 *2127:A2 0.000149171
5 *2047:A2 *2175:A2 3.72035e-05
6 *2047:A2 *310:18 1.86485e-05
7 *2047:A2 *321:24 0.000176243
8 *2047:A2 *321:41 0.000566851
9 *2047:A2 *331:53 4.00574e-05
10 *2047:A2 *331:72 0.00010682
*RES
1 *2045:ZN *2047:A2 21.6851 
*END

*D_NET *245 0.00241317
*CONN
*I *2047:A3 I *D gf180mcu_fd_sc_mcu7t5v0__nor3_1
*I *2046:Z O *D gf180mcu_fd_sc_mcu7t5v0__and3_1
*CAP
1 *2047:A3 0.000565418
2 *2046:Z 0.000565418
3 *2047:A3 *2047:A1 4.85075e-05
4 *2047:A3 *292:38 0.00021824
5 *2047:A3 *310:18 4.86295e-05
6 *2047:A3 *321:24 9.79136e-05
7 *2047:A3 *331:72 0.000654764
8 *2046:A3 *2047:A3 3.20443e-05
9 *2047:A2 *2047:A3 0.000182239
*RES
1 *2046:Z *2047:A3 13.3636 
*END

*D_NET *246 0.00393882
*CONN
*I *2049:B I *D gf180mcu_fd_sc_mcu7t5v0__aoi21_1
*I *2050:A3 I *D gf180mcu_fd_sc_mcu7t5v0__and3_1
*I *2048:Z O *D gf180mcu_fd_sc_mcu7t5v0__xor2_1
*CAP
1 *2049:B 0.000188782
2 *2050:A3 0
3 *2048:Z 0.000607518
4 *246:12 0.000796299
5 *2049:B *2049:A2 6.40885e-05
6 *2049:B *304:18 0.00058788
7 *2049:B *308:26 0.000191913
8 *2049:B *320:28 1.60221e-05
9 *246:12 *2051:A3 0.000256273
10 *246:12 *2130:B1 0.000199524
11 *246:12 *280:16 0.00015376
12 *246:12 *292:23 0.000477349
13 *246:12 *320:28 0.000199889
14 *2132:A2 *246:12 0.000199524
*RES
1 *2048:Z *246:12 16.8636 
2 *246:12 *2050:A3 4.5 
3 *246:12 *2049:B 6.20779 
*END

*D_NET *247 0.00224076
*CONN
*I *2051:A2 I *D gf180mcu_fd_sc_mcu7t5v0__nor3_1
*I *2049:ZN O *D gf180mcu_fd_sc_mcu7t5v0__aoi21_1
*CAP
1 *2051:A2 0.000523206
2 *2049:ZN 0.000523206
3 *2051:A2 *2051:A3 0
4 *2051:A2 *293:16 0.000213979
5 *2051:A2 *304:18 0
6 *2051:A2 *313:22 0.000206675
7 *2051:A2 *328:18 0.000683825
8 *2051:A2 *369:329 7.65136e-05
9 *2051:A2 *369:350 1.33525e-05
*RES
1 *2049:ZN *2051:A2 21.3214 
*END

*D_NET *248 0.00242588
*CONN
*I *2051:A3 I *D gf180mcu_fd_sc_mcu7t5v0__nor3_1
*I *2050:Z O *D gf180mcu_fd_sc_mcu7t5v0__and3_1
*CAP
1 *2051:A3 0.000699336
2 *2050:Z 0.000699336
3 *2051:A3 *304:18 0.000358911
4 *2051:A3 *313:22 3.98454e-05
5 *2051:A3 *320:28 0
6 *2051:A3 *328:8 1.02999e-05
7 *2051:A3 *328:18 1.60221e-05
8 *2051:A3 *369:350 0.000256353
9 *2051:A2 *2051:A3 0
10 *2251:D *2051:A3 8.95028e-05
11 *246:12 *2051:A3 0.000256273
*RES
1 *2050:Z *2051:A3 20.9675 
*END

*D_NET *249 0.00664501
*CONN
*I *2053:B I *D gf180mcu_fd_sc_mcu7t5v0__aoi21_1
*I *2054:A3 I *D gf180mcu_fd_sc_mcu7t5v0__and3_1
*I *2052:Z O *D gf180mcu_fd_sc_mcu7t5v0__xor2_1
*CAP
1 *2053:B 0.000101529
2 *2054:A3 0
3 *2052:Z 0.000375904
4 *249:12 0.000477433
5 *2053:B *2053:A1 4.33103e-05
6 *2053:B *2282:CLK 4.33103e-05
7 *2053:B *317:14 0.000512553
8 *2053:B *317:16 0.000666364
9 *2053:B *334:233 0.000922612
10 *2053:B *334:248 0.000256281
11 *249:12 *2052:A2 0
12 *249:12 *2054:A1 9.97618e-05
13 *249:12 *2143:A2 0.00115963
14 *249:12 *317:16 0.000102518
15 *249:12 *334:173 0.00124702
16 *249:12 *334:177 0.00015376
17 *249:12 *334:233 0.000461316
18 *2145:A2 *249:12 2.17096e-05
*RES
1 *2052:Z *249:12 12.8182 
2 *249:12 *2054:A3 9 
3 *249:12 *2053:B 11.2532 
*END

*D_NET *250 0.00155857
*CONN
*I *2055:A2 I *D gf180mcu_fd_sc_mcu7t5v0__nor3_1
*I *2053:ZN O *D gf180mcu_fd_sc_mcu7t5v0__aoi21_1
*CAP
1 *2055:A2 0.000305171
2 *2053:ZN 0.000305171
3 *2055:A2 *2055:A1 4.85075e-05
4 *2055:A2 *2055:A3 0.000276397
5 *2055:A2 *2250:CLK 2.8611e-05
6 *2055:A2 *2282:CLK 0.000101589
7 *2250:D *2055:A2 0.000493127
*RES
1 *2053:ZN *2055:A2 11.6851 
*END

*D_NET *251 0.00143937
*CONN
*I *2055:A3 I *D gf180mcu_fd_sc_mcu7t5v0__nor3_1
*I *2054:Z O *D gf180mcu_fd_sc_mcu7t5v0__and3_1
*CAP
1 *2055:A3 0.000398734
2 *2054:Z 0.000398734
3 *2055:A3 *2053:A1 9.64239e-06
4 *2055:A3 *2250:CLK 0.000355864
5 *2055:A3 *334:173 0
6 *2055:A2 *2055:A3 0.000276397
*RES
1 *2054:Z *2055:A3 11.4545 
*END

*D_NET *252 0.00320399
*CONN
*I *2058:A3 I *D gf180mcu_fd_sc_mcu7t5v0__and3_1
*I *2057:B I *D gf180mcu_fd_sc_mcu7t5v0__aoi21_1
*I *2056:Z O *D gf180mcu_fd_sc_mcu7t5v0__xor2_1
*CAP
1 *2058:A3 0.000271731
2 *2057:B 0.000256387
3 *2056:Z 0.000107419
4 *252:6 0.000635536
5 *2057:B *2057:A1 2.42537e-05
6 *2057:B *2059:A2 0.000256248
7 *2057:B *2059:A3 1.17305e-05
8 *2057:B *305:24 1.25888e-05
9 *2057:B *306:20 0.000512521
10 *2057:B *306:22 0.00025627
11 *2058:A3 *2057:A2 8.9073e-05
12 *2058:A3 *2058:A2 0.000282329
13 *2058:A3 *2146:A2 4.33385e-06
14 *2058:A3 *305:24 0.00025285
15 *252:6 *2146:A2 0.000101762
16 *252:6 *305:24 0.000116146
17 *2249:D *2057:B 1.28087e-05
*RES
1 *2056:Z *252:6 5.45941 
2 *252:6 *2057:B 15.026 
3 *252:6 *2058:A3 6.5 
*END

*D_NET *253 0.00201582
*CONN
*I *2059:A2 I *D gf180mcu_fd_sc_mcu7t5v0__nor3_1
*I *2057:ZN O *D gf180mcu_fd_sc_mcu7t5v0__aoi21_1
*CAP
1 *2059:A2 0.000506629
2 *2057:ZN 0.000506629
3 *2059:A2 *305:24 0.000122921
4 *2059:A2 *306:20 0.00041768
5 *2059:A2 *313:22 8.01107e-05
6 *2057:B *2059:A2 0.000256248
7 *2249:D *2059:A2 0.000125603
*RES
1 *2057:ZN *2059:A2 20.8604 
*END

*D_NET *254 0.00153452
*CONN
*I *2059:A3 I *D gf180mcu_fd_sc_mcu7t5v0__nor3_1
*I *2058:Z O *D gf180mcu_fd_sc_mcu7t5v0__and3_1
*CAP
1 *2059:A3 0.000294045
2 *2058:Z 0.000294045
3 *2059:A3 *2057:A1 5.02609e-05
4 *2059:A3 *301:18 0.000115251
5 *2059:A3 *305:24 0.00017329
6 *2057:B *2059:A3 1.17305e-05
7 *2249:D *2059:A3 0.000595896
*RES
1 *2058:Z *2059:A3 20.086 
*END

*D_NET *255 0.00786385
*CONN
*I *2139:A1 I *D gf180mcu_fd_sc_mcu7t5v0__nor2_1
*I *2138:A1 I *D gf180mcu_fd_sc_mcu7t5v0__nand2_1
*I *2140:A1 I *D gf180mcu_fd_sc_mcu7t5v0__xor3_1
*I *2281:Q O *D gf180mcu_fd_sc_mcu7t5v0__dffq_1
*CAP
1 *2139:A1 0
2 *2138:A1 0.000526587
3 *2140:A1 0.000221665
4 *2281:Q 0.000166086
5 *255:23 0.000884936
6 *255:8 0.0007461
7 *2138:A1 *2140:A2 4.86295e-05
8 *2138:A1 *296:12 0
9 *2138:A1 *303:16 0.000249404
10 *2138:A1 *325:14 0.000134993
11 *2138:A1 *337:31 0.000492505
12 *2138:A1 *369:67 5.87055e-05
13 *2140:A1 *2140:A2 0.000199524
14 *2140:A1 *2281:CLK 0.000358774
15 *2140:A1 *325:14 0.000115251
16 *255:8 *2281:CLK 0.000973869
17 *255:8 *294:65 0.00010251
18 *255:8 *309:18 0.000133525
19 *255:8 *325:14 0.000164644
20 *255:23 *2140:A2 2.43148e-05
21 *255:23 *325:14 0.000173546
22 *2140:A3 *2140:A1 0.000648449
23 *2149:A2 *2138:A1 8.6353e-05
24 *2149:A2 *2140:A1 0.000182056
25 *2149:B *2140:A1 2.42537e-05
26 *2149:B *255:23 0.00114717
27 *2347:I *255:23 0
*RES
1 *2281:Q *255:8 10.9091 
2 *255:8 *2140:A1 10.9091 
3 *255:8 *255:23 6.86363 
4 *255:23 *2138:A1 17.1006 
5 *255:23 *2139:A1 4.5 
*END

*D_NET *256 0.00391849
*CONN
*I *2236:A1 I *D gf180mcu_fd_sc_mcu7t5v0__xor2_1
*I *2109:B1 I *D gf180mcu_fd_sc_mcu7t5v0__aoi22_1
*I *2110:A1 I *D gf180mcu_fd_sc_mcu7t5v0__nor2_1
*I *2291:Q O *D gf180mcu_fd_sc_mcu7t5v0__dffq_1
*CAP
1 *2236:A1 0.000354555
2 *2109:B1 0.000210888
3 *2110:A1 0
4 *2291:Q 0.000746023
5 *256:15 0.000651812
6 *256:8 0.000832392
7 *2109:B1 *2109:A1 7.27612e-05
8 *2109:B1 *2110:A2 0.000130911
9 *2236:A1 *2109:A1 7.79584e-05
10 *2236:A1 *2109:A2 0.00073743
11 *256:15 *2110:A2 5.78543e-05
12 *2111:A3 *256:8 4.59089e-05
*RES
1 *2291:Q *256:8 7.86363 
2 *256:8 *2110:A1 4.5 
3 *256:8 *256:15 0.727272 
4 *256:15 *2109:B1 5.77273 
5 *256:15 *2236:A1 6.77273 
*END

*D_NET *257 0.00441843
*CONN
*I *2232:A1 I *D gf180mcu_fd_sc_mcu7t5v0__xor2_1
*I *2106:B1 I *D gf180mcu_fd_sc_mcu7t5v0__aoi22_1
*I *2107:A1 I *D gf180mcu_fd_sc_mcu7t5v0__nor2_1
*I *2292:Q O *D gf180mcu_fd_sc_mcu7t5v0__dffq_1
*CAP
1 *2232:A1 0.000111202
2 *2106:B1 2.54965e-05
3 *2107:A1 0.000180495
4 *2292:Q 0.000781632
5 *257:25 0.000182107
6 *257:10 0.00100754
7 *2107:A1 *2106:B2 2.42537e-05
8 *2107:A1 *297:33 0.000612306
9 *2107:A1 *298:12 6.66296e-05
10 *2232:A1 *2106:A1 0.000169776
11 *2232:A1 *2106:B2 0.000192266
12 *257:10 *2237:A2 4.33103e-05
13 *257:10 *2292:CLK 0
14 *257:10 *297:33 0.000461316
15 *257:10 *298:12 0.000254404
16 *257:25 *2106:A1 2.42537e-05
17 *257:25 *2106:B2 3.20443e-05
18 *222:10 *2232:A1 0.000249404
*RES
1 *2292:Q *257:10 14.0909 
2 *257:10 *2107:A1 10.1818 
3 *257:10 *257:25 4.77273 
4 *257:25 *2106:B1 4.68182 
5 *257:25 *2232:A1 5.59091 
*END

*D_NET *258 0.00501156
*CONN
*I *2228:A1 I *D gf180mcu_fd_sc_mcu7t5v0__xor2_1
*I *2103:B1 I *D gf180mcu_fd_sc_mcu7t5v0__aoi22_1
*I *2104:A1 I *D gf180mcu_fd_sc_mcu7t5v0__nor2_1
*I *2293:Q O *D gf180mcu_fd_sc_mcu7t5v0__dffq_1
*CAP
1 *2228:A1 0
2 *2103:B1 0.000171909
3 *2104:A1 0.000350519
4 *2293:Q 0.000318472
5 *258:23 0.000307993
6 *258:8 0.000805076
7 *2103:B1 *2103:A1 0
8 *2103:B1 *2103:B2 0.000291045
9 *2104:A1 *2104:A2 0
10 *2104:A1 *2293:CLK 3.65033e-05
11 *2104:A1 *299:10 0.000189369
12 *2104:A1 *335:43 3.63434e-05
13 *2104:A1 *340:12 4.00574e-05
14 *258:8 *2231:A1 0.000127202
15 *258:8 *299:10 0.000694354
16 *258:8 *335:43 4.84579e-05
17 *258:23 *2103:B2 2.42537e-05
18 *258:23 *2293:CLK 0
19 *2105:A2 *2103:B1 0.000598568
20 *2105:A2 *2104:A1 5.78543e-05
21 *2105:A2 *258:23 0.000598568
22 *2229:B *2103:B1 8.66771e-06
23 *2293:D *2104:A1 0.000266791
24 *219:10 *2103:B1 3.95527e-05
*RES
1 *2293:Q *258:8 12 
2 *258:8 *2104:A1 11.4545 
3 *258:8 *258:23 5.59091 
4 *258:23 *2103:B1 6.13636 
5 *258:23 *2228:A1 4.5 
*END

*D_NET *259 0.00639336
*CONN
*I *2100:B1 I *D gf180mcu_fd_sc_mcu7t5v0__aoi22_1
*I *2101:A1 I *D gf180mcu_fd_sc_mcu7t5v0__nor2_1
*I *2224:A1 I *D gf180mcu_fd_sc_mcu7t5v0__xor2_1
*I *2294:Q O *D gf180mcu_fd_sc_mcu7t5v0__dffq_1
*CAP
1 *2100:B1 2.54965e-05
2 *2101:A1 0.000192403
3 *2224:A1 4.22327e-05
4 *2294:Q 0.00080633
5 *259:27 0.000381317
6 *259:18 0.00101198
7 *2101:A1 *2100:B2 1.25888e-05
8 *2101:A1 *2101:A2 0.00020884
9 *2224:A1 *2224:A2 4.98809e-05
10 *259:18 *2102:A1 0
11 *259:18 *2261:CLK 4.93639e-05
12 *259:18 *335:54 8.95028e-05
13 *259:18 *341:16 0.00123023
14 *259:18 *341:22 0.00015376
15 *259:27 *2100:A1 5.14997e-05
16 *259:27 *2100:B2 0.000188835
17 *259:27 *2224:A2 0.000149643
18 *259:27 *341:22 0.000448837
19 *2102:A2 *2101:A1 2.67049e-05
20 *2102:A2 *259:27 0.000188789
21 *2102:A3 *2224:A1 4.33385e-06
22 *2102:A3 *259:27 4.33385e-06
23 *216:12 *259:18 0.00107645
*RES
1 *2294:Q *259:18 26.4091 
2 *259:18 *2224:A1 4.68182 
3 *259:18 *259:27 1.36363 
4 *259:27 *2101:A1 14.5 
5 *259:27 *2100:B1 4.68182 
*END

*D_NET *260 0.00512025
*CONN
*I *2220:A1 I *D gf180mcu_fd_sc_mcu7t5v0__xor2_1
*I *2097:B1 I *D gf180mcu_fd_sc_mcu7t5v0__aoi22_1
*I *2098:A1 I *D gf180mcu_fd_sc_mcu7t5v0__nor2_1
*I *2295:Q O *D gf180mcu_fd_sc_mcu7t5v0__dffq_1
*CAP
1 *2220:A1 0
2 *2097:B1 0.000129059
3 *2098:A1 0.000142531
4 *2295:Q 0.000168971
5 *260:18 0.000935857
6 *260:6 0.000833237
7 *2097:B1 *2097:A1 2.43148e-05
8 *2097:B1 *2097:B2 8.9073e-05
9 *2098:A1 *2097:B2 8.9073e-05
10 *260:6 *2097:A1 0
11 *260:6 *290:70 0.000192208
12 *260:18 *2097:A2 0.000447514
13 *260:18 *290:44 8.00821e-05
14 *260:18 *290:52 0.000775638
15 *260:18 *290:70 1.60221e-05
16 *2099:A2 *2097:B1 0.000149643
17 *2099:A2 *260:18 0.000436567
18 *2099:A3 *2098:A1 0.000122642
19 *2099:A3 *260:18 0.000436567
20 *2295:D *260:18 5.12534e-05
*RES
1 *2295:Q *260:6 5.59091 
2 *260:6 *260:18 14 
3 *260:18 *2098:A1 5.86364 
4 *260:18 *2097:B1 5.59091 
5 *260:6 *2220:A1 4.5 
*END

*D_NET *261 0.00487814
*CONN
*I *2216:A1 I *D gf180mcu_fd_sc_mcu7t5v0__xor2_1
*I *2094:B1 I *D gf180mcu_fd_sc_mcu7t5v0__aoi22_1
*I *2095:A1 I *D gf180mcu_fd_sc_mcu7t5v0__nor2_1
*I *2296:Q O *D gf180mcu_fd_sc_mcu7t5v0__dffq_1
*CAP
1 *2216:A1 0
2 *2094:B1 0.000162821
3 *2095:A1 0.000179211
4 *2296:Q 0.000329327
5 *261:18 0.000670757
6 *261:12 0.000658053
7 *2094:B1 *2094:A1 5.96686e-05
8 *2094:B1 *2094:A2 0.000256267
9 *2094:B1 *2095:A2 8.66771e-06
10 *2094:B1 *2216:A2 0
11 *2095:A1 *2218:A1 6.7564e-05
12 *2095:A1 *334:187 0.000315299
13 *261:12 *295:16 0.000666351
14 *261:12 *329:73 0.000173582
15 *261:18 *2216:A2 0
16 *261:18 *334:187 0
17 *2096:A2 *2094:B1 6.31231e-05
18 *2096:A3 *2094:B1 0.000268509
19 *2096:A3 *2095:A1 0.000672703
20 *2096:A3 *261:18 0.000131777
21 *2263:D *2094:B1 2.67049e-05
22 *210:6 *2095:A1 1.17086e-05
23 *210:6 *261:18 0.000156045
*RES
1 *2296:Q *261:12 15.7727 
2 *261:12 *261:18 1.81818 
3 *261:18 *2095:A1 6.5 
4 *261:18 *2094:B1 14.6818 
5 *261:12 *2216:A1 4.5 
*END

*D_NET *262 0.0100507
*CONN
*I *2212:A1 I *D gf180mcu_fd_sc_mcu7t5v0__xor2_1
*I *2091:B1 I *D gf180mcu_fd_sc_mcu7t5v0__aoi22_1
*I *2092:A1 I *D gf180mcu_fd_sc_mcu7t5v0__nor2_1
*I *2297:Q O *D gf180mcu_fd_sc_mcu7t5v0__dffq_1
*CAP
1 *2212:A1 3.40113e-05
2 *2091:B1 0.000460174
3 *2092:A1 0.000286418
4 *2297:Q 0.00058637
5 *262:12 0.00112894
6 *262:10 0.00100272
7 *2091:B1 *2091:A1 0.000200557
8 *2091:B1 *2091:A2 0.00019403
9 *2091:B1 *2091:B2 9.7259e-05
10 *2091:B1 *2214:A1 0.000101102
11 *2091:B1 *2214:A2 0.000266791
12 *2091:B1 *2297:CLK 4.33385e-05
13 *2092:A1 *2092:A2 0.000149171
14 *2092:A1 *2214:A2 6.67623e-05
15 *2092:A1 *287:13 0
16 *2092:A1 *287:75 1.30016e-05
17 *2092:A1 *329:83 0.000199524
18 *2092:A1 *344:12 0.00020884
19 *2212:A1 *2213:A1 0.000199524
20 *262:10 *344:10 0.00198262
21 *262:10 *344:12 5.96686e-05
22 *262:12 *2214:A2 5.34098e-05
23 *262:12 *302:34 0.000307083
24 *262:12 *334:125 0
25 *2093:A2 *2091:B1 8.9073e-05
26 *2093:A3 *2092:A1 1.92967e-05
27 *2213:B *2212:A1 4.98809e-05
28 *2214:A3 *2092:A1 0.00015376
29 *2214:A3 *262:10 0.00015376
30 *2214:A3 *262:12 0.00179393
31 *207:6 *2212:A1 0.000149643
*RES
1 *2297:Q *262:10 14.0909 
2 *262:10 *262:12 3.18181 
3 *262:12 *2092:A1 10.7273 
4 *262:12 *2091:B1 12 
5 *262:10 *2212:A1 9.36364 
*END

*D_NET *263 0.00541396
*CONN
*I *2088:B1 I *D gf180mcu_fd_sc_mcu7t5v0__aoi22_1
*I *2208:A1 I *D gf180mcu_fd_sc_mcu7t5v0__xor2_1
*I *2089:A1 I *D gf180mcu_fd_sc_mcu7t5v0__nor2_1
*I *2298:Q O *D gf180mcu_fd_sc_mcu7t5v0__dffq_1
*CAP
1 *2088:B1 0.000258693
2 *2208:A1 2.18446e-05
3 *2089:A1 0.000187412
4 *2298:Q 0
5 *263:10 0.000888889
6 *263:4 0.000938325
7 *2088:B1 *2088:A2 2.30122e-05
8 *2088:B1 *2088:B2 0.000192237
9 *2089:A1 *2089:A2 0.000768855
10 *2089:A1 *288:29 1.92848e-05
11 *263:10 *2088:B2 0.000703358
12 *263:10 *2089:A2 0.000256267
13 *263:10 *345:12 0.000277783
14 *263:10 *345:14 0.000717615
15 *2090:A2 *2088:B1 6.06266e-05
16 *204:10 *2208:A1 9.97618e-05
*RES
1 *2298:Q *263:4 4.5 
2 *263:4 *263:10 9.40909 
3 *263:10 *2089:A1 10.5455 
4 *263:10 *2208:A1 9.18182 
5 *263:4 *2088:B1 6.13636 
*END

*D_NET *264 0.00477958
*CONN
*I *2204:A1 I *D gf180mcu_fd_sc_mcu7t5v0__xor2_1
*I *2085:B1 I *D gf180mcu_fd_sc_mcu7t5v0__aoi22_1
*I *2086:A1 I *D gf180mcu_fd_sc_mcu7t5v0__nor2_1
*I *2299:Q O *D gf180mcu_fd_sc_mcu7t5v0__dffq_1
*CAP
1 *2204:A1 2.42275e-05
2 *2085:B1 0.000119571
3 *2086:A1 0.000269028
4 *2299:Q 0.00014764
5 *264:19 0.00036826
6 *264:10 0.000641129
7 *2086:A1 *346:33 0.00028837
8 *2204:A1 *2204:A2 2.42537e-05
9 *264:10 *346:33 0.000147287
10 *264:19 *2204:A2 0.000121225
11 *264:19 *346:33 0.000112126
12 *2087:A2 *2085:B1 0.000596686
13 *2087:A3 *2086:A1 9.4373e-05
14 *2087:A3 *264:10 6.66296e-05
15 *2266:D *2085:B1 0.000307553
16 *2299:D *2085:B1 0.00133267
17 *2299:D *264:10 6.58577e-05
18 *201:6 *2204:A1 1.92848e-05
19 *201:6 *264:19 3.3404e-05
*RES
1 *2299:Q *264:10 14.5 
2 *264:10 *2086:A1 6.13636 
3 *264:10 *264:19 0.999999 
4 *264:19 *2085:B1 15.8636 
5 *264:19 *2204:A1 4.68182 
*END

*D_NET *265 0.00404952
*CONN
*I *2083:A1 I *D gf180mcu_fd_sc_mcu7t5v0__nor2_1
*I *2082:B1 I *D gf180mcu_fd_sc_mcu7t5v0__aoi22_1
*I *2200:A1 I *D gf180mcu_fd_sc_mcu7t5v0__xor2_1
*I *2300:Q O *D gf180mcu_fd_sc_mcu7t5v0__dffq_1
*CAP
1 *2083:A1 0
2 *2082:B1 0.000328787
3 *2200:A1 0
4 *2300:Q 0.000261959
5 *265:12 0.0006554
6 *265:8 0.000588571
7 *2082:B1 *2082:A1 7.79584e-05
8 *2082:B1 *2200:A2 0.000684215
9 *2082:B1 *347:8 4.33103e-05
10 *265:12 *2083:A2 0.000298835
11 *265:12 *2084:A1 8.67815e-05
12 *265:12 *2200:A2 4.85075e-05
13 *2084:A2 *2082:B1 0.000886988
14 *2084:A2 *265:12 4.33385e-06
15 *2084:A3 *265:12 3.03276e-05
16 *198:6 *2082:B1 5.35497e-05
*RES
1 *2300:Q *265:8 6.04545 
2 *265:8 *265:12 2.36363 
3 *265:12 *2200:A1 4.5 
4 *265:12 *2082:B1 7.40909 
5 *265:8 *2083:A1 4.5 
*END

*D_NET *266 0.0026865
*CONN
*I *2147:A1 I *D gf180mcu_fd_sc_mcu7t5v0__nor2_1
*I *2056:A1 I *D gf180mcu_fd_sc_mcu7t5v0__xor2_1
*I *2146:B1 I *D gf180mcu_fd_sc_mcu7t5v0__aoi22_1
*I *2282:Q O *D gf180mcu_fd_sc_mcu7t5v0__dffq_1
*CAP
1 *2147:A1 0.000137394
2 *2056:A1 0.00021602
3 *2146:B1 0.000199351
4 *2282:Q 0
5 *266:6 0.000504609
6 *266:4 0.000226631
7 *2056:A1 *2056:A2 1.85737e-06
8 *2056:A1 *2146:A2 0.000737522
9 *2056:A1 *2147:A2 0.000266791
10 *2056:A1 *305:24 0
11 *2056:A1 *348:6 1.39302e-05
12 *2146:B1 *2056:A2 3.20443e-05
13 *2146:B1 *2146:A1 1.92848e-05
14 *2146:B1 *348:6 0.000210798
15 *2147:A1 *305:24 0.000109416
16 *266:6 *2147:A2 0
17 *2148:A3 *2056:A1 1.08548e-05
*RES
1 *2282:Q *266:4 4.5 
2 *266:4 *266:6 0.636363 
3 *266:6 *2146:B1 6.31818 
4 *266:6 *2056:A1 6.86363 
5 *266:4 *2147:A1 5.77273 
*END

*D_NET *267 0.00522272
*CONN
*I *2079:B1 I *D gf180mcu_fd_sc_mcu7t5v0__aoi22_1
*I *2080:A1 I *D gf180mcu_fd_sc_mcu7t5v0__nor2_1
*I *2196:A1 I *D gf180mcu_fd_sc_mcu7t5v0__xor2_1
*I *2301:Q O *D gf180mcu_fd_sc_mcu7t5v0__dffq_1
*CAP
1 *2079:B1 0.00013926
2 *2080:A1 0.000224286
3 *2196:A1 0.000595541
4 *2301:Q 0
5 *267:8 0.000892485
6 *267:6 0.000211918
7 *2079:B1 *2079:B2 7.27612e-05
8 *2079:B1 *307:48 1.06171e-05
9 *2079:B1 *328:32 0.000100157
10 *2079:B1 *349:10 3.63434e-05
11 *2079:B1 *369:316 1.36977e-05
12 *2080:A1 *2081:A1 0.000648361
13 *2080:A1 *305:24 0
14 *2080:A1 *313:22 0.000113037
15 *2196:A1 *289:71 0.000563798
16 *2196:A1 *305:24 0.000123313
17 *2196:A1 *328:120 9.08586e-05
18 *2196:A1 *349:10 3.63434e-05
19 *267:8 *349:10 2.4229e-05
20 *2081:A2 *2079:B1 0.00020884
21 *2081:A2 *2080:A1 0.000125603
22 *2081:A2 *2196:A1 8.95028e-05
23 *2081:A2 *267:8 0.000149171
24 *2081:A3 *2080:A1 0.000174498
25 *2301:D *2196:A1 0.000522881
26 *195:10 *2196:A1 5.52191e-05
*RES
1 *2301:Q *267:6 9 
2 *267:6 *267:8 0.454545 
3 *267:8 *2196:A1 12.7273 
4 *267:8 *2080:A1 11 
5 *267:6 *2079:B1 10.1818 
*END

*D_NET *268 0.00470374
*CONN
*I *2077:A1 I *D gf180mcu_fd_sc_mcu7t5v0__nor2_1
*I *2192:A1 I *D gf180mcu_fd_sc_mcu7t5v0__xor2_1
*I *2076:B1 I *D gf180mcu_fd_sc_mcu7t5v0__aoi22_1
*I *2302:Q O *D gf180mcu_fd_sc_mcu7t5v0__dffq_1
*CAP
1 *2077:A1 3.79762e-05
2 *2192:A1 0.000100111
3 *2076:B1 3.6171e-05
4 *2302:Q 0.000749285
5 *268:16 0.000530482
6 *268:10 0.00118146
7 *2077:A1 *2078:A1 1.92848e-05
8 *2192:A1 *2076:A1 0.000698148
9 *2192:A1 *350:22 0.000315212
10 *268:10 *2192:A2 0
11 *268:10 *2270:CLK 0.000153763
12 *268:16 *2076:A1 4.98809e-05
13 *268:16 *2077:A2 0.000666393
14 *268:16 *2078:A1 1.92848e-05
15 *268:16 *2192:A2 0
16 *268:16 *350:22 4.33103e-05
17 *2078:A3 *268:10 0
18 *2078:A3 *268:16 0.000102973
*RES
1 *2302:Q *268:10 12.8182 
2 *268:10 *268:16 6.68182 
3 *268:16 *2076:B1 4.68182 
4 *268:16 *2192:A1 5.77273 
5 *268:10 *2077:A1 9.18182 
*END

*D_NET *269 0.00835239
*CONN
*I *2074:A1 I *D gf180mcu_fd_sc_mcu7t5v0__nor2_1
*I *2073:B1 I *D gf180mcu_fd_sc_mcu7t5v0__aoi22_1
*I *2188:A1 I *D gf180mcu_fd_sc_mcu7t5v0__xor2_1
*I *2303:Q O *D gf180mcu_fd_sc_mcu7t5v0__dffq_1
*CAP
1 *2074:A1 0.0003077
2 *2073:B1 0.000146
3 *2188:A1 0.000113069
4 *2303:Q 0.000329932
5 *269:12 0.000547406
6 *269:8 0.000925968
7 *2073:B1 *2074:A2 0
8 *2073:B1 *351:14 0.000698242
9 *2073:B1 *369:291 2.42537e-05
10 *2074:A1 *307:30 0.000691205
11 *2188:A1 *351:14 0.000548689
12 *269:8 *2303:CLK 0.000716023
13 *269:8 *292:55 0.000149171
14 *269:8 *307:36 0
15 *269:12 *2303:CLK 0.000447514
16 *2075:A2 *2073:B1 2.89099e-05
17 *2075:A3 *2074:A1 0.00149108
18 *189:10 *2073:B1 0.000548689
19 *189:10 *2188:A1 0.00059848
20 *189:10 *269:12 4.00574e-05
*RES
1 *2303:Q *269:8 11.6364 
2 *269:8 *269:12 5.86364 
3 *269:12 *2188:A1 5.59091 
4 *269:12 *2073:B1 6.04545 
5 *269:8 *2074:A1 11.8961 
*END

*D_NET *270 0.0061745
*CONN
*I *2071:A1 I *D gf180mcu_fd_sc_mcu7t5v0__nor2_1
*I *2070:B1 I *D gf180mcu_fd_sc_mcu7t5v0__aoi22_1
*I *2184:A1 I *D gf180mcu_fd_sc_mcu7t5v0__xor2_1
*I *2304:Q O *D gf180mcu_fd_sc_mcu7t5v0__dffq_1
*CAP
1 *2071:A1 0.000228204
2 *2070:B1 0.000133272
3 *2184:A1 0.000182229
4 *2304:Q 0.000144034
5 *270:12 0.000565492
6 *270:8 0.00062223
7 *2070:B1 *2070:B2 0.00069833
8 *2071:A1 *2071:A2 0.000112126
9 *2071:A1 *293:53 0
10 *2184:A1 *2070:B2 0.000149553
11 *2184:A1 *2184:A2 0.00021824
12 *2184:A1 *331:87 8.66771e-06
13 *270:8 *352:10 0.000717548
14 *270:8 *369:230 0
15 *270:12 *2070:A2 0.000563801
16 *270:12 *2070:B2 0.000256267
17 *270:12 *352:10 0.000358774
18 *270:12 *352:12 0.000871309
19 *270:12 *369:230 0
20 *2072:A2 *2070:B1 0.000248291
21 *2072:A2 *2071:A1 0
22 *2304:D *2070:B1 4.80664e-05
23 *2304:D *2184:A1 4.80664e-05
*RES
1 *2304:Q *270:8 10.3636 
2 *270:8 *270:12 6.95454 
3 *270:12 *2184:A1 5.59091 
4 *270:12 *2070:B1 6.04545 
5 *270:8 *2071:A1 10.0909 
*END

*D_NET *271 0.00550319
*CONN
*I *2180:A1 I *D gf180mcu_fd_sc_mcu7t5v0__xor2_1
*I *2067:B1 I *D gf180mcu_fd_sc_mcu7t5v0__aoi22_1
*I *2068:A1 I *D gf180mcu_fd_sc_mcu7t5v0__nor2_1
*I *2305:Q O *D gf180mcu_fd_sc_mcu7t5v0__dffq_1
*CAP
1 *2180:A1 5.37822e-05
2 *2067:B1 0.000464522
3 *2068:A1 0
4 *2305:Q 0.00102049
5 *271:21 0.000710793
6 *271:14 0.00121298
7 *2067:B1 *2067:A2 2.43148e-05
8 *2067:B1 *2067:B2 0.000812174
9 *2067:B1 *2069:A1 0.000178899
10 *2067:B1 *293:53 1.94554e-05
11 *2180:A1 *2180:A2 1.21574e-05
12 *271:14 *2069:A1 2.67049e-05
13 *271:14 *2180:A2 0
14 *271:21 *2068:A2 0.000145887
15 *271:21 *2069:A1 4.84642e-05
16 *271:21 *2180:A2 2.89272e-05
17 *271:21 *353:20 4.80664e-05
18 *2069:A2 *271:14 0.000142029
19 *2069:A2 *271:21 0.00040617
20 *2069:A3 *271:14 2.2578e-05
21 *2069:A3 *271:21 9.61541e-05
22 *2182:A3 *2180:A1 4.33385e-06
23 *183:12 *2180:A1 2.43148e-05
*RES
1 *2305:Q *271:14 18.3961 
2 *271:14 *2068:A1 4.5 
3 *271:14 *271:21 1.28571 
4 *271:21 *2067:B1 15.8636 
5 *271:21 *2180:A1 4.95455 
*END

*D_NET *272 0.00369086
*CONN
*I *2177:A1 I *D gf180mcu_fd_sc_mcu7t5v0__nor2_1
*I *2178:A1 I *D gf180mcu_fd_sc_mcu7t5v0__xor3_1
*I *2176:A1 I *D gf180mcu_fd_sc_mcu7t5v0__nand2_1
*I *2306:Q O *D gf180mcu_fd_sc_mcu7t5v0__dffq_1
*CAP
1 *2177:A1 0.000202736
2 *2178:A1 2.60189e-05
3 *2176:A1 0.000469614
4 *2306:Q 0.000158136
5 *272:16 0.000825443
6 *272:10 0.000690682
7 *2176:A1 *2176:A2 3.02848e-05
8 *2176:A1 *292:76 0
9 *2176:A1 *355:10 0
10 *2177:A1 *2065:C 2.78605e-06
11 *2177:A1 *2177:A2 8.67643e-05
12 *2178:A1 *2177:A2 9.97618e-05
13 *272:10 *355:10 0.000328177
14 *272:16 *2177:A2 0.000115709
15 *272:16 *355:10 0
16 *2065:A2 *2176:A1 0.000130047
17 *2065:B *2177:A1 9.44174e-05
18 *2178:A3 *2177:A1 0.000221992
19 *2178:A3 *272:16 0.000208288
*RES
1 *2306:Q *272:10 14.5 
2 *272:10 *272:16 6.5 
3 *272:16 *2176:A1 11.1461 
4 *272:16 *2178:A1 9.18182 
5 *272:10 *2177:A1 5.75974 
*END

*D_NET *273 0.00532466
*CONN
*I *2173:A1 I *D gf180mcu_fd_sc_mcu7t5v0__xor3_1
*I *2172:A1 I *D gf180mcu_fd_sc_mcu7t5v0__nor2_1
*I *2171:A1 I *D gf180mcu_fd_sc_mcu7t5v0__nand2_1
*I *2307:Q O *D gf180mcu_fd_sc_mcu7t5v0__dffq_1
*CAP
1 *2173:A1 0.000192698
2 *2172:A1 0
3 *2171:A1 0.000418706
4 *2307:Q 0.000234993
5 *273:23 0.000368177
6 *273:10 0.000829178
7 *2171:A1 *2064:C 0.000285848
8 *2171:A1 *2171:A2 0.000377628
9 *2173:A1 *2171:A2 0.000142014
10 *2173:A1 *2172:A2 0.000242189
11 *2173:A1 *2173:A2 0.000448837
12 *2173:A1 *328:83 0.000133731
13 *273:10 *292:78 0.000745857
14 *273:23 *2064:C 0.000145522
15 *273:23 *2171:A2 0.000440032
16 *273:23 *2172:A2 7.12584e-06
17 *2064:A1 *273:23 0
18 *2064:A2 *273:10 9.34672e-05
19 *2064:B *273:23 0.000178024
20 *2307:D *2171:A1 4.06358e-05
*RES
1 *2307:Q *273:10 15.7727 
2 *273:10 *2171:A1 7.46428 
3 *273:10 *273:23 1.64935 
4 *273:23 *2172:A1 4.5 
5 *273:23 *2173:A1 6.03247 
*END

*D_NET *274 0.00480392
*CONN
*I *2166:A1 I *D gf180mcu_fd_sc_mcu7t5v0__nand2_1
*I *2167:A1 I *D gf180mcu_fd_sc_mcu7t5v0__nor2_1
*I *2168:A1 I *D gf180mcu_fd_sc_mcu7t5v0__xor3_1
*I *2308:Q O *D gf180mcu_fd_sc_mcu7t5v0__dffq_1
*CAP
1 *2166:A1 0.000110726
2 *2167:A1 2.87649e-05
3 *2168:A1 0.000340407
4 *2308:Q 0.000407301
5 *274:12 0.000447298
6 *274:10 0.000596153
7 *2166:A1 *2166:A2 4.98809e-05
8 *2167:A1 *2167:A2 2.42537e-05
9 *2168:A1 *2063:C 0.000303403
10 *2168:A1 *2167:A2 0
11 *274:12 *356:19 0
12 *2063:A1 *2168:A1 2.42537e-05
13 *2063:A2 *2168:A1 0.00107639
14 *2063:A2 *274:12 0.000512588
15 *2169:A2 *2168:A1 0.000789032
16 *2169:A2 *274:12 9.34672e-05
*RES
1 *2308:Q *274:10 10.8182 
2 *274:10 *274:12 0.999999 
3 *274:12 *2168:A1 12 
4 *274:12 *2167:A1 9.16883 
5 *274:10 *2166:A1 9.50974 
*END

*D_NET *275 0.00829645
*CONN
*I *2162:A1 I *D gf180mcu_fd_sc_mcu7t5v0__nor2_1
*I *2161:A1 I *D gf180mcu_fd_sc_mcu7t5v0__nand2_1
*I *2163:A1 I *D gf180mcu_fd_sc_mcu7t5v0__xor3_1
*I *2309:Q O *D gf180mcu_fd_sc_mcu7t5v0__dffq_1
*CAP
1 *2162:A1 3.27882e-05
2 *2161:A1 0.000210402
3 *2163:A1 0.000600081
4 *2309:Q 0.000365266
5 *275:12 0.000960466
6 *275:10 0.000548036
7 *2161:A1 *2161:A2 4.98809e-05
8 *2161:A1 *357:17 0.000884445
9 *2162:A1 *2162:A2 1.60221e-05
10 *2162:A1 *332:77 1.04206e-05
11 *2163:A1 *2062:C 0.00040591
12 *2163:A1 *2163:A2 0.000328249
13 *2163:A1 *2309:CLK 0.000132927
14 *275:10 *2164:A1 0.000759302
15 *275:10 *295:80 0.000548687
16 *275:12 *2062:C 0.000410038
17 *275:12 *2164:A1 0.000461305
18 *2062:A2 *2161:A1 0.000371809
19 *2062:B *2161:A1 9.97618e-05
20 *2062:B *2163:A1 8.95028e-05
21 *2062:B *275:12 0.000447514
22 *2163:A3 *2163:A1 0.000308984
23 *2309:D *2161:A1 0
24 *2309:D *2163:A1 0.000242494
25 *167:12 *2161:A1 1.21574e-05
*RES
1 *2309:Q *275:10 11.9091 
2 *275:10 *275:12 1.54545 
3 *275:12 *2163:A1 13.2727 
4 *275:12 *2161:A1 11.3279 
5 *275:10 *2162:A1 9.16883 
*END

*D_NET *276 0.0100059
*CONN
*I *2157:A1 I *D gf180mcu_fd_sc_mcu7t5v0__nor2_1
*I *2156:A1 I *D gf180mcu_fd_sc_mcu7t5v0__nand2_1
*I *2158:A1 I *D gf180mcu_fd_sc_mcu7t5v0__xor3_1
*I *2310:Q O *D gf180mcu_fd_sc_mcu7t5v0__dffq_1
*CAP
1 *2157:A1 0.000143524
2 *2156:A1 0.000671097
3 *2158:A1 0.000151792
4 *2310:Q 0.0003199
5 *276:12 0.00104531
6 *276:8 0.000685849
7 *2156:A1 *2150:A2 0
8 *2156:A1 *2155:A1 0.000479123
9 *2156:A1 *2155:A2 2.90909e-05
10 *2156:A1 *2156:A2 0.000412198
11 *2156:A1 *2279:CLK 8.59159e-05
12 *2156:A1 *295:123 7.57616e-06
13 *2157:A1 *332:60 0.00138953
14 *2158:A1 *295:123 0.000115709
15 *276:8 *2160:A2 0.00128142
16 *276:8 *358:10 0
17 *276:12 *2158:A2 0
18 *276:12 *2160:A2 0.000973858
19 *276:12 *358:10 0
20 *2061:A2 *2156:A1 0.000137876
21 *2061:B *2157:A1 0.00129155
22 *2158:A3 *2156:A1 8.66771e-06
23 *2158:A3 *2158:A1 5.20062e-05
24 *2279:D *2156:A1 0.000563788
25 *2310:D *2156:A1 0.000160122
*RES
1 *2310:Q *276:8 11.2727 
2 *276:8 *276:12 6.22727 
3 *276:12 *2158:A1 5.59091 
4 *276:12 *2156:A1 17.5552 
5 *276:8 *2157:A1 11.5325 
*END

*D_NET *277 0.00272778
*CONN
*I *2143:B1 I *D gf180mcu_fd_sc_mcu7t5v0__aoi22_1
*I *2052:A1 I *D gf180mcu_fd_sc_mcu7t5v0__xor2_1
*I *2144:A1 I *D gf180mcu_fd_sc_mcu7t5v0__nor2_1
*I *2283:Q O *D gf180mcu_fd_sc_mcu7t5v0__dffq_1
*CAP
1 *2143:B1 8.85018e-05
2 *2052:A1 0.000286107
3 *2144:A1 0.000268862
4 *2283:Q 0
5 *277:15 0.00043835
6 *277:4 0.000332603
7 *2052:A1 *2052:A2 0.000709019
8 *2052:A1 *359:10 0.000138954
9 *2143:B1 *2052:A2 0
10 *2143:B1 *293:16 0.00025627
11 *2143:B1 *334:183 8.23222e-05
12 *2144:A1 *334:183 3.85696e-05
13 *2144:A1 *359:10 3.0337e-05
14 *2145:A2 *2052:A1 0
15 *2145:A3 *2144:A1 5.78902e-05
*RES
1 *2283:Q *277:4 4.5 
2 *277:4 *2144:A1 6.22727 
3 *277:4 *277:15 0.454545 
4 *277:15 *2052:A1 6.13636 
5 *277:15 *2143:B1 14.1364 
*END

*D_NET *278 0.005177
*CONN
*I *2151:A1 I *D gf180mcu_fd_sc_mcu7t5v0__nand2_1
*I *2152:A1 I *D gf180mcu_fd_sc_mcu7t5v0__nor2_1
*I *2153:A1 I *D gf180mcu_fd_sc_mcu7t5v0__xor3_1
*I *2311:Q O *D gf180mcu_fd_sc_mcu7t5v0__dffq_1
*CAP
1 *2151:A1 0.000368903
2 *2152:A1 0
3 *2153:A1 8.47196e-05
4 *2311:Q 0.000886352
5 *278:12 9.87848e-05
6 *278:10 0.00126932
7 *2151:A1 *2151:A2 0.000378532
8 *2151:A1 *2153:A2 1.71666e-06
9 *2151:A1 *360:6 6.40885e-05
10 *2153:A1 *2151:A2 0.000315299
11 *2153:A1 *2153:A2 0.000208288
12 *278:10 *2311:CLK 0.00056382
13 *278:10 *358:10 0
14 *278:12 *2151:A2 4.85075e-05
15 *278:12 *2153:A2 1.60221e-05
16 *2060:A2 *2151:A1 9.72772e-06
17 *2060:B *2151:A1 0.000263096
18 *2060:B *278:10 0.000526025
19 *2311:D *2151:A1 1.92848e-05
20 *159:12 *2151:A1 5.45152e-05
*RES
1 *2311:Q *278:10 18.8636 
2 *278:10 *278:12 0.181818 
3 *278:12 *2153:A1 5.68182 
4 *278:12 *2152:A1 4.5 
5 *278:10 *2151:A1 16.1006 
*END

*D_NET *279 0.00532989
*CONN
*I *2134:B I *D gf180mcu_fd_sc_mcu7t5v0__aoi21_1
*I *2133:A3 I *D gf180mcu_fd_sc_mcu7t5v0__and3_1
*I *2312:Q O *D gf180mcu_fd_sc_mcu7t5v0__dffq_1
*CAP
1 *2134:B 0.000229123
2 *2133:A3 0.000121531
3 *2312:Q 9.17569e-05
4 *279:10 0.000442411
5 *2133:A3 *2133:A2 0.000291045
6 *2133:A3 *2136:A2 0.000249404
7 *2134:B *2136:A2 0.00059848
8 *2134:B *2155:A2 5.96686e-05
9 *2134:B *369:560 0.000388269
10 *2134:B *369:575 0.00025627
11 *279:10 *2160:A2 0.00117892
12 *279:10 *332:39 0.00042082
13 *279:10 *369:560 8.95028e-05
14 *2135:A3 *2134:B 0.000284878
15 *2142:A2 *2134:B 0.000118524
16 *149:8 *2133:A3 0.000412314
17 *149:8 *2134:B 9.69717e-05
*RES
1 *2312:Q *279:10 15.5909 
2 *279:10 *2133:A3 6.04545 
3 *279:10 *2134:B 15.4805 
*END

*D_NET *280 0.00650934
*CONN
*I *2131:A1 I *D gf180mcu_fd_sc_mcu7t5v0__nor2_1
*I *2130:B1 I *D gf180mcu_fd_sc_mcu7t5v0__aoi22_1
*I *2048:A1 I *D gf180mcu_fd_sc_mcu7t5v0__xor2_1
*I *2284:Q O *D gf180mcu_fd_sc_mcu7t5v0__dffq_1
*CAP
1 *2131:A1 0.000321239
2 *2130:B1 0.000141346
3 *2048:A1 0
4 *2284:Q 0.000423619
5 *280:16 0.000376396
6 *280:10 0.000979908
7 *2130:B1 *2130:B2 0.00069833
8 *2131:A1 *2131:A2 0.000557793
9 *2131:A1 *309:18 0.000338648
10 *280:10 *292:23 0.00071758
11 *280:10 *309:18 0.000176215
12 *280:10 *320:20 0
13 *280:16 *2130:B2 9.97618e-05
14 *280:16 *292:23 0.0010764
15 *280:16 *320:20 0
16 *280:16 *320:28 0
17 *2132:A2 *2130:B1 0.000200313
18 *2132:A2 *280:16 4.85075e-05
19 *246:12 *2130:B1 0.000199524
20 *246:12 *280:16 0.00015376
*RES
1 *2284:Q *280:10 11.3636 
2 *280:10 *280:16 6.59091 
3 *280:16 *2048:A1 4.5 
4 *280:16 *2130:B1 6.13636 
5 *280:10 *2131:A1 11.5325 
*END

*D_NET *281 0.00406522
*CONN
*I *2127:B1 I *D gf180mcu_fd_sc_mcu7t5v0__aoi22_1
*I *2044:A1 I *D gf180mcu_fd_sc_mcu7t5v0__xor2_1
*I *2128:A1 I *D gf180mcu_fd_sc_mcu7t5v0__nor2_1
*I *2285:Q O *D gf180mcu_fd_sc_mcu7t5v0__dffq_1
*CAP
1 *2127:B1 4.40923e-05
2 *2044:A1 0.000502585
3 *2128:A1 0
4 *2285:Q 0.000349088
5 *281:19 0.000874883
6 *281:8 0.000677294
7 *2044:A1 *2044:A2 0.000279895
8 *2044:A1 *2175:A2 9.97618e-05
9 *2044:A1 *2285:CLK 4.85075e-05
10 *2044:A1 *362:14 4.93933e-05
11 *2127:B1 *2127:A2 1.07625e-05
12 *2127:B1 *2127:B2 2.56441e-05
13 *281:8 *2127:A2 2.94083e-05
14 *281:8 *2128:A2 0.000121269
15 *281:8 *2253:CLK 0
16 *281:19 *2127:A1 8.41641e-05
17 *281:19 *330:54 0.000461316
18 *281:19 *362:12 8.23222e-05
19 *281:19 *362:14 0.000263431
20 *2129:A2 *2127:B1 4.85075e-05
21 *2129:A3 *2044:A1 0
22 *2129:A3 *281:19 0
23 *2285:D *2127:B1 1.28922e-05
*RES
1 *2285:Q *281:8 6.42208 
2 *281:8 *2128:A1 4.5 
3 *281:8 *281:19 6.57792 
4 *281:19 *2044:A1 11.2727 
5 *281:19 *2127:B1 9.36364 
*END

*D_NET *282 0.00802173
*CONN
*I *2125:A1 I *D gf180mcu_fd_sc_mcu7t5v0__nor2_1
*I *2124:B1 I *D gf180mcu_fd_sc_mcu7t5v0__aoi22_1
*I *2040:A1 I *D gf180mcu_fd_sc_mcu7t5v0__xor2_1
*I *2286:Q O *D gf180mcu_fd_sc_mcu7t5v0__dffq_1
*CAP
1 *2125:A1 1.42703e-05
2 *2124:B1 0.000314261
3 *2040:A1 0
4 *2286:Q 0.000565706
5 *282:16 0.000860432
6 *282:12 0.00112615
7 *2124:B1 *2040:A2 8.66771e-06
8 *2124:B1 *2124:A1 0.000610914
9 *2124:B1 *311:30 0.000169776
10 *2124:B1 *330:67 1.21145e-05
11 *2125:A1 *2125:A2 4.85075e-05
12 *282:12 *2183:A1 0.000249404
13 *282:12 *2308:CLK 0.000205027
14 *282:12 *293:107 0.00199907
15 *282:16 *2125:A2 0.000161103
16 *282:16 *311:30 0
17 *2043:A3 *282:16 0
18 *2126:A3 *282:16 2.43148e-05
19 *2286:D *2125:A1 9.61328e-05
20 *2286:D *282:12 0.000144199
21 *171:10 *2124:B1 0.000563802
22 *240:10 *2124:B1 0.000249404
23 *240:10 *282:16 0.00059848
*RES
1 *2286:Q *282:12 18.4091 
2 *282:12 *282:16 2.81818 
3 *282:16 *2040:A1 4.5 
4 *282:16 *2124:B1 15.7727 
5 *282:12 *2125:A1 5.04545 
*END

*D_NET *283 0.00640994
*CONN
*I *2121:B1 I *D gf180mcu_fd_sc_mcu7t5v0__aoi22_1
*I *2036:A1 I *D gf180mcu_fd_sc_mcu7t5v0__xor2_1
*I *2122:A1 I *D gf180mcu_fd_sc_mcu7t5v0__nor2_1
*I *2287:Q O *D gf180mcu_fd_sc_mcu7t5v0__dffq_1
*CAP
1 *2121:B1 0.00026376
2 *2036:A1 0
3 *2122:A1 0
4 *2287:Q 0.000214061
5 *283:19 0.00034937
6 *283:8 0.000299672
7 *2121:B1 *2039:A1 0.00041768
8 *2121:B1 *2121:B2 0.000820074
9 *2121:B1 *2165:A2 4.98809e-05
10 *2121:B1 *295:106 4.85075e-05
11 *2121:B1 *330:27 0.000298343
12 *283:8 *2165:A2 0.0012969
13 *283:8 *295:31 0.000897854
14 *283:19 *2165:A2 0.000722584
15 *283:19 *2328:I 8.66771e-06
16 *283:19 *295:31 9.97618e-05
17 *283:19 *295:106 0.000622822
18 *2123:A3 *2121:B1 0
*RES
1 *2287:Q *283:8 7.13636 
2 *283:8 *2122:A1 4.5 
3 *283:8 *283:19 1.72727 
4 *283:19 *2036:A1 4.5 
5 *283:19 *2121:B1 15.8636 
*END

*D_NET *284 0.00796128
*CONN
*I *2032:A1 I *D gf180mcu_fd_sc_mcu7t5v0__xor2_1
*I *2119:A1 I *D gf180mcu_fd_sc_mcu7t5v0__nor2_1
*I *2118:B1 I *D gf180mcu_fd_sc_mcu7t5v0__aoi22_1
*I *2288:Q O *D gf180mcu_fd_sc_mcu7t5v0__dffq_1
*CAP
1 *2032:A1 0.000361
2 *2119:A1 0.000100869
3 *2118:B1 0.000235109
4 *2288:Q 0
5 *284:12 0.000542956
6 *284:6 0.000567979
7 *2032:A1 *2032:A2 9.87866e-05
8 *2032:A1 *306:20 0.000598568
9 *2032:A1 *310:18 0.000218284
10 *2032:A1 *324:12 6.31231e-05
11 *2032:A1 *324:14 8.41641e-05
12 *2032:A1 *330:12 5.34098e-05
13 *2032:A1 *365:26 0.000279895
14 *2032:A1 *369:27 0.000358774
15 *2032:A1 *369:29 0.000717599
16 *2118:B1 *2119:A2 3.02862e-05
17 *2118:B1 *300:22 0.000153774
18 *2118:B1 *365:26 0.000387846
19 *2119:A1 *326:14 0.000228887
20 *2119:A1 *331:23 0.000641323
21 *2119:A1 *331:27 4.98809e-05
22 *284:12 *2118:A2 0.000595896
23 *284:12 *326:14 2.5553e-05
24 *284:12 *331:27 0.000648449
25 *284:12 *365:26 0.000181109
26 *284:12 *369:29 0.000563801
27 *2120:A2 *2118:B1 2.43148e-05
28 *234:14 *2032:A1 0.000149642
*RES
1 *2288:Q *284:6 9 
2 *284:6 *284:12 6.68182 
3 *284:12 *2118:B1 14.8636 
4 *284:12 *2119:A1 5.75974 
5 *284:6 *2032:A1 12.5455 
*END

*D_NET *285 0.00511113
*CONN
*I *2244:A1 I *D gf180mcu_fd_sc_mcu7t5v0__xor2_1
*I *2115:B1 I *D gf180mcu_fd_sc_mcu7t5v0__aoi22_1
*I *2116:A1 I *D gf180mcu_fd_sc_mcu7t5v0__nor2_1
*I *2289:Q O *D gf180mcu_fd_sc_mcu7t5v0__dffq_1
*CAP
1 *2244:A1 0.000340734
2 *2115:B1 0.000219113
3 *2116:A1 0
4 *2289:Q 0.000341983
5 *285:16 0.000409029
6 *285:10 0.000872633
7 *2115:B1 *2115:A1 4.85075e-05
8 *2115:B1 *2115:B2 4.85075e-05
9 *2115:B1 *2116:A2 0.000119059
10 *2115:B1 *2289:CLK 5.30194e-05
11 *2115:B1 *320:20 0.000155165
12 *2244:A1 *301:18 3.64721e-05
13 *285:10 *306:20 0.000267049
14 *285:10 *331:53 0.000448926
15 *285:16 *2289:CLK 8.51293e-06
16 *285:16 *301:18 0.00014818
17 *285:16 *306:20 0.000133525
18 *2117:A2 *2115:B1 4.86295e-05
19 *2117:A2 *2244:A1 0.000218284
20 *2117:A3 *285:16 0.000658208
21 *2289:D *2115:B1 0.000206649
22 *2289:D *285:16 0.000276562
23 *231:10 *2244:A1 5.23881e-05
*RES
1 *2289:Q *285:10 11.7273 
2 *285:10 *285:16 6.57792 
3 *285:16 *2116:A1 4.5 
4 *285:16 *2115:B1 6.51299 
5 *285:10 *2244:A1 11 
*END

*D_NET *286 0.00615918
*CONN
*I *2240:A1 I *D gf180mcu_fd_sc_mcu7t5v0__xor2_1
*I *2112:B1 I *D gf180mcu_fd_sc_mcu7t5v0__aoi22_1
*I *2113:A1 I *D gf180mcu_fd_sc_mcu7t5v0__nor2_1
*I *2290:Q O *D gf180mcu_fd_sc_mcu7t5v0__dffq_1
*CAP
1 *2240:A1 2.7579e-05
2 *2112:B1 0.000238246
3 *2113:A1 0.000159685
4 *2290:Q 0.000265396
5 *286:12 0.000898818
6 *286:10 0.000793862
7 *2112:B1 *291:69 2.60031e-05
8 *2112:B1 *367:16 0.000199434
9 *2113:A1 *2113:A2 9.34195e-05
10 *2113:A1 *2240:A2 2.67049e-05
11 *2113:A1 *291:69 4.85075e-05
12 *2240:A1 *304:18 3.20443e-05
13 *2240:A1 *329:14 4.85075e-05
14 *286:10 *2112:A2 0.000238621
15 *286:10 *2243:A1 6.05724e-05
16 *286:10 *304:18 0.000266748
17 *286:10 *337:14 0.000548597
18 *286:12 *2112:A2 0.000507129
19 *286:12 *2114:A1 0.000666214
20 *286:12 *2240:A2 0.000133501
21 *286:12 *2243:A1 2.42181e-05
22 *2114:A2 *2112:B1 0.000144516
23 *2114:A3 *2113:A1 0.000472678
24 *2290:D *2112:B1 7.41956e-05
25 *2290:D *2113:A1 1.01589e-05
26 *228:10 *286:10 0.000153827
*RES
1 *2290:Q *286:10 11 
2 *286:10 *286:12 2.45454 
3 *286:12 *2113:A1 10.2727 
4 *286:12 *2112:B1 10.6364 
5 *286:10 *2240:A1 9.18182 
*END

*D_NET *1 0.0288265
*CONN
*P clk I
*I *2313:I I *D gf180mcu_fd_sc_mcu7t5v0__clkbuf_16
*CAP
1 clk 0.000446671
2 *2313:I 0.000110368
3 *1:14 0.00339082
4 *1:12 0.0109633
5 *1:8 0.0081295
6 *2313:I *287:75 8.12716e-05
7 *1:8 *2339:I 0.000272376
8 *1:8 *2360:I 0.00126119
9 *1:12 *2330:I 0
10 *1:12 *2332:I 0
11 *1:12 *2333:I 0
12 *1:12 *2334:I 0
13 *1:12 *2340:I 0.000805526
14 *1:12 *2341:I 0
15 *1:12 *2342:I 0
16 *1:12 *2345:I 1.21145e-05
17 *1:12 *2346:I 0
18 *1:12 *2350:I 0
19 *1:12 *2351:I 0.000133259
20 *1:12 *2356:I 0
21 *1:12 *2357:I 0.000173582
22 *1:14 *2102:A1 0
23 *1:14 *2102:A2 1.30016e-05
24 *1:14 *2102:A3 1.99728e-05
25 *1:14 *2294:D 0
26 *1:14 *2294:CLK 0.00066871
27 *1:14 *2295:D 0
28 *1:14 *2317:I 0.00019403
29 *1:14 *2321:I 6.54305e-05
30 *1:14 *287:75 0.000140503
31 *1:14 *287:79 6.74967e-05
32 *1:14 *287:86 2.89272e-05
33 *1:14 *287:91 0.000175629
34 *1:14 *287:107 0.000185997
35 *1:14 *287:112 0.000341718
36 *1:14 *287:116 0.00019403
37 *1:14 *287:123 0.000242537
38 *1:14 *287:128 0.000315299
39 *1:14 *290:52 0.000393257
*RES
1 clk *1:8 9.22727 
2 *1:8 *1:12 45.6818 
3 *1:12 *1:14 22.5974 
4 *1:14 *2313:I 5.26623 
*END

*D_NET *287 0.0106455
*CONN
*I *2317:I I *D gf180mcu_fd_sc_mcu7t5v0__clkbuf_16
*I *2320:I I *D gf180mcu_fd_sc_mcu7t5v0__clkbuf_16
*I *2321:I I *D gf180mcu_fd_sc_mcu7t5v0__clkbuf_16
*I *2316:I I *D gf180mcu_fd_sc_mcu7t5v0__clkbuf_16
*I *2314:I I *D gf180mcu_fd_sc_mcu7t5v0__clkbuf_16
*I *2319:I I *D gf180mcu_fd_sc_mcu7t5v0__clkbuf_16
*I *2318:I I *D gf180mcu_fd_sc_mcu7t5v0__clkbuf_16
*I *2315:I I *D gf180mcu_fd_sc_mcu7t5v0__clkbuf_16
*I *2313:Z O *D gf180mcu_fd_sc_mcu7t5v0__clkbuf_16
*CAP
1 *2317:I 8.81599e-05
2 *2320:I 0
3 *2321:I 0.000162377
4 *2316:I 0
5 *2314:I 0
6 *2319:I 0
7 *2318:I 0
8 *2315:I 0.000134258
9 *2313:Z 0
10 *287:128 0.000219317
11 *287:123 0.00025134
12 *287:116 0.000208342
13 *287:112 0.000251546
14 *287:107 0.000237802
15 *287:91 0.000337748
16 *287:86 0.000282124
17 *287:79 0.00012489
18 *287:75 0.000353246
19 *287:48 0.000390004
20 *287:43 0.000389981
21 *287:41 0.000290485
22 *287:37 0.000390004
23 *287:32 0.000367989
24 *287:30 0.000310599
25 *287:26 0.000402786
26 *287:21 0.000344164
27 *287:19 0.000252
28 *287:15 0.000423101
29 *287:13 0.000984091
30 *287:6 0.000434556
31 *287:13 *2092:A2 0
32 *287:13 *2214:A1 0.000149171
33 *287:13 *2214:A2 2.98343e-05
34 *287:15 *329:96 0
35 *287:19 *329:96 0
36 *287:21 *329:96 0
37 *287:26 *329:96 0
38 *287:30 *329:96 0
39 *287:32 *329:96 0
40 *287:37 *329:96 0
41 *287:75 *329:83 0
42 *287:79 *329:83 0
43 *287:86 *329:83 0
44 *287:91 *329:83 0
45 *2092:A1 *287:13 0
46 *2092:A1 *287:75 1.30016e-05
47 *2093:A2 *287:13 0.000164644
48 *2093:A3 *287:15 0.000282383
49 *2093:A3 *287:75 0.000342694
50 *2313:I *287:75 8.12716e-05
51 *1:14 *2317:I 0.00019403
52 *1:14 *2321:I 6.54305e-05
53 *1:14 *287:75 0.000140503
54 *1:14 *287:79 6.74967e-05
55 *1:14 *287:86 2.89272e-05
56 *1:14 *287:91 0.000175629
57 *1:14 *287:107 0.000185997
58 *1:14 *287:112 0.000341718
59 *1:14 *287:116 0.00019403
60 *1:14 *287:123 0.000242537
61 *1:14 *287:128 0.000315299
*RES
1 *2313:Z *287:6 9 
2 *287:6 *287:13 6.59091 
3 *287:13 *287:15 1.72727 
4 *287:15 *287:19 0.727272 
5 *287:19 *287:21 0.668831 
6 *287:21 *287:26 1.25974 
7 *287:26 *287:30 0.88961 
8 *287:30 *287:32 0.727272 
9 *287:32 *287:37 1.28571 
10 *287:37 *287:41 0.805194 
11 *287:41 *287:43 0.727272 
12 *287:43 *287:48 1.36363 
13 *287:48 *2315:I 5.22727 
14 *287:41 *2318:I 4.5 
15 *287:30 *2319:I 4.5 
16 *287:19 *2314:I 4.5 
17 *287:13 *287:75 2.27273 
18 *287:75 *287:79 0.727272 
19 *287:79 *2316:I 4.5 
20 *287:79 *287:86 0.363636 
21 *287:86 *287:91 1.74675 
22 *287:91 *2321:I 5.20779 
23 *2321:I *287:107 5.22727 
24 *287:107 *287:112 1.36363 
25 *287:112 *287:116 0.727272 
26 *287:116 *2320:I 4.5 
27 *287:116 *287:123 0.90909 
28 *287:123 *287:128 1.18182 
29 *287:128 *2317:I 5.22727 
*END

*D_NET *288 0.0175682
*CONN
*I *2251:CLK I *D gf180mcu_fd_sc_mcu7t5v0__dffq_1
*I *2322:I I *D gf180mcu_fd_sc_mcu7t5v0__inv_2
*I *2283:CLK I *D gf180mcu_fd_sc_mcu7t5v0__dffq_1
*I *2265:CLK I *D gf180mcu_fd_sc_mcu7t5v0__dffq_1
*I *2266:CLK I *D gf180mcu_fd_sc_mcu7t5v0__dffq_1
*I *2267:CLK I *D gf180mcu_fd_sc_mcu7t5v0__dffq_1
*I *2299:CLK I *D gf180mcu_fd_sc_mcu7t5v0__dffq_1
*I *2298:CLK I *D gf180mcu_fd_sc_mcu7t5v0__dffq_1
*I *2314:Z O *D gf180mcu_fd_sc_mcu7t5v0__clkbuf_16
*CAP
1 *2251:CLK 4.9627e-05
2 *2322:I 0.000483297
3 *2283:CLK 0.000357804
4 *2265:CLK 8.77589e-05
5 *2266:CLK 0
6 *2267:CLK 0.00127161
7 *2299:CLK 7.64036e-05
8 *2298:CLK 1.32533e-05
9 *2314:Z 0.000948883
10 *288:86 0.00152302
11 *288:82 0.00149411
12 *288:35 0.00253467
13 *288:29 0.00242941
14 *288:10 0.00225454
15 *288:6 0.00127261
16 *2267:CLK *2085:B2 5.45152e-05
17 *2283:CLK *293:16 0
18 *2283:CLK *334:87 0.000563788
19 *2322:I *293:16 0
20 *2322:I *334:85 0.00015304
21 *2322:I *334:87 0.00112758
22 *288:10 *2090:A1 0.000352542
23 *288:29 *2089:A2 2.43148e-05
24 *2087:A3 *2267:CLK 0
25 *2089:A1 *288:29 1.92848e-05
26 *2090:A3 *288:10 0
27 *2090:A3 *288:29 0.000294813
28 *2211:A2 *288:10 3.23709e-05
29 *2211:A3 *288:10 2.63221e-05
30 *2251:D *288:82 0
31 *2265:D *288:10 0
32 *2266:D *2267:CLK 0
33 *2266:D *288:35 0
34 *2267:D *2267:CLK 0
35 *2283:D *2322:I 4.98809e-05
36 *2298:D *288:29 7.27612e-05
*RES
1 *2314:Z *288:6 5.5 
2 *288:6 *288:10 5.90908 
3 *288:10 *2298:CLK 4.68182 
4 *288:10 *288:29 6.56493 
5 *288:29 *288:35 11.2987 
6 *288:35 *2299:CLK 9.34416 
7 *288:35 *2267:CLK 15.7987 
8 *288:29 *2266:CLK 4.5 
9 *288:6 *2265:CLK 5.04545 
10 *2314:Z *288:82 17.6818 
11 *288:82 *288:86 8.59091 
12 *288:86 *2283:CLK 11.6169 
13 *288:86 *2322:I 12.1412 
14 *288:82 *2251:CLK 4.93506 
*END

*D_NET *289 0.0267045
*CONN
*I *2250:CLK I *D gf180mcu_fd_sc_mcu7t5v0__dffq_1
*I *2302:CLK I *D gf180mcu_fd_sc_mcu7t5v0__dffq_1
*I *2269:CLK I *D gf180mcu_fd_sc_mcu7t5v0__dffq_1
*I *2301:CLK I *D gf180mcu_fd_sc_mcu7t5v0__dffq_1
*I *2282:CLK I *D gf180mcu_fd_sc_mcu7t5v0__dffq_1
*I *2323:I I *D gf180mcu_fd_sc_mcu7t5v0__inv_2
*I *2300:CLK I *D gf180mcu_fd_sc_mcu7t5v0__dffq_1
*I *2268:CLK I *D gf180mcu_fd_sc_mcu7t5v0__dffq_1
*I *2315:Z O *D gf180mcu_fd_sc_mcu7t5v0__clkbuf_16
*CAP
1 *2250:CLK 0.000842659
2 *2302:CLK 0.00175312
3 *2269:CLK 2.71841e-05
4 *2301:CLK 4.76491e-05
5 *2282:CLK 0.000983365
6 *2323:I 0
7 *2300:CLK 0.00165149
8 *2268:CLK 3.82447e-05
9 *2315:Z 0.00157589
10 *289:71 0.00245176
11 *289:56 0.00101591
12 *289:42 0.00127289
13 *289:38 0.000986175
14 *289:34 0.00157549
15 *289:12 0.00208904
16 *289:10 0.0023082
17 *2250:CLK *2145:A1 4.24007e-05
18 *2250:CLK *293:16 0.000358774
19 *2250:CLK *328:128 0.00020249
20 *2250:CLK *328:152 0
21 *2250:CLK *334:173 8.23355e-05
22 *2269:CLK *305:34 6.52758e-05
23 *2282:CLK *2053:A1 2.43148e-05
24 *2282:CLK *328:128 4.38029e-05
25 *2300:CLK *328:161 0
26 *2300:CLK *328:173 0
27 *2300:CLK *346:14 0
28 *2302:CLK *305:34 0.000970106
29 *2302:CLK *334:25 0
30 *2302:CLK *334:29 0
31 *289:10 *334:57 0.00122321
32 *289:10 *345:12 0.00014818
33 *289:10 *345:14 0.000214038
34 *289:34 *2198:A1 0
35 *289:34 *328:152 0
36 *289:38 *292:12 6.05724e-05
37 *289:38 *328:122 5.34098e-05
38 *289:38 *328:128 0.000120172
39 *289:38 *334:57 0
40 *289:42 *328:128 2.12049e-05
41 *289:42 *328:152 0.000266748
42 *289:56 *328:120 0.000133525
43 *289:56 *328:122 0.000360516
44 *289:71 *2080:A2 0.000182361
45 *289:71 *305:24 0.00109317
46 *289:71 *305:34 4.85075e-05
47 *289:71 *328:120 0.000413926
48 *2053:B *2282:CLK 4.33103e-05
49 *2055:A2 *2250:CLK 2.8611e-05
50 *2055:A2 *2282:CLK 0.000101589
51 *2055:A3 *2250:CLK 0.000355864
52 *2196:A1 *289:71 0.000563798
53 *2198:A3 *289:56 6.66296e-05
54 *2199:A2 *289:12 1.02155e-05
55 *2199:A3 *289:12 0.000141525
56 *2199:A3 *289:34 1.21574e-05
57 *2199:A3 *289:38 0
58 *2203:A3 *2300:CLK 0
59 *2250:D *2282:CLK 0.000206675
60 *2268:D *2300:CLK 9.64239e-06
61 *2268:D *289:12 0.000106066
62 *2300:D *2300:CLK 0
63 *2301:D *289:71 8.01148e-05
64 *2302:D *2302:CLK 0
65 *195:10 *289:56 0.000151431
66 *195:10 *289:71 7.87441e-05
*RES
1 *2315:Z *289:10 24.3182 
2 *289:10 *289:12 2.27273 
3 *289:12 *2268:CLK 4.86364 
4 *289:12 *2300:CLK 12.9545 
5 *289:10 *289:34 1.54545 
6 *289:34 *289:38 6.59091 
7 *289:38 *289:42 5.9448 
8 *289:42 *2323:I 4.5 
9 *289:42 *2282:CLK 9.67207 
10 *289:38 *289:56 3.36363 
11 *289:56 *2301:CLK 9.16234 
12 *289:56 *289:71 9.95454 
13 *289:71 *2269:CLK 4.86364 
14 *289:71 *2302:CLK 15.3182 
15 *289:34 *2250:CLK 18.2078 
*END

*D_NET *290 0.0315873
*CONN
*I *2296:CLK I *D gf180mcu_fd_sc_mcu7t5v0__dffq_1
*I *2264:CLK I *D gf180mcu_fd_sc_mcu7t5v0__dffq_1
*I *2260:CLK I *D gf180mcu_fd_sc_mcu7t5v0__dffq_1
*I *2293:CLK I *D gf180mcu_fd_sc_mcu7t5v0__dffq_1
*I *2261:CLK I *D gf180mcu_fd_sc_mcu7t5v0__dffq_1
*I *2294:CLK I *D gf180mcu_fd_sc_mcu7t5v0__dffq_1
*I *2295:CLK I *D gf180mcu_fd_sc_mcu7t5v0__dffq_1
*I *2262:CLK I *D gf180mcu_fd_sc_mcu7t5v0__dffq_1
*I *2263:CLK I *D gf180mcu_fd_sc_mcu7t5v0__dffq_1
*I *2297:CLK I *D gf180mcu_fd_sc_mcu7t5v0__dffq_1
*I *2316:Z O *D gf180mcu_fd_sc_mcu7t5v0__clkbuf_16
*CAP
1 *2296:CLK 0.00102629
2 *2264:CLK 0.000393353
3 *2260:CLK 0.000224356
4 *2293:CLK 0.000255164
5 *2261:CLK 0.000761822
6 *2294:CLK 0.000303216
7 *2295:CLK 0
8 *2262:CLK 0
9 *2263:CLK 0.000270532
10 *2297:CLK 0.000981219
11 *2316:Z 0.000784079
12 *290:112 0.00146892
13 *290:74 0.00145727
14 *290:70 0.00184511
15 *290:52 0.00148939
16 *290:44 0.00269984
17 *290:37 0.001068
18 *290:4 0.00125175
19 *2260:CLK *2229:A2 2.4229e-05
20 *2260:CLK *300:28 0.000133259
21 *2260:CLK *333:26 8.01148e-05
22 *2260:CLK *333:32 0.000173582
23 *2261:CLK *2225:A2 6.06552e-05
24 *2261:CLK *335:43 0.00210156
25 *2261:CLK *335:54 8.48014e-05
26 *2261:CLK *341:16 0.000273533
27 *2263:CLK *302:34 6.45727e-05
28 *2293:CLK *2104:A2 0.00017281
29 *2293:CLK *341:16 0.000145522
30 *2294:CLK *2102:A1 0
31 *2296:CLK *2215:A1 0
32 *2297:CLK *2091:A1 0
33 *2297:CLK *2091:A2 0.000189171
34 *2297:CLK *2213:A1 0
35 *2297:CLK *302:34 4.33385e-06
36 *290:37 *2213:A1 2.87916e-05
37 *290:37 *2213:A2 0.000188835
38 *290:37 *302:34 0.00186984
39 *290:37 *342:18 0.000110451
40 *290:44 *2097:A2 0
41 *290:44 *2220:A2 0.000199524
42 *290:44 *342:18 0.00118627
43 *290:52 *2097:A2 9.87866e-05
44 *290:70 *2220:A2 0.000149643
45 *290:70 *2222:A1 9.97618e-05
46 *290:70 *2222:A2 0.000291045
47 *290:70 *2229:A2 1.81717e-05
48 *290:70 *300:28 3.02862e-05
49 *290:70 *333:43 0
50 *290:70 *333:49 0
51 *290:74 *2103:A1 0.000339552
52 *290:74 *2103:B2 0
53 *290:74 *2229:A2 8.9073e-05
54 *290:74 *333:39 4.85075e-05
55 *290:74 *341:16 0.000781622
56 *2091:B1 *2297:CLK 4.33385e-05
57 *2096:A2 *2296:CLK 7.63867e-05
58 *2096:A3 *2296:CLK 0.000486336
59 *2104:A1 *2293:CLK 3.65033e-05
60 *2213:B *2264:CLK 0
61 *2213:B *290:112 0
62 *2215:A2 *2296:CLK 0.000922612
63 *2215:A2 *290:37 0.000411571
64 *2215:A3 *2264:CLK 4.30986e-05
65 *2215:A3 *2297:CLK 4.80378e-05
66 *2223:A3 *290:37 0.000231417
67 *2225:B *2261:CLK 7.27612e-05
68 *2226:A3 *2261:CLK 1.90565e-05
69 *2231:A2 *290:74 0.000299285
70 *2263:D *2296:CLK 0.000428251
71 *2264:D *290:112 0
72 *2295:D *290:52 0.000666327
73 *2296:D *2296:CLK 5.20062e-05
74 *1:14 *2294:CLK 0.00066871
75 *1:14 *290:52 0.000393257
76 *216:12 *2261:CLK 0.000256438
77 *258:23 *2293:CLK 0
78 *259:18 *2261:CLK 4.93639e-05
79 *260:6 *290:70 0.000192208
80 *260:18 *290:44 8.00821e-05
81 *260:18 *290:52 0.000775638
82 *260:18 *290:70 1.60221e-05
*RES
1 *2316:Z *290:4 4.5 
2 *290:4 *2297:CLK 9.13636 
3 *290:4 *2263:CLK 6.04545 
4 *2316:Z *290:37 11.0649 
5 *290:37 *2262:CLK 4.5 
6 *290:37 *290:44 2.52597 
7 *290:44 *290:52 15.8377 
8 *290:52 *2295:CLK 4.5 
9 *290:52 *2294:CLK 7.0974 
10 *290:44 *290:70 10.6818 
11 *290:70 *290:74 8.04545 
12 *290:74 *2261:CLK 19.2078 
13 *290:74 *2293:CLK 6.11688 
14 *290:70 *2260:CLK 11.2532 
15 *2316:Z *290:112 4.77273 
16 *290:112 *2264:CLK 5.93506 
17 *290:112 *2296:CLK 19.9351 
*END

*D_NET *291 0.0280996
*CONN
*I *2292:CLK I *D gf180mcu_fd_sc_mcu7t5v0__dffq_1
*I *2248:CLK I *D gf180mcu_fd_sc_mcu7t5v0__dffq_1
*I *2258:CLK I *D gf180mcu_fd_sc_mcu7t5v0__dffq_1
*I *2249:CLK I *D gf180mcu_fd_sc_mcu7t5v0__dffq_1
*I *2290:CLK I *D gf180mcu_fd_sc_mcu7t5v0__dffq_1
*I *2324:I I *D gf180mcu_fd_sc_mcu7t5v0__inv_2
*I *2291:CLK I *D gf180mcu_fd_sc_mcu7t5v0__dffq_1
*I *2259:CLK I *D gf180mcu_fd_sc_mcu7t5v0__dffq_1
*I *2317:Z O *D gf180mcu_fd_sc_mcu7t5v0__clkbuf_16
*CAP
1 *2292:CLK 0.001173
2 *2248:CLK 0
3 *2258:CLK 0.000563165
4 *2249:CLK 0.00116229
5 *2290:CLK 5.218e-05
6 *2324:I 0
7 *2291:CLK 0.000572542
8 *2259:CLK 4.0488e-05
9 *2317:Z 0.0025826
10 *291:90 0.00178002
11 *291:69 0.00203724
12 *291:47 0.00328276
13 *291:25 0.000793435
14 *291:23 0.00223116
15 *291:8 0.00343213
16 *2258:CLK *2109:A1 0.000149643
17 *2258:CLK *2237:A1 3.91921e-05
18 *2258:CLK *2238:A1 2.8611e-05
19 *2258:CLK *300:28 0
20 *2258:CLK *333:12 0.000895028
21 *2258:CLK *333:14 8.95028e-05
22 *2291:CLK *2235:A1 0
23 *2292:CLK *2239:A1 5.54114e-05
24 *2292:CLK *296:12 0
25 *2292:CLK *297:16 0.00374184
26 *2292:CLK *297:33 0.000102973
27 *2292:CLK *299:10 0.000477349
28 *2292:CLK *313:22 0.000167598
29 *291:8 *342:12 0.000102962
30 *291:25 *2235:A1 0
31 *291:47 *294:12 0
32 *291:69 *2113:A2 0.000448837
33 *291:69 *313:22 9.62517e-06
34 *291:69 *367:8 9.62735e-05
35 *291:69 *367:16 5.15999e-05
36 *291:90 *2239:A1 7.02703e-05
37 *291:90 *313:22 0.000410909
38 *2108:A3 *2292:CLK 4.33103e-05
39 *2111:A2 *291:47 0.000768844
40 *2111:A3 *291:47 0
41 *2112:B1 *291:69 2.60031e-05
42 *2113:A1 *291:69 4.85075e-05
43 *2114:A3 *291:69 9.92145e-05
44 *2235:A2 *2259:CLK 9.18177e-05
45 *2239:A2 *2292:CLK 0
46 *2258:D *291:90 0
47 *2259:D *2259:CLK 7.27612e-05
48 *2259:D *291:23 0
49 *2259:D *291:25 0
50 *2290:D *291:69 0
51 *2291:D *2291:CLK 0.000274274
52 *2291:D *291:25 3.42649e-05
53 *225:18 *291:69 0
54 *225:18 *291:90 0
55 *257:10 *2292:CLK 0
*RES
1 *2317:Z *291:8 19.6364 
2 *291:8 *2259:CLK 9.34416 
3 *291:8 *291:23 7.40909 
4 *291:23 *291:25 1.23214 
5 *291:25 *2291:CLK 7.63149 
6 *291:25 *2324:I 4.5 
7 *291:23 *291:47 15.2727 
8 *291:47 *2290:CLK 4.86364 
9 *291:47 *2249:CLK 9.86363 
10 *291:47 *291:69 4.81818 
11 *291:69 *2258:CLK 17.1169 
12 *291:69 *291:90 3.47402 
13 *291:90 *2248:CLK 4.5 
14 *291:90 *2292:CLK 23.0065 
*END

*D_NET *292 0.0534822
*CONN
*I *2325:I I *D gf180mcu_fd_sc_mcu7t5v0__clkbuf_4
*I *2306:CLK I *D gf180mcu_fd_sc_mcu7t5v0__dffq_1
*I *2274:CLK I *D gf180mcu_fd_sc_mcu7t5v0__dffq_1
*I *2307:CLK I *D gf180mcu_fd_sc_mcu7t5v0__dffq_1
*I *2270:CLK I *D gf180mcu_fd_sc_mcu7t5v0__dffq_1
*I *2271:CLK I *D gf180mcu_fd_sc_mcu7t5v0__dffq_1
*I *2303:CLK I *D gf180mcu_fd_sc_mcu7t5v0__dffq_1
*I *2252:CLK I *D gf180mcu_fd_sc_mcu7t5v0__dffq_1
*I *2284:CLK I *D gf180mcu_fd_sc_mcu7t5v0__dffq_1
*I *2318:Z O *D gf180mcu_fd_sc_mcu7t5v0__clkbuf_16
*CAP
1 *2325:I 0
2 *2306:CLK 0
3 *2274:CLK 0.000241967
4 *2307:CLK 3.98634e-05
5 *2270:CLK 0.000899409
6 *2271:CLK 0.000196988
7 *2303:CLK 0.00057302
8 *2252:CLK 8.65707e-05
9 *2284:CLK 0
10 *2318:Z 0.00251751
11 *292:78 0.00176338
12 *292:76 0.0017474
13 *292:70 0.00171415
14 *292:55 0.00138873
15 *292:42 0.00132714
16 *292:38 0.00154116
17 *292:23 0.00166792
18 *292:12 0.0031529
19 *2252:CLK *307:30 0
20 *2270:CLK *2078:A1 0
21 *2270:CLK *2192:A2 0
22 *2274:CLK *2174:A1 9.26359e-05
23 *2303:CLK *351:8 0.000736436
24 *2303:CLK *351:14 0.000272031
25 *292:12 *2079:B2 0.000378663
26 *292:12 *2170:A2 0.000197573
27 *292:12 *2210:A2 6.31231e-05
28 *292:12 *303:16 0.00064429
29 *292:12 *303:18 0.00504981
30 *292:12 *303:20 0.000504984
31 *292:12 *308:26 0.00112083
32 *292:12 *328:118 0.000563805
33 *292:12 *328:120 0.00312646
34 *292:12 *328:122 0.00158886
35 *292:12 *328:128 0.000461281
36 *292:23 *2048:A2 0.000358774
37 *292:23 *303:16 0.000188832
38 *292:23 *308:26 0.000261594
39 *292:23 *361:10 0.00189638
40 *292:23 *361:12 0.000973815
41 *292:38 *321:41 0.000238674
42 *292:38 *331:53 0
43 *292:38 *331:72 0.000547082
44 *292:38 *361:10 0.00205014
45 *292:38 *369:291 0.00040498
46 *292:42 *331:72 0.000170203
47 *292:42 *369:291 7.71391e-05
48 *292:55 *351:8 0.000294574
49 *292:70 *351:8 0.000336656
50 *292:76 *2174:A1 0.00015376
51 *292:76 *2176:A2 4.33385e-06
52 *292:76 *355:10 0
53 *292:78 *2064:C 0.000666308
54 *292:78 *2174:A1 0.00153773
55 *292:78 *2192:A2 0
56 *2046:A3 *292:38 0.000702359
57 *2047:A3 *292:38 0.00021824
58 *2064:A1 *2307:CLK 1.72186e-05
59 *2064:A2 *292:78 0
60 *2065:A2 *292:70 0
61 *2065:A2 *292:76 0
62 *2090:A2 *292:12 0.00128134
63 *2174:A2 *2274:CLK 2.42537e-05
64 *2176:A1 *292:76 0
65 *2187:A2 *292:70 0
66 *2187:A3 *292:42 0
67 *2191:A2 *2303:CLK 3.37421e-05
68 *2252:D *292:38 0
69 *2271:D *2271:CLK 0
70 *2271:D *292:70 0.000349165
71 *2274:D *2274:CLK 4.76724e-05
72 *2306:D *292:70 0
73 *179:12 *292:70 0.00244416
74 *189:10 *2303:CLK 0
75 *246:12 *292:23 0.000477349
76 *268:10 *2270:CLK 0.000153763
77 *269:8 *2303:CLK 0.000716023
78 *269:8 *292:55 0.000149171
79 *269:12 *2303:CLK 0.000447514
80 *273:10 *292:78 0.000745857
81 *280:10 *292:23 0.00071758
82 *280:16 *292:23 0.0010764
83 *289:38 *292:12 6.05724e-05
*RES
1 *2318:Z *292:12 41.974 
2 *292:12 *2284:CLK 4.5 
3 *292:12 *292:23 11.8441 
4 *292:23 *2252:CLK 9.34416 
5 *292:23 *292:38 13.1364 
6 *292:38 *292:42 7.77272 
7 *292:42 *2303:CLK 13.9805 
8 *292:42 *292:55 1.36363 
9 *292:55 *2271:CLK 9.70779 
10 *292:55 *292:70 11.8831 
11 *292:70 *292:76 8.02597 
12 *292:76 *292:78 5.90908 
13 *292:78 *2270:CLK 13.9805 
14 *292:78 *2307:CLK 9.16234 
15 *292:76 *2274:CLK 10.4351 
16 *292:70 *2306:CLK 4.5 
17 *292:38 *2325:I 4.5 
*END

*D_NET *293 0.0449363
*CONN
*I *2308:CLK I *D gf180mcu_fd_sc_mcu7t5v0__dffq_1
*I *2275:CLK I *D gf180mcu_fd_sc_mcu7t5v0__dffq_1
*I *2286:CLK I *D gf180mcu_fd_sc_mcu7t5v0__dffq_1
*I *2272:CLK I *D gf180mcu_fd_sc_mcu7t5v0__dffq_1
*I *2305:CLK I *D gf180mcu_fd_sc_mcu7t5v0__dffq_1
*I *2273:CLK I *D gf180mcu_fd_sc_mcu7t5v0__dffq_1
*I *2253:CLK I *D gf180mcu_fd_sc_mcu7t5v0__dffq_1
*I *2326:I I *D gf180mcu_fd_sc_mcu7t5v0__clkbuf_4
*I *2304:CLK I *D gf180mcu_fd_sc_mcu7t5v0__dffq_1
*I *2319:Z O *D gf180mcu_fd_sc_mcu7t5v0__clkbuf_16
*CAP
1 *2308:CLK 0.00042809
2 *2275:CLK 0.00122555
3 *2286:CLK 2.68205e-05
4 *2272:CLK 0.000365104
5 *2305:CLK 4.9627e-05
6 *2273:CLK 0.000772334
7 *2253:CLK 0.00108402
8 *2326:I 0
9 *2304:CLK 0.000454666
10 *2319:Z 0.00715584
11 *293:107 0.00214446
12 *293:96 0.00122574
13 *293:79 0.00141505
14 *293:53 0.00248869
15 *293:49 0.00245578
16 *293:31 0.00116983
17 *293:27 0.000898114
18 *293:16 0.00797561
19 *2272:CLK *2181:A1 4.33103e-05
20 *2272:CLK *2182:A2 0
21 *2272:CLK *311:30 0.00058788
22 *2272:CLK *311:32 0.000719636
23 *2273:CLK *2179:A1 1.97174e-05
24 *2275:CLK *352:10 7.27179e-05
25 *2286:CLK *2183:A1 2.17096e-05
26 *2304:CLK *2070:B2 0.00017715
27 *2308:CLK *2169:A1 0.000167598
28 *293:16 *2132:A1 0.000967849
29 *293:16 *2144:A2 0
30 *293:16 *2145:A1 0
31 *293:16 *317:14 0
32 *293:16 *334:87 0
33 *293:16 *334:89 0
34 *293:16 *334:177 0.00010682
35 *293:16 *334:183 8.01147e-05
36 *293:16 *334:233 0.000347164
37 *293:16 *334:248 0.000534098
38 *293:16 *369:234 0.000199889
39 *293:16 *369:273 0
40 *293:16 *369:277 0
41 *293:27 *369:230 4.24007e-05
42 *293:27 *369:234 9.69158e-05
43 *293:49 *369:230 0.000205946
44 *293:53 *2067:A1 0
45 *293:53 *2067:A2 0
46 *293:53 *2067:B2 0.000188835
47 *293:53 *2068:A2 0
48 *293:53 *369:226 0.000133731
49 *293:53 *369:439 0
50 *293:79 *2181:A1 6.67623e-05
51 *293:79 *369:230 4.24007e-05
52 *293:79 *369:435 9.34672e-05
53 *293:96 *311:30 0.00159618
54 *293:107 *2183:A1 0.000768836
55 *293:107 *311:30 0
56 *2051:A2 *293:16 0.000213979
57 *2067:B1 *293:53 1.94554e-05
58 *2069:A2 *293:53 3.85523e-05
59 *2069:A3 *293:53 0
60 *2071:A1 *293:53 0
61 *2132:A3 *293:16 0.000973858
62 *2143:B1 *293:16 0.00025627
63 *2145:A2 *293:16 0.000805526
64 *2181:B *2272:CLK 0.000137938
65 *2183:A2 *2272:CLK 0.000156217
66 *2209:B *293:16 7.87441e-05
67 *2250:CLK *293:16 0.000358774
68 *2275:D *2275:CLK 0
69 *2283:D *293:16 0.00107641
70 *2283:CLK *293:16 0
71 *2322:I *293:16 0
72 *240:10 *293:96 0
73 *240:10 *293:107 0
74 *281:8 *2253:CLK 0
75 *282:12 *2308:CLK 0.000205027
76 *282:12 *293:107 0.00199907
*RES
1 *2319:Z *293:16 49.8181 
2 *293:16 *2304:CLK 11.3442 
3 *293:16 *293:27 2.09091 
4 *293:27 *293:31 4.86364 
5 *293:31 *2326:I 4.5 
6 *293:31 *2253:CLK 10.1623 
7 *293:27 *293:49 3.18181 
8 *293:49 *293:53 13.1364 
9 *293:53 *2273:CLK 8.68181 
10 *293:53 *2305:CLK 4.93506 
11 *293:49 *293:79 6.22727 
12 *293:79 *2272:CLK 7.68182 
13 *293:79 *293:96 8.86363 
14 *293:96 *2286:CLK 9.16234 
15 *293:96 *293:107 4.45454 
16 *293:107 *2275:CLK 15.526 
17 *293:107 *2308:CLK 11.6169 
*END

*D_NET *294 0.0580405
*CONN
*I *2257:CLK I *D gf180mcu_fd_sc_mcu7t5v0__dffq_1
*I *2256:CLK I *D gf180mcu_fd_sc_mcu7t5v0__dffq_1
*I *2255:CLK I *D gf180mcu_fd_sc_mcu7t5v0__dffq_1
*I *2285:CLK I *D gf180mcu_fd_sc_mcu7t5v0__dffq_1
*I *2327:I I *D gf180mcu_fd_sc_mcu7t5v0__clkinv_1
*I *2312:CLK I *D gf180mcu_fd_sc_mcu7t5v0__dffq_1
*I *2280:CLK I *D gf180mcu_fd_sc_mcu7t5v0__dffq_2
*I *2281:CLK I *D gf180mcu_fd_sc_mcu7t5v0__dffq_1
*I *2288:CLK I *D gf180mcu_fd_sc_mcu7t5v0__dffq_1
*I *2289:CLK I *D gf180mcu_fd_sc_mcu7t5v0__dffq_1
*I *2320:Z O *D gf180mcu_fd_sc_mcu7t5v0__clkbuf_16
*CAP
1 *2257:CLK 0
2 *2256:CLK 7.37432e-05
3 *2255:CLK 6.93982e-05
4 *2285:CLK 0.00080579
5 *2327:I 0.000111558
6 *2312:CLK 0.000789036
7 *2280:CLK 2.25e-05
8 *2281:CLK 0.000717334
9 *2288:CLK 0
10 *2289:CLK 0.000712123
11 *2320:Z 0.0038591
12 *294:102 0.00168606
13 *294:87 0.0017947
14 *294:65 0.00147144
15 *294:52 0.00196771
16 *294:43 0.00141437
17 *294:37 0.00212961
18 *294:31 0.000896431
19 *294:18 0.00138305
20 *294:12 0.00414078
21 *2255:CLK *2175:A2 0.000124744
22 *2255:CLK *310:18 0.000108722
23 *2256:CLK *366:6 7.57616e-06
24 *2256:CLK *369:107 9.7015e-05
25 *2280:CLK *300:22 2.17096e-05
26 *2280:CLK *331:6 8.9073e-05
27 *2281:CLK *321:24 0
28 *2281:CLK *325:14 0.000320459
29 *2281:CLK *332:16 0
30 *2285:CLK *2175:A2 0.00169953
31 *2285:CLK *310:18 0.00169294
32 *2289:CLK *2115:A1 1.47625e-05
33 *2289:CLK *2115:A2 0.000509495
34 *2289:CLK *2115:B2 8.9073e-05
35 *2289:CLK *2116:A2 0.000169776
36 *2289:CLK *325:16 0.000238626
37 *2289:CLK *366:21 4.80664e-05
38 *2312:CLK *2155:A2 0.00266524
39 *2312:CLK *2175:A2 3.20443e-05
40 *2312:CLK *310:18 2.68609e-05
41 *2312:CLK *319:14 0
42 *2312:CLK *321:24 0
43 *2312:CLK *369:6 0.000199434
44 *2312:CLK *369:10 0.000388357
45 *2327:I *302:18 2.16693e-05
46 *2327:I *321:24 0.000121269
47 *294:12 *2243:A1 0
48 *294:12 *302:20 0
49 *294:12 *303:16 0.000537999
50 *294:12 *329:24 0
51 *294:12 *329:52 0.00353656
52 *294:12 *329:54 0.00240891
53 *294:12 *329:60 0.000563788
54 *294:18 *295:16 0.00044454
55 *294:18 *302:20 0.000568108
56 *294:18 *303:16 0.000509495
57 *294:31 *295:16 0.000115251
58 *294:31 *302:20 0.000736436
59 *294:37 *2246:A2 9.64239e-06
60 *294:37 *369:97 0.00109738
61 *294:37 *369:107 0.000498718
62 *294:43 *2246:A2 0
63 *294:43 *309:18 0.000435039
64 *294:43 *320:20 0.00178492
65 *294:52 *309:18 0.000707711
66 *294:52 *320:20 0.00345237
67 *294:65 *2155:A2 0.00107639
68 *294:65 *309:18 3.63434e-05
69 *294:65 *321:24 0
70 *294:65 *332:16 0
71 *294:87 *2246:A2 0
72 p *2281:CLK 8.9073e-05
73 *2044:A1 *2285:CLK 4.85075e-05
74 *2111:A3 *294:12 0.000973895
75 *2115:B1 *2289:CLK 5.30194e-05
76 *2117:A2 *2289:CLK 0
77 *2117:A3 *2289:CLK 1.82517e-05
78 *2136:A1 *2312:CLK 0.000548599
79 *2140:A1 *2281:CLK 0.000358774
80 *2246:A3 *2256:CLK 0.000140282
81 *2246:A3 *294:37 0.000128177
82 *2247:A2 *294:31 0.00138387
83 *2257:D *294:12 4.76724e-05
84 *2257:D *294:18 9.28683e-07
85 *2280:D *2312:CLK 0.00102511
86 *2281:D *2281:CLK 0.000461294
87 *2289:D *2289:CLK 0
88 *2334:I *294:52 0.000115709
89 *2337:I *2281:CLK 4.33103e-05
90 *2354:I *2281:CLK 1.21145e-05
91 *2358:I *2281:CLK 0.00025627
92 *151:12 *2281:CLK 0
93 *255:8 *2281:CLK 0.000973869
94 *255:8 *294:65 0.00010251
95 *285:16 *2289:CLK 8.51293e-06
96 *291:47 *294:12 0
*RES
1 *2320:Z *294:12 38.8441 
2 *294:12 *294:18 7.88311 
3 *294:18 *2289:CLK 13.3442 
4 *294:18 *294:31 7.68182 
5 *294:31 *294:37 7.59091 
6 *294:37 *294:43 9.84415 
7 *294:43 *2288:CLK 4.5 
8 *294:43 *294:52 10.8831 
9 *294:52 *2281:CLK 13.6169 
10 *294:52 *294:65 3.72727 
11 *294:65 *2280:CLK 9.16234 
12 *294:65 *2312:CLK 15.0714 
13 *294:37 *294:87 3.54545 
14 *294:87 *2327:I 9.63636 
15 *294:87 *294:102 7.31818 
16 *294:102 *2285:CLK 14.5909 
17 *294:102 *2255:CLK 5.20779 
18 *294:31 *2256:CLK 5.02597 
19 *294:12 *2257:CLK 4.5 
*END

*D_NET *295 0.0494671
*CONN
*I *2277:CLK I *D gf180mcu_fd_sc_mcu7t5v0__dffq_1
*I *2279:CLK I *D gf180mcu_fd_sc_mcu7t5v0__dffq_1
*I *2310:CLK I *D gf180mcu_fd_sc_mcu7t5v0__dffq_1
*I *2328:I I *D gf180mcu_fd_sc_mcu7t5v0__clkinv_1
*I *2311:CLK I *D gf180mcu_fd_sc_mcu7t5v0__dffq_1
*I *2278:CLK I *D gf180mcu_fd_sc_mcu7t5v0__dffq_1
*I *2276:CLK I *D gf180mcu_fd_sc_mcu7t5v0__dffq_1
*I *2309:CLK I *D gf180mcu_fd_sc_mcu7t5v0__dffq_1
*I *2254:CLK I *D gf180mcu_fd_sc_mcu7t5v0__dffq_1
*I *2287:CLK I *D gf180mcu_fd_sc_mcu7t5v0__dffq_1
*I *2321:Z O *D gf180mcu_fd_sc_mcu7t5v0__clkbuf_16
*CAP
1 *2277:CLK 0.000568012
2 *2279:CLK 0.000681225
3 *2310:CLK 0
4 *2328:I 4.70591e-05
5 *2311:CLK 0.000567657
6 *2278:CLK 0
7 *2276:CLK 0.000372158
8 *2309:CLK 0.000204549
9 *2254:CLK 3.85588e-05
10 *2287:CLK 0.000163868
11 *2321:Z 0.00642003
12 *295:123 0.00167291
13 *295:119 0.00213817
14 *295:106 0.000973844
15 *295:80 0.00236299
16 *295:57 0.0029603
17 *295:46 0.00204908
18 *295:35 0.00156288
19 *295:31 0.00204858
20 *295:16 0.00781155
21 *2276:CLK *2163:A2 0
22 *2276:CLK *2164:A1 2.43148e-05
23 *2277:CLK *322:16 8.9073e-05
24 *2279:CLK *2150:A1 0.000537017
25 *2279:CLK *2155:A2 0.000256281
26 *2279:CLK *2160:A2 0.000240344
27 *2279:CLK *311:30 4.60244e-05
28 *2279:CLK *332:54 0.00158886
29 *2279:CLK *369:575 0.000149171
30 *2287:CLK *2175:A2 0.000285848
31 *2309:CLK *311:30 0
32 *2311:CLK *2060:C 0.000184966
33 *2311:CLK *2151:A2 9.77407e-05
34 *2311:CLK *358:10 0
35 *295:16 *2115:A2 6.58577e-05
36 *295:16 *302:20 0.000732926
37 *295:16 *307:30 0
38 *295:16 *329:73 0.00024229
39 *295:16 *329:75 0.000187774
40 *295:16 *329:77 0.000265811
41 *295:16 *329:83 6.67623e-05
42 *295:16 *366:21 0.000399779
43 *295:16 *369:107 0.000119337
44 *295:35 *2039:A1 0
45 *295:46 *363:12 0.000686188
46 *295:80 *2060:C 2.55744e-05
47 *295:80 *2164:A1 0.000158046
48 *295:106 *2038:A2 0.000149553
49 *295:106 *2165:A2 0.000160164
50 *295:119 *2038:A2 0.000847881
51 *295:119 *2165:A2 0.000240332
52 *295:119 *369:510 9.97618e-05
53 *295:119 *369:518 0.000698239
54 *2039:A2 *295:106 0
55 *2039:A3 *295:106 0
56 *2121:B1 *295:106 4.85075e-05
57 *2123:A3 *295:31 0
58 *2153:A3 *2311:CLK 0.000298835
59 *2153:A3 *295:80 0
60 *2156:A1 *2279:CLK 8.59159e-05
61 *2156:A1 *295:123 7.57616e-06
62 *2158:A1 *295:123 0.000115709
63 *2163:A1 *2309:CLK 0.000132927
64 *2163:A3 *2276:CLK 0.000144636
65 *2164:A2 *2276:CLK 0.000548687
66 *2245:B *295:16 0.00138391
67 *2247:A2 *295:16 0.000252492
68 *2254:D *2254:CLK 4.98809e-05
69 *2276:D *2276:CLK 7.46502e-05
70 *2276:D *295:80 7.27612e-05
71 *2279:D *2279:CLK 0.000168291
72 *2287:D *2287:CLK 0
73 *2311:D *2311:CLK 2.42537e-05
74 *163:10 *2279:CLK 0.000666319
75 *237:6 *295:106 0.000134652
76 *261:12 *295:16 0.000666351
77 *275:10 *295:80 0.000548687
78 *278:10 *2311:CLK 0.00056382
79 *283:8 *295:31 0.000897854
80 *283:19 *2328:I 8.66771e-06
81 *283:19 *295:31 9.97618e-05
82 *283:19 *295:106 0.000622822
83 *294:18 *295:16 0.00044454
84 *294:31 *295:16 0.000115251
*RES
1 *2321:Z *295:16 46.3636 
2 *295:16 *2287:CLK 10.0714 
3 *295:16 *295:31 10.8636 
4 *295:31 *295:35 7.13636 
5 *295:35 *2254:CLK 9.16234 
6 *295:35 *295:46 5.36363 
7 *295:46 *2309:CLK 10.2532 
8 *295:46 *295:57 3.54545 
9 *295:57 *2276:CLK 12.0714 
10 *295:57 *295:80 14.026 
11 *295:80 *2278:CLK 4.5 
12 *295:80 *2311:CLK 17.5909 
13 *295:31 *295:106 2.27273 
14 *295:106 *2328:I 4.86364 
15 *295:106 *295:119 8.86363 
16 *295:119 *295:123 9.75324 
17 *295:123 *2310:CLK 4.5 
18 *295:123 *2279:CLK 19.4091 
19 *295:119 *2277:CLK 11.9805 
*END

*D_NET *296 0.0197457
*CONN
*I *2109:A2 I *D gf180mcu_fd_sc_mcu7t5v0__aoi22_1
*I *2237:A2 I *D gf180mcu_fd_sc_mcu7t5v0__aoi21_1
*I *2238:A2 I *D gf180mcu_fd_sc_mcu7t5v0__and3_1
*I *2329:Z O *D gf180mcu_fd_sc_mcu7t5v0__buf_1
*CAP
1 *2109:A2 0.000784641
2 *2237:A2 8.76235e-05
3 *2238:A2 0.000186469
4 *2329:Z 0.00227569
5 *296:16 0.000390849
6 *296:12 0.00317709
7 *2109:A2 *2109:A1 0.00162928
8 *2109:A2 *2237:A1 0.00114708
9 *2237:A2 *2237:A1 0.000361754
10 *2238:A2 *2237:A1 7.27612e-05
11 *296:12 *2165:A2 0.000146877
12 *296:12 *2367:I 0.00134254
13 *296:12 *298:12 0.000820562
14 *296:12 *300:22 0
15 *296:12 *301:18 0.000249404
16 *296:12 *309:18 0.000244309
17 *296:12 *332:26 0
18 *2138:A1 *296:12 0
19 *2141:A2 *296:12 0.00271492
20 *2236:A1 *2109:A2 0.00073743
21 *2237:B *2109:A2 8.00821e-05
22 *2237:B *2238:A2 0.000149643
23 *2237:B *296:12 0.000179006
24 *2237:B *296:16 0.000149171
25 *2239:A2 *296:12 0.000563788
26 *2239:A3 *2109:A2 4.79782e-05
27 *2258:D *2109:A2 0.000116208
28 *2292:CLK *296:12 0
29 *2334:I *296:12 0.00135642
30 *2349:I *296:12 0.000230441
31 *225:18 *2109:A2 0.000460394
32 *257:10 *2237:A2 4.33103e-05
*RES
1 *2329:Z *296:12 25.0909 
2 *296:12 *296:16 4.95455 
3 *296:16 *2238:A2 5.59091 
4 *296:16 *2237:A2 5.20779 
5 *296:12 *2109:A2 16.4351 
*END

*D_NET *297 0.0187572
*CONN
*I *2233:A2 I *D gf180mcu_fd_sc_mcu7t5v0__aoi21_1
*I *2234:A2 I *D gf180mcu_fd_sc_mcu7t5v0__and3_1
*I *2106:A2 I *D gf180mcu_fd_sc_mcu7t5v0__aoi22_1
*I *2330:Z O *D gf180mcu_fd_sc_mcu7t5v0__buf_1
*CAP
1 *2233:A2 0
2 *2234:A2 0.000391952
3 *2106:A2 0
4 *2330:Z 0.00150212
5 *297:33 0.00140954
6 *297:16 0.00251971
7 *2234:A2 *2234:A1 9.55222e-06
8 *297:16 *2363:I 0.000487941
9 *297:16 *299:10 0.00261418
10 *297:16 *323:16 0
11 *297:16 *329:14 1.92848e-05
12 *297:33 *2106:B2 0.000170203
13 *297:33 *2107:A2 0.000748211
14 *297:33 *2233:A1 0.00138597
15 *297:33 *2234:A1 0
16 *297:33 *298:12 0
17 *297:33 *339:10 0.000231417
18 *2107:A1 *297:33 0.000612306
19 *2108:A2 *297:16 0.000204854
20 *2141:A2 *297:16 0
21 *2234:A3 *2234:A2 0.000648449
22 *2234:A3 *297:33 8.66771e-06
23 *2235:A2 *2234:A2 6.24803e-05
24 *2235:A2 *297:33 2.42537e-05
25 *2235:A3 *2234:A2 1.21574e-05
26 *2292:D *297:16 4.98809e-05
27 *2292:CLK *297:16 0.00374184
28 *2292:CLK *297:33 0.000102973
29 *2331:I *297:16 0.000369003
30 *2342:I *297:16 0.000264508
31 *2344:I *297:16 0.000145374
32 *2354:I *297:16 0.000200287
33 *2358:I *297:16 0.000358785
34 *222:10 *297:33 0
35 *257:10 *297:33 0.000461316
*RES
1 *2330:Z *297:16 27.4042 
2 *297:16 *2106:A2 4.5 
3 *297:16 *297:33 16.8182 
4 *297:33 *2234:A2 7.68182 
5 *297:33 *2233:A2 4.5 
*END

*D_NET *298 0.0153326
*CONN
*I *2103:A2 I *D gf180mcu_fd_sc_mcu7t5v0__aoi22_1
*I *2229:A2 I *D gf180mcu_fd_sc_mcu7t5v0__aoi21_1
*I *2230:A2 I *D gf180mcu_fd_sc_mcu7t5v0__and3_1
*I *2331:Z O *D gf180mcu_fd_sc_mcu7t5v0__buf_1
*CAP
1 *2103:A2 0
2 *2229:A2 0.000221004
3 *2230:A2 8.54437e-06
4 *2331:Z 0.00304732
5 *298:22 0.000663232
6 *298:12 0.003481
7 *2229:A2 *333:26 0.000256267
8 *2229:A2 *333:32 0.000666337
9 *2229:A2 *333:43 0.000119337
10 *2229:A2 *341:16 8.9073e-05
11 *298:12 *2231:A1 0.000115088
12 *298:12 *2367:I 0.00148641
13 *298:12 *333:10 0
14 *298:12 *333:12 0
15 *298:12 *333:14 0
16 *298:12 *333:16 0
17 *298:12 *333:18 0
18 *298:12 *333:20 0
19 *298:12 *333:26 0
20 *298:12 *339:10 0.000461302
21 *298:12 *339:25 0.000461302
22 *298:22 *2230:A1 8.49186e-05
23 *298:22 *2231:A1 0
24 *2107:A1 *298:12 6.66296e-05
25 *2229:B *2230:A2 4.85075e-05
26 *2229:B *298:22 3.20443e-05
27 *2230:A3 *298:22 0.000149643
28 *2231:A2 *2229:A2 0.000973837
29 *2231:A2 *298:12 0
30 *2231:A3 *298:22 0
31 *2237:B *298:12 0.000563809
32 *2260:D *298:22 4.33385e-06
33 *2260:CLK *2229:A2 2.4229e-05
34 *219:10 *298:12 4.98809e-05
35 *219:10 *298:22 0.000718685
36 *225:18 *298:12 0.000357697
37 *257:10 *298:12 0.000254404
38 *290:70 *2229:A2 1.81717e-05
39 *290:74 *2229:A2 8.9073e-05
40 *296:12 *298:12 0.000820562
41 *297:33 *298:12 0
*RES
1 *2331:Z *298:12 31.4091 
2 *298:12 *298:22 2.90909 
3 *298:22 *2230:A2 4.68182 
4 *298:22 *2229:A2 15.7532 
5 *298:12 *2103:A2 4.5 
*END

*D_NET *299 0.0156453
*CONN
*I *2226:A2 I *D gf180mcu_fd_sc_mcu7t5v0__and3_1
*I *2225:A2 I *D gf180mcu_fd_sc_mcu7t5v0__aoi21_1
*I *2100:A2 I *D gf180mcu_fd_sc_mcu7t5v0__aoi22_1
*I *2332:Z O *D gf180mcu_fd_sc_mcu7t5v0__buf_1
*CAP
1 *2226:A2 6.96734e-05
2 *2225:A2 0.00040627
3 *2100:A2 0.000234265
4 *2332:Z 0.00358919
5 *299:25 0.000531142
6 *299:10 0.00387865
7 *2100:A2 *2100:A1 4.85075e-05
8 *2100:A2 *2226:A1 2.42537e-05
9 *2100:A2 *341:16 0
10 *2225:A2 *2226:A1 0.000149643
11 *2225:A2 *333:49 3.69036e-05
12 *2225:A2 *333:57 8.87834e-05
13 *2225:A2 *333:61 0.00198866
14 *299:10 *2239:A1 0.000202473
15 *299:10 *323:16 8.66771e-06
16 *299:10 *335:16 0
17 *299:10 *335:22 0
18 *299:10 *340:12 0
19 *299:10 *341:16 0
20 *299:25 *2226:A1 4.98809e-05
21 *2104:A1 *299:10 0.000189369
22 *2225:B *2225:A2 0.00016533
23 *2226:A3 *2225:A2 0.000127417
24 *2226:A3 *299:25 9.64239e-06
25 *2261:CLK *2225:A2 6.06552e-05
26 *2292:CLK *299:10 0.000477349
27 *258:8 *299:10 0.000694354
28 *297:16 *299:10 0.00261418
*RES
1 *2332:Z *299:10 31.1818 
2 *299:10 *2100:A2 10 
3 *299:10 *299:25 4.95455 
4 *299:25 *2225:A2 8.66233 
5 *299:25 *2226:A2 4.86364 
*END

*D_NET *300 0.0306474
*CONN
*I *2221:A2 I *D gf180mcu_fd_sc_mcu7t5v0__aoi21_1
*I *2097:A2 I *D gf180mcu_fd_sc_mcu7t5v0__aoi22_1
*I *2222:A2 I *D gf180mcu_fd_sc_mcu7t5v0__and3_1
*I *2333:Z O *D gf180mcu_fd_sc_mcu7t5v0__buf_1
*CAP
1 *2221:A2 0
2 *2097:A2 0.000884138
3 *2222:A2 0.000275674
4 *2333:Z 0.00138365
5 *300:45 0.000906588
6 *300:28 0.00595557
7 *300:22 0.0070411
8 *2097:A2 *2097:A1 0.000994943
9 *2097:A2 *2221:A1 9.1555e-06
10 *2097:A2 *342:12 0.000328177
11 *2097:A2 *342:18 0
12 *2222:A2 *2220:A2 4.98809e-05
13 *300:22 *2118:A1 0
14 *300:22 *2119:A2 0.000188031
15 *300:22 *301:18 0
16 *300:22 *326:14 0.00224454
17 *300:22 *331:6 0.000156344
18 *300:22 *332:26 0.000977039
19 *300:22 *365:26 4.2082e-05
20 *300:22 *369:31 0
21 *300:28 *2112:A2 0
22 *300:28 *2113:A2 0.000214038
23 *300:28 *2240:A2 0.000345753
24 *300:28 *2242:A1 0.00014818
25 *300:28 *313:22 0
26 *300:28 *342:12 0.000378738
27 *300:28 *369:31 5.12588e-05
28 *300:28 *369:37 0.00220401
29 *300:28 *369:48 0.00029636
30 *300:45 *2221:A1 2.8611e-05
31 *2118:B1 *300:22 0.000153774
32 *2120:A2 *300:22 0.000457594
33 *2120:A3 *300:22 4.84579e-05
34 *2221:B *2097:A2 3.09934e-05
35 *2221:B *2222:A2 0.000268509
36 *2221:B *300:28 0.000298343
37 *2221:B *300:45 4.13245e-06
38 *2222:A3 *2222:A2 0.000648449
39 *2223:A2 *2097:A2 0.000134175
40 *2223:A3 *2097:A2 0.000487941
41 *2223:A3 *300:45 6.05696e-05
42 *2234:A3 *300:28 0.000973858
43 *2258:CLK *300:28 0
44 *2260:CLK *300:28 0.000133259
45 *2280:CLK *300:22 2.17096e-05
46 *2288:D *300:22 0.000208288
47 *2348:I *300:22 4.33308e-05
48 *2359:I *300:22 0.000138703
49 *222:10 *300:28 0.00056382
50 *260:18 *2097:A2 0.000447514
51 *290:44 *2097:A2 0
52 *290:52 *2097:A2 9.87866e-05
53 *290:70 *2222:A2 0.000291045
54 *290:70 *300:28 3.02862e-05
55 *296:12 *300:22 0
*RES
1 *2333:Z *300:22 28.1818 
2 *300:22 *300:28 30.8182 
3 *300:28 *2222:A2 11.1818 
4 *300:28 *300:45 4.7013 
5 *300:45 *2097:A2 19.2029 
6 *300:45 *2221:A2 4.5 
*END

*D_NET *301 0.0301651
*CONN
*I *2218:A2 I *D gf180mcu_fd_sc_mcu7t5v0__and3_1
*I *2094:A2 I *D gf180mcu_fd_sc_mcu7t5v0__aoi22_1
*I *2217:A2 I *D gf180mcu_fd_sc_mcu7t5v0__aoi21_1
*I *2334:Z O *D gf180mcu_fd_sc_mcu7t5v0__buf_1
*CAP
1 *2218:A2 2.54965e-05
2 *2094:A2 0.000168262
3 *2217:A2 2.72172e-05
4 *2334:Z 0.0046987
5 *301:27 0.00030154
6 *301:18 0.0048337
7 *2094:A2 *2094:A1 0.000550354
8 *2217:A2 *2217:A1 9.1555e-06
9 *2217:A2 *334:187 0.000188835
10 *2218:A2 *334:187 0
11 *301:18 *2057:A1 0.000768832
12 *301:18 *2059:A1 0.000358787
13 *301:18 *2146:A2 0.000461302
14 *301:18 *2244:A2 9.69716e-05
15 *301:18 *305:24 0
16 *301:18 *306:20 0.00589456
17 *301:18 *306:22 0.000358774
18 *301:18 *309:18 0.00716985
19 *301:18 *334:269 0.000240344
20 *301:18 *366:6 0.000630554
21 *301:18 *369:97 0.000501387
22 *301:27 *2218:A1 0.000149643
23 *301:27 *334:187 0.000399045
24 *2059:A3 *301:18 0.000115251
25 *2094:B1 *2094:A2 0.000256267
26 *2096:A3 *2094:A2 8.9073e-05
27 *2117:A2 *301:18 0.00026809
28 *2117:A3 *301:18 0.000123794
29 *2120:A2 *301:18 3.13867e-05
30 *2120:A3 *301:18 8.19472e-05
31 *2148:A3 *301:18 0
32 *2217:B *2217:A2 3.09934e-05
33 *2217:B *301:27 0.000208346
34 *2244:A1 *301:18 3.64721e-05
35 *2263:D *2094:A2 3.63434e-05
36 *2288:D *301:18 0.000656224
37 *2349:I *301:18 0
38 *231:10 *301:18 0
39 *285:16 *301:18 0.00014818
40 *296:12 *301:18 0.000249404
41 *300:22 *301:18 0
*RES
1 *2334:Z *301:18 49.9545 
2 *301:18 *2217:A2 4.84416 
3 *301:18 *301:27 0.999999 
4 *301:27 *2094:A2 14.6623 
5 *301:27 *2218:A2 4.68182 
*END

*D_NET *302 0.0329564
*CONN
*I *2213:A2 I *D gf180mcu_fd_sc_mcu7t5v0__aoi21_1
*I *2091:A2 I *D gf180mcu_fd_sc_mcu7t5v0__aoi22_1
*I *2214:A2 I *D gf180mcu_fd_sc_mcu7t5v0__and3_1
*I *2335:Z O *D gf180mcu_fd_sc_mcu7t5v0__buf_1
*CAP
1 *2213:A2 3.50056e-05
2 *2091:A2 0.000155725
3 *2214:A2 0.000316373
4 *2335:Z 0.00222589
5 *302:34 0.00190058
6 *302:20 0.00696436
7 *302:18 0.00772677
8 *2091:A2 *2091:A1 0.000388358
9 *2213:A2 *2213:A1 3.64721e-05
10 *2214:A2 *2214:A1 0.000414085
11 *2214:A2 *334:125 4.93933e-05
12 *302:18 *321:24 0.000164686
13 *302:18 *331:6 0.000221775
14 *302:18 *331:23 0.000206675
15 *302:18 *331:27 0.00172222
16 *302:20 *2246:A2 0.000984531
17 *302:20 *329:52 0.000411892
18 *302:20 *329:54 0.000278633
19 *302:20 *329:60 6.66296e-05
20 *302:34 *2213:A1 0.000466526
21 *302:34 *334:125 0.000362188
22 *2091:B1 *2091:A2 0.00019403
23 *2091:B1 *2214:A2 0.000266791
24 *2092:A1 *2214:A2 6.67623e-05
25 *2213:B *2213:A2 7.57616e-06
26 *2223:A3 *302:20 0.000461305
27 *2247:A2 *302:20 0.000263431
28 *2262:D *302:20 8.41641e-05
29 *2263:CLK *302:34 6.45727e-05
30 *2297:CLK *2091:A2 0.000189171
31 *2297:CLK *302:34 4.33385e-06
32 *2327:I *302:18 2.16693e-05
33 *2348:I *302:18 0.000970124
34 *2355:I *302:18 0.000777235
35 *262:12 *2214:A2 5.34098e-05
36 *262:12 *302:34 0.000307083
37 *287:13 *2214:A2 2.98343e-05
38 *290:37 *2213:A2 0.000188835
39 *290:37 *302:34 0.00186984
40 *294:12 *302:20 0
41 *294:18 *302:20 0.000568108
42 *294:31 *302:20 0.000736436
43 *295:16 *302:20 0.000732926
*RES
1 *2335:Z *302:18 24.6363 
2 *302:18 *302:20 33.9091 
3 *302:20 *302:34 18 
4 *302:34 *2214:A2 11.1818 
5 *302:34 *2091:A2 10.4351 
6 *302:20 *2213:A2 9.34416 
*END

*D_NET *303 0.0337194
*CONN
*I *2088:A2 I *D gf180mcu_fd_sc_mcu7t5v0__aoi22_1
*I *2209:A2 I *D gf180mcu_fd_sc_mcu7t5v0__aoi21_1
*I *2210:A2 I *D gf180mcu_fd_sc_mcu7t5v0__and3_1
*I *2336:Z O *D gf180mcu_fd_sc_mcu7t5v0__buf_1
*CAP
1 *2088:A2 6.66915e-05
2 *2209:A2 0.000273834
3 *2210:A2 0.000350906
4 *2336:Z 0.00311422
5 *303:20 0.000838871
6 *303:18 0.00272793
7 *303:16 0.00556133
8 *2088:A2 *2088:A1 4.98809e-05
9 *2209:A2 *2209:A1 6.06266e-05
10 *2210:A2 *334:95 0.000436841
11 *303:16 *2048:A2 0.000249404
12 *303:16 *2130:B2 9.55222e-06
13 *303:16 *2132:A1 0
14 *303:16 *2241:A1 6.07652e-05
15 *303:16 *2241:A2 0.000157219
16 *303:16 *2242:A2 3.29214e-05
17 *303:16 *308:18 6.07869e-05
18 *303:16 *308:26 0.00681159
19 *303:16 *337:31 0.000315299
20 *303:16 *369:37 7.29443e-05
21 *303:16 *369:67 0.000289254
22 *303:18 *2132:A1 0
23 *303:18 *2145:A1 0.000133259
24 *303:18 *2170:A2 0
25 *303:18 *334:87 0.000946846
26 *303:18 *334:173 0.000757477
27 *303:20 *334:87 4.2082e-05
28 *303:20 *334:89 0.000336656
29 *303:20 *334:95 0.000147287
30 *2088:B1 *2088:A2 2.30122e-05
31 *2090:A2 *2210:A2 0.000197573
32 *2132:A2 *303:16 0
33 *2132:A3 *303:16 1.58411e-05
34 *2138:A1 *303:16 0.000249404
35 *2149:A2 *303:16 0.000421925
36 *2211:A2 *2209:A2 4.85075e-05
37 *2243:A2 *303:16 4.49493e-05
38 *2243:A3 *303:16 0.000677678
39 *2257:D *303:16 0
40 *2284:D *303:16 0.000133731
41 *204:10 *2209:A2 0.000106106
42 *204:10 *2210:A2 0.000397706
43 *292:12 *2210:A2 6.31231e-05
44 *292:12 *303:16 0.00064429
45 *292:12 *303:18 0.00504981
46 *292:12 *303:20 0.000504984
47 *292:23 *303:16 0.000188832
48 *294:12 *303:16 0.000537999
49 *294:18 *303:16 0.000509495
*RES
1 *2336:Z *303:16 33.2727 
2 *303:16 *303:18 22.4545 
3 *303:18 *303:20 2.27273 
4 *303:20 *2210:A2 11.5455 
5 *303:20 *2209:A2 10.0714 
6 *303:18 *2088:A2 9.3539 
*END

*D_NET *304 0.0338636
*CONN
*I *2205:A2 I *D gf180mcu_fd_sc_mcu7t5v0__aoi21_1
*I *2206:A2 I *D gf180mcu_fd_sc_mcu7t5v0__and3_1
*I *2085:A2 I *D gf180mcu_fd_sc_mcu7t5v0__aoi22_1
*I *2337:Z O *D gf180mcu_fd_sc_mcu7t5v0__buf_1
*CAP
1 *2205:A2 0.000136338
2 *2206:A2 2.54965e-05
3 *2085:A2 0.000304889
4 *2337:Z 0.00375945
5 *304:35 0.000218461
6 *304:20 0.00370285
7 *304:18 0.00710078
8 *2085:A2 *2085:A1 7.92523e-05
9 *2085:A2 *2207:A1 0.000509071
10 *2205:A2 *2085:A1 2.9451e-05
11 *2205:A2 *2205:A1 9.1555e-06
12 *2205:A2 *334:63 0.000353412
13 *2206:A2 *334:59 0
14 *304:18 *2049:A2 0.000394927
15 *304:18 *2059:A1 0
16 *304:18 *2079:B2 0.000997526
17 *304:18 *2130:A1 0.00079791
18 *304:18 *308:18 0.000217693
19 *304:18 *308:26 0.000710869
20 *304:18 *320:28 0.000598568
21 *304:18 *328:8 0.000395338
22 *304:18 *328:18 2.89272e-05
23 *304:18 *329:14 0.00062045
24 *304:18 *329:18 0.000106066
25 *304:18 *329:24 0
26 *304:18 *329:26 0
27 *304:18 *334:10 0.00304255
28 *304:18 *337:14 0.00148291
29 *304:18 *349:6 0.000548687
30 *304:18 *369:316 4.80664e-05
31 *304:18 *369:329 0.00200583
32 *304:18 *369:350 0.00035163
33 *304:20 *2207:A1 0.00083536
34 *304:20 *328:45 0.000507129
35 *304:20 *328:199 0.000757477
36 *304:20 *334:25 0
37 *304:35 *2085:A1 0.000121225
38 *2049:B *304:18 0.00058788
39 *2051:A2 *304:18 0
40 *2051:A3 *304:18 0.000358911
41 *2087:A2 *2085:A2 8.41641e-05
42 *2199:A2 *304:20 0
43 *2205:B *2205:A2 1.93476e-05
44 *2206:A3 *2205:A2 4.98809e-05
45 *2206:A3 *304:35 0.000249315
46 *2207:A2 *2205:A2 0.000231277
47 *2207:A3 *2085:A2 0.000507183
48 *2207:A3 *304:20 0.00020884
49 *2240:A1 *304:18 3.20443e-05
50 *2266:D *2085:A2 0.000218284
51 *2269:D *304:20 0
52 *2337:I *304:18 8.01107e-05
53 *228:10 *304:18 0.000171911
54 *286:10 *304:18 0.000266748
*RES
1 *2337:Z *304:18 48.3636 
2 *304:18 *304:20 16.4545 
3 *304:20 *2085:A2 11.4497 
4 *304:20 *304:35 4.95455 
5 *304:35 *2206:A2 4.68182 
6 *304:35 *2205:A2 5.93506 
*END

*D_NET *305 0.0338982
*CONN
*I *2082:A2 I *D gf180mcu_fd_sc_mcu7t5v0__aoi22_1
*I *2201:A2 I *D gf180mcu_fd_sc_mcu7t5v0__aoi21_1
*I *2202:A2 I *D gf180mcu_fd_sc_mcu7t5v0__and3_1
*I *2338:Z O *D gf180mcu_fd_sc_mcu7t5v0__buf_1
*CAP
1 *2082:A2 0
2 *2201:A2 0.000362264
3 *2202:A2 0.000120101
4 *2338:Z 0.00500456
5 *305:36 0.000670087
6 *305:34 0.00115862
7 *305:24 0.00597546
8 *2201:A2 *328:173 0.000442268
9 *2201:A2 *334:33 0.000205014
10 *2201:A2 *334:37 0.00087133
11 *2202:A2 *2202:A1 0.000121225
12 *305:24 *2057:A1 0.000328057
13 *305:24 *2057:A2 4.33103e-05
14 *305:24 *2058:A1 4.33385e-06
15 *305:24 *2059:A1 3.02862e-05
16 *305:24 *2080:A2 5.19985e-05
17 *305:24 *2112:A1 3.64721e-05
18 *305:24 *2141:A1 0.000433864
19 *305:24 *2146:A2 0
20 *305:24 *2240:A2 0.000266748
21 *305:24 *2367:I 3.64721e-05
22 *305:24 *313:22 0.00593554
23 *305:24 *317:14 0.000100512
24 *305:24 *329:14 0.000547082
25 *305:24 *329:18 0.000121574
26 *305:24 *329:24 0.000997615
27 *305:24 *329:26 0.00244407
28 *305:24 *333:10 0.000648449
29 *305:34 *2082:A1 2.42537e-05
30 *305:34 *334:33 0.000543326
31 *305:36 *2082:A1 0.00019403
32 *305:36 *2202:A1 4.85075e-05
33 *2056:A1 *305:24 0
34 *2057:B *305:24 1.25888e-05
35 *2058:A3 *305:24 0.00025285
36 *2059:A2 *305:24 0.000122921
37 *2059:A3 *305:24 0.00017329
38 *2080:A1 *305:24 0
39 *2141:A2 *305:24 0
40 *2147:A1 *305:24 0.000109416
41 *2148:A3 *305:24 0.000144586
42 *2196:A1 *305:24 0.000123313
43 *2201:B *2201:A2 0.000507183
44 *2201:B *2202:A2 4.98809e-05
45 *2203:A3 *2201:A2 0.000164644
46 *2248:D *305:24 0.000144586
47 *2249:D *305:24 0
48 *2269:CLK *305:34 6.52758e-05
49 *2301:D *305:24 8.66771e-06
50 *2302:CLK *305:34 0.000970106
51 *2331:I *305:24 0.00170208
52 *2358:I *305:24 0.000149643
53 *195:10 *305:24 0.000171911
54 *252:6 *305:24 0.000116146
55 *289:71 *305:24 0.00109317
56 *289:71 *305:34 4.85075e-05
57 *301:18 *305:24 0
*RES
1 *2338:Z *305:24 48.4091 
2 *305:24 *305:34 16.2727 
3 *305:34 *305:36 0.90909 
4 *305:36 *2202:A2 5.13636 
5 *305:36 *2201:A2 16.4805 
6 *305:34 *2082:A2 4.5 
*END

*D_NET *306 0.0309886
*CONN
*I *2057:A2 I *D gf180mcu_fd_sc_mcu7t5v0__aoi21_1
*I *2058:A2 I *D gf180mcu_fd_sc_mcu7t5v0__and3_1
*I *2146:A2 I *D gf180mcu_fd_sc_mcu7t5v0__aoi22_1
*I *2339:Z O *D gf180mcu_fd_sc_mcu7t5v0__buf_1
*CAP
1 *2057:A2 1.87773e-05
2 *2058:A2 0.000205263
3 *2146:A2 0.000456079
4 *2339:Z 0.00431846
5 *306:22 0.000720385
6 *306:20 0.00439628
7 *2058:A2 *2057:A1 0.000448837
8 *2058:A2 *2058:A1 4.98809e-05
9 *2146:A2 *2056:A2 5.90759e-05
10 *2146:A2 *334:269 6.93417e-05
11 *2146:A2 *348:6 5.50994e-06
12 *306:20 *2032:A2 0.000149643
13 *306:20 *2033:A2 0.000587791
14 *306:20 *2034:A1 9.97618e-05
15 *306:20 *2034:A2 0.000173896
16 *306:20 *2175:A2 0
17 *306:20 *307:30 0.00251675
18 *306:20 *310:18 0.00203272
19 *306:20 *321:24 8.86264e-05
20 *306:20 *365:20 0.00304263
21 *306:20 *369:16 0.000512538
22 *2032:A1 *306:20 0.000598568
23 *2033:B *306:20 4.80664e-05
24 *2035:A2 *306:20 4.84642e-05
25 *2056:A1 *2146:A2 0.000737522
26 *2057:B *306:20 0.000512521
27 *2057:B *306:22 0.00025627
28 *2058:A3 *2057:A2 8.9073e-05
29 *2058:A3 *2058:A2 0.000282329
30 *2058:A3 *2146:A2 4.33385e-06
31 *2059:A2 *306:20 0.00041768
32 *2142:A1 *306:20 0
33 *2148:A2 *2146:A2 0.00023734
34 *2280:D *306:20 0.000208259
35 *2343:I *306:20 0.000319589
36 *234:14 *306:20 1.60221e-05
37 *252:6 *2146:A2 0.000101762
38 *285:10 *306:20 0.000267049
39 *285:16 *306:20 0.000133525
40 *301:18 *2146:A2 0.000461302
41 *301:18 *306:20 0.00589456
42 *301:18 *306:22 0.000358774
43 *305:24 *2057:A2 4.33103e-05
44 *305:24 *2146:A2 0
*RES
1 *2339:Z *306:20 45.0909 
2 *306:20 *306:22 0.636363 
3 *306:22 *2146:A2 12.526 
4 *306:22 *2058:A2 10.5455 
5 *306:20 *2057:A2 9.16234 
*END

*D_NET *307 0.036505
*CONN
*I *2079:A2 I *D gf180mcu_fd_sc_mcu7t5v0__aoi22_1
*I *2198:A2 I *D gf180mcu_fd_sc_mcu7t5v0__and3_1
*I *2197:A2 I *D gf180mcu_fd_sc_mcu7t5v0__aoi21_1
*I *2340:Z O *D gf180mcu_fd_sc_mcu7t5v0__buf_1
*CAP
1 *2079:A2 0
2 *2198:A2 0.000104165
3 *2197:A2 0.000128347
4 *2340:Z 0.00414614
5 *307:48 0.00187591
6 *307:36 0.00290507
7 *307:30 0.00540782
8 *2197:A2 *328:152 0.000169733
9 *2197:A2 *328:161 9.18177e-05
10 *2197:A2 *334:51 0.000124744
11 *2198:A2 *328:152 9.7015e-05
12 *307:30 *2033:A1 0.00019403
13 *307:30 *2033:A2 0.000587791
14 *307:30 *2034:A1 9.97618e-05
15 *307:30 *2046:A2 1.30016e-05
16 *307:30 *321:24 0.00205771
17 *307:30 *322:16 0.000363806
18 *307:30 *331:36 8.01107e-05
19 *307:30 *331:53 0.000688952
20 *307:30 *365:20 0.000847884
21 *307:30 *369:16 0.00109737
22 *307:30 *369:291 0.000143017
23 *307:36 *2073:A2 0.00169143
24 *307:36 *2170:A2 0.00189648
25 *307:36 *2190:A2 0.000768847
26 *307:36 *334:10 4.72082e-05
27 *307:36 *369:291 0.000273533
28 *307:36 *369:297 0.000179006
29 *307:36 *369:299 0.00020884
30 *307:36 *369:303 0.00122321
31 *307:36 *369:316 4.72084e-05
32 *307:48 *2196:A2 0.000447514
33 *307:48 *328:32 0.000106066
34 *307:48 *334:10 0.000437867
35 *307:48 *334:51 0.000358774
36 *307:48 *349:10 0.00127598
37 *307:48 *369:316 0.000202195
38 *2074:A1 *307:30 0.000691205
39 *2079:B1 *307:48 1.06171e-05
40 *2197:B *2197:A2 8.65997e-06
41 *2197:B *2198:A2 2.16615e-05
42 *2198:A3 *307:48 0.000126246
43 *2199:A3 *307:48 0.000358774
44 *2252:D *307:30 0.000598568
45 *2252:CLK *307:30 0
46 *2269:D *307:48 0.000146877
47 *2280:D *307:30 0.000648361
48 *195:10 *307:48 0.000988928
49 *269:8 *307:36 0
50 *295:16 *307:30 0
51 *306:20 *307:30 0.00251675
*RES
1 *2340:Z *307:30 49.0909 
2 *307:30 *307:36 14.4042 
3 *307:36 *307:48 20.7321 
4 *307:48 *2197:A2 5.38961 
5 *307:48 *2198:A2 5.13636 
6 *307:36 *2079:A2 4.5 
*END

*D_NET *308 0.0342456
*CONN
*I *2193:A2 I *D gf180mcu_fd_sc_mcu7t5v0__aoi21_1
*I *2194:A2 I *D gf180mcu_fd_sc_mcu7t5v0__and3_1
*I *2076:A2 I *D gf180mcu_fd_sc_mcu7t5v0__aoi22_1
*I *2341:Z O *D gf180mcu_fd_sc_mcu7t5v0__buf_1
*CAP
1 *2193:A2 3.3916e-05
2 *2194:A2 0.00019383
3 *2076:A2 0.000336142
4 *2341:Z 0.00182002
5 *308:28 0.000555705
6 *308:26 0.00347119
7 *308:18 0.00523156
8 *2076:A2 *2076:A1 0.000713543
9 *2076:A2 *2078:A1 0.000154023
10 *2076:A2 *334:29 0
11 *2193:A2 *2193:A1 4.33103e-05
12 *2194:A2 *2076:A1 0
13 *2194:A2 *2193:A1 2.43148e-05
14 *308:18 *2137:A1 0.0016084
15 *308:18 *2137:A2 7.27612e-05
16 *308:18 *2242:A1 0.000498718
17 *308:18 *2242:A2 0.000104805
18 *308:18 *321:24 0.00179384
19 *308:18 *323:16 0.000358011
20 *308:18 *329:14 0
21 *308:18 *337:14 0.000848838
22 *308:18 *369:67 0.00118624
23 *308:26 *2078:A1 0.000307825
24 *308:26 *2079:B2 0.000255283
25 *308:26 *2193:A1 0.000288507
26 *308:26 *320:28 0
27 *308:26 *334:10 0.000410881
28 *308:26 *337:14 0.000597828
29 *308:26 *349:6 0.000133731
30 p *308:18 0.000192266
31 *2049:B *308:26 0.000191913
32 *2078:A2 *2076:A2 0
33 *2193:B *308:26 3.91921e-05
34 *2195:A2 *2193:A2 4.85075e-05
35 *2195:A2 *2194:A2 0.000648447
36 *2195:A2 *308:26 2.70653e-05
37 *2195:A2 *308:28 2.70653e-05
38 *2195:A3 *2194:A2 7.27612e-05
39 *2337:I *308:18 6.06585e-05
40 *2344:I *308:18 0.00169137
41 *2354:I *308:18 0.000607416
42 *2358:I *308:18 0.000242537
43 *192:8 *2076:A2 4.72081e-05
44 *192:8 *308:26 0.00012265
45 *292:12 *308:26 0.00112083
46 *292:23 *308:26 0.000261594
47 *303:16 *308:18 6.07869e-05
48 *303:16 *308:26 0.00681159
49 *304:18 *308:18 0.000217693
50 *304:18 *308:26 0.000710869
*RES
1 *2341:Z *308:18 28.6818 
2 *308:18 *308:26 26.6461 
3 *308:26 *308:28 0.454545 
4 *308:28 *2076:A2 6.9448 
5 *308:28 *2194:A2 6.69156 
6 *308:26 *2193:A2 5.05519 
*END

*D_NET *309 0.0322348
*CONN
*I *2189:A2 I *D gf180mcu_fd_sc_mcu7t5v0__aoi21_1
*I *2073:A2 I *D gf180mcu_fd_sc_mcu7t5v0__aoi22_1
*I *2190:A2 I *D gf180mcu_fd_sc_mcu7t5v0__and3_1
*I *2342:Z O *D gf180mcu_fd_sc_mcu7t5v0__buf_1
*CAP
1 *2189:A2 0
2 *2073:A2 0.000245548
3 *2190:A2 9.67164e-05
4 *2342:Z 0.00377959
5 *309:22 0.000384023
6 *309:18 0.00382135
7 *2073:A2 *369:291 4.59089e-05
8 *2073:A2 *369:295 0.00117887
9 *2073:A2 *369:297 0.000307529
10 *2190:A2 *369:297 0.000768849
11 *309:18 *2189:A1 1.60221e-05
12 *309:18 *320:20 0.00410098
13 *309:18 *325:14 0.002409
14 *309:18 *329:14 0.000548687
15 *309:22 *2189:A1 3.54776e-05
16 *2075:A2 *2073:A2 9.44174e-05
17 *2131:A1 *309:18 0.000338648
18 *2132:A3 *309:18 1.82517e-05
19 *2140:A3 *309:18 0.000666327
20 *2141:A2 *309:18 0.00131271
21 *2190:A3 *309:22 4.33385e-06
22 *2334:I *309:18 0.000149643
23 *2337:I *309:18 0.000548687
24 *255:8 *309:18 0.000133525
25 *280:10 *309:18 0.000176215
26 *294:43 *309:18 0.000435039
27 *294:52 *309:18 0.000707711
28 *294:65 *309:18 3.63434e-05
29 *296:12 *309:18 0.000244309
30 *301:18 *309:18 0.00716985
31 *307:36 *2073:A2 0.00169143
32 *307:36 *2190:A2 0.000768847
*RES
1 *2342:Z *309:18 46.2078 
2 *309:18 *309:22 4.7013 
3 *309:22 *2190:A2 10.5455 
4 *309:22 *2073:A2 12.1721 
5 *309:18 *2189:A2 4.5 
*END

*D_NET *310 0.0229656
*CONN
*I *2070:A2 I *D gf180mcu_fd_sc_mcu7t5v0__aoi22_1
*I *2186:A2 I *D gf180mcu_fd_sc_mcu7t5v0__and3_1
*I *2185:A2 I *D gf180mcu_fd_sc_mcu7t5v0__aoi21_1
*I *2343:Z O *D gf180mcu_fd_sc_mcu7t5v0__buf_1
*CAP
1 *2070:A2 0.000892349
2 *2186:A2 8.49755e-05
3 *2185:A2 0.000121663
4 *2343:Z 0.00343749
5 *310:29 0.00107631
6 *310:18 0.00365813
7 *2070:A2 *2070:B2 7.17414e-05
8 *2070:A2 *331:87 0.000263431
9 *2070:A2 *369:234 0
10 *2185:A2 *2185:A1 0.000230829
11 *2186:A2 *2185:A1 0.000121225
12 *310:18 *2045:A1 0.000184966
13 *310:18 *2045:A2 5.42933e-05
14 *310:18 *2066:I 0.00041227
15 *310:18 *2175:A1 0
16 *310:18 *2175:A2 0.000508027
17 *310:18 *331:72 0.00160014
18 *310:18 *331:87 0.000115251
19 *310:18 *361:10 7.27179e-05
20 *310:18 *365:20 0.000646924
21 *310:18 *369:10 0.000143938
22 *310:29 *331:87 0.000131715
23 *2032:A1 *310:18 0.000218284
24 *2033:B *310:18 0.000509796
25 *2035:A2 *310:18 4.84269e-05
26 *2035:A3 *310:18 3.8053e-05
27 *2047:A2 *310:18 1.86485e-05
28 *2047:A3 *310:18 4.86295e-05
29 *2072:A2 *2070:A2 0.000503717
30 *2136:A1 *310:18 7.29443e-05
31 *2186:A3 *2186:A2 0.000146807
32 *2187:A3 *2070:A2 0.000461281
33 *2187:A3 *310:18 0.000919346
34 *2187:A3 *310:29 0.000461281
35 *2255:CLK *310:18 0.000108722
36 *2285:CLK *310:18 0.00169294
37 *2312:CLK *310:18 2.68609e-05
38 *179:12 *2185:A2 0.000237297
39 *179:12 *310:18 0
40 *186:14 *2070:A2 8.01148e-05
41 *234:14 *310:18 0.000947557
42 *270:12 *2070:A2 0.000563801
43 *306:20 *310:18 0.00203272
*RES
1 *2343:Z *310:18 38.8182 
2 *310:18 *2185:A2 9.88961 
3 *310:18 *310:29 0.818181 
4 *310:29 *2186:A2 9.63636 
5 *310:29 *2070:A2 14.5454 
*END

*D_NET *311 0.0461369
*CONN
*I *2181:A2 I *D gf180mcu_fd_sc_mcu7t5v0__aoi21_1
*I *2182:A2 I *D gf180mcu_fd_sc_mcu7t5v0__and3_1
*I *2067:A2 I *D gf180mcu_fd_sc_mcu7t5v0__aoi22_1
*I *2344:Z O *D gf180mcu_fd_sc_mcu7t5v0__buf_1
*CAP
1 *2181:A2 0
2 *2182:A2 4.46188e-05
3 *2067:A2 0.000175581
4 *2344:Z 0.0031297
5 *311:32 0.000398694
6 *311:30 0.00455167
7 *311:12 0.00750287
8 *2067:A2 *2067:A1 0.000648449
9 *2067:A2 *369:439 9.97618e-05
10 *311:12 *2137:A2 0.000736436
11 *311:12 *2150:A2 0.00712485
12 *311:12 *2366:I 0.000563798
13 *311:12 *323:16 0.000905544
14 *311:12 *335:10 0.00128138
15 *311:12 *335:12 0.000298343
16 *311:12 *335:14 0.00062652
17 *311:30 *2124:A2 0.000118947
18 *311:30 *2125:A2 0.000498718
19 *311:30 *2150:A1 0
20 *311:30 *2150:A2 0
21 *311:30 *2160:A1 6.3233e-05
22 *311:30 *2160:A2 0.00412674
23 *311:30 *330:67 0.000312824
24 *311:30 *363:12 0
25 *311:30 *369:226 0.0004889
26 *311:30 *369:439 3.91921e-05
27 *311:32 *369:439 0.00135738
28 *2041:B *311:30 0.000316569
29 *2043:A3 *311:30 7.27612e-05
30 *2062:A2 *311:30 0
31 *2067:B1 *2067:A2 2.43148e-05
32 *2124:B1 *311:30 0.000169776
33 *2126:A2 *311:30 0
34 *2181:B *2067:A2 1.92848e-05
35 *2181:B *311:32 0.000114717
36 *2182:A3 *2067:A2 4.80664e-05
37 *2272:CLK *2182:A2 0
38 *2272:CLK *311:30 0.00058788
39 *2272:CLK *311:32 0.000719636
40 *2279:D *311:30 0.000149643
41 *2279:CLK *311:30 4.60244e-05
42 *2286:D *311:30 1.30016e-05
43 *2309:CLK *311:30 0
44 *2329:I *311:12 0.000358787
45 *2335:I *311:12 0.000805526
46 *2338:I *311:12 0.00176022
47 *2341:I *311:12 0.000176186
48 *2345:I *311:12 0
49 *2350:I *311:12 0.000266705
50 *2352:I *311:12 0.00020884
51 *2356:I *311:12 0.000121145
52 *2360:I *311:12 0.00176022
53 *159:12 *311:12 0.000102973
54 *183:12 *2067:A2 3.46708e-05
55 *240:10 *311:30 0.00156958
56 *282:16 *311:30 0
57 *293:53 *2067:A2 0
58 *293:96 *311:30 0.00159618
59 *293:107 *311:30 0
*RES
1 *2344:Z *311:12 43.6818 
2 *311:12 *311:30 38.435 
3 *311:30 *311:32 2.56493 
4 *311:32 *2067:A2 6.31818 
5 *311:32 *2182:A2 4.86364 
6 *311:30 *2181:A2 4.5 
*END

*D_NET *312 0.0159303
*CONN
*I *2175:A2 I *D gf180mcu_fd_sc_mcu7t5v0__nand2_1
*I *2345:Z O *D gf180mcu_fd_sc_mcu7t5v0__buf_1
*CAP
1 *2175:A2 0.00378554
2 *2345:Z 0.00378554
3 *2175:A2 *2044:A2 0.000349165
4 *2175:A2 *2045:A1 0.000787403
5 *2175:A2 *2045:A2 1.47625e-05
6 *2175:A2 *2175:A1 1.60221e-05
7 *2175:A2 *323:16 0.000190674
8 *2175:A2 *324:12 0
9 *2175:A2 *330:12 0.000291944
10 *2175:A2 *330:27 0.000164912
11 *2175:A2 *369:6 0.000121225
12 *2175:A2 *369:10 0.00099436
13 *2175:A2 *369:236 0.000160221
14 *2175:A2 *369:273 0.00044862
15 *2035:A2 *2175:A2 0.000275248
16 *2035:A3 *2175:A2 2.73954e-05
17 *2044:A1 *2175:A2 9.97618e-05
18 *2046:A3 *2175:A2 0.000110451
19 *2047:A2 *2175:A2 3.72035e-05
20 *2129:A2 *2175:A2 0
21 *2129:A3 *2175:A2 7.1199e-06
22 *2136:A1 *2175:A2 0.000133731
23 *2142:A1 *2175:A2 9.79138e-05
24 *2142:A2 *2175:A2 1.92848e-05
25 *2187:A2 *2175:A2 0
26 *2255:D *2175:A2 0.000417141
27 *2255:CLK *2175:A2 0.000124744
28 *2285:D *2175:A2 3.27361e-05
29 *2285:CLK *2175:A2 0.00169953
30 *2287:D *2175:A2 0
31 *2287:CLK *2175:A2 0.000285848
32 *2312:D *2175:A2 0.000303913
33 *2312:CLK *2175:A2 3.20443e-05
34 *234:14 *2175:A2 0
35 *243:10 *2175:A2 0.000607856
36 *306:20 *2175:A2 0
37 *310:18 *2175:A2 0.000508027
*RES
1 *2345:Z *2175:A2 38.4545 
*END

*D_NET *313 0.0266952
*CONN
*I *2170:A2 I *D gf180mcu_fd_sc_mcu7t5v0__nand2_1
*I *2346:Z O *D gf180mcu_fd_sc_mcu7t5v0__buf_1
*CAP
1 *2170:A2 0.000650178
2 *2346:Z 0.00436971
3 *313:22 0.00501989
4 *2170:A2 *2079:B2 0.00097385
5 *2170:A2 *328:118 0.000168328
6 *2170:A2 *369:303 4.2082e-05
7 *313:22 *2059:A1 0.000402009
8 *313:22 *2081:A1 0.000349075
9 *313:22 *2112:A1 0.000373823
10 *313:22 *2112:A2 0.000593135
11 *313:22 *2141:A1 0.000103997
12 *313:22 *2367:I 3.64721e-05
13 *313:22 *328:8 0.000446994
14 *313:22 *328:18 3.39571e-05
15 *313:22 *328:20 0.000340407
16 *313:22 *328:32 0.000145985
17 *313:22 *329:26 3.85461e-05
18 *313:22 *333:10 0.000179006
19 *313:22 *333:12 0.000268509
20 *313:22 *367:8 0.000448839
21 *2051:A2 *313:22 0.000206675
22 *2051:A3 *313:22 3.98454e-05
23 *2059:A2 *313:22 8.01107e-05
24 *2080:A1 *313:22 0.000113037
25 *2081:A2 *2170:A2 0.000768774
26 *2114:A2 *313:22 6.40885e-05
27 *2141:A2 *313:22 0.000748211
28 *2248:D *313:22 1.08548e-05
29 *2249:D *313:22 0.000221775
30 *2290:D *313:22 0.000115691
31 *2292:CLK *313:22 0.000167598
32 *2341:I *313:22 0.000648272
33 *2350:I *313:22 4.33385e-05
34 *175:16 *2170:A2 3.20443e-05
35 *291:69 *313:22 9.62517e-06
36 *291:90 *313:22 0.000410909
37 *292:12 *2170:A2 0.000197573
38 *300:28 *313:22 0
39 *303:18 *2170:A2 0
40 *305:24 *313:22 0.00593554
41 *307:36 *2170:A2 0.00189648
*RES
1 *2346:Z *313:22 49.2727 
2 *313:22 *2170:A2 14.5454 
*END

*D_NET *314 0.0142782
*CONN
*I *2165:A2 I *D gf180mcu_fd_sc_mcu7t5v0__nand2_1
*I *2347:Z O *D gf180mcu_fd_sc_mcu7t5v0__buf_1
*CAP
1 *2165:A2 0.00481251
2 *2347:Z 0.00481251
3 *2165:A2 *2120:A1 0.000312824
4 *2165:A2 *2122:A2 0.000145325
5 *2165:A2 *2136:A2 0
6 *2165:A2 *2160:A2 0
7 *2165:A2 *2165:A1 3.02848e-05
8 *2165:A2 *322:16 0
9 *2165:A2 *364:10 0.000377463
10 *2165:A2 *369:170 0.000218811
11 *2165:A2 *369:174 0.000386729
12 *2165:A2 *369:510 2.42537e-05
13 *2165:A2 *369:518 0.000339509
14 *2120:A3 *2165:A2 0.00010682
15 *2121:B1 *2165:A2 4.98809e-05
16 *2123:A3 *2165:A2 9.44174e-05
17 *283:8 *2165:A2 0.0012969
18 *283:19 *2165:A2 0.000722584
19 *295:106 *2165:A2 0.000160164
20 *295:119 *2165:A2 0.000240332
21 *296:12 *2165:A2 0.000146877
*RES
1 *2347:Z *2165:A2 46 
*END

*D_NET *315 0.019351
*CONN
*I *2160:A2 I *D gf180mcu_fd_sc_mcu7t5v0__nand2_1
*I *2348:Z O *D gf180mcu_fd_sc_mcu7t5v0__buf_1
*CAP
1 *2160:A2 0.00287033
2 *2348:Z 0.00287033
3 *2160:A2 *2136:A2 0.00261403
4 *2160:A2 *2158:A2 0
5 *2160:A2 *2160:A1 3.02848e-05
6 *2160:A2 *332:26 0.000263431
7 *2160:A2 *332:39 4.93933e-05
8 *2160:A2 *332:54 0.000889079
9 *2160:A2 *369:560 0.000547067
10 *2136:A1 *2160:A2 0.0012814
11 *2159:A2 *2160:A2 0
12 *2165:A2 *2160:A2 0
13 *2277:D *2160:A2 0.000134349
14 *2279:D *2160:A2 0
15 *2279:CLK *2160:A2 0.000240344
16 *276:8 *2160:A2 0.00128142
17 *276:12 *2160:A2 0.000973858
18 *279:10 *2160:A2 0.00117892
19 *311:30 *2160:A2 0.00412674
*RES
1 *2348:Z *2160:A2 42.6363 
*END

*D_NET *316 0.0159829
*CONN
*I *2155:A2 I *D gf180mcu_fd_sc_mcu7t5v0__nand2_1
*I *2349:Z O *D gf180mcu_fd_sc_mcu7t5v0__buf_1
*CAP
1 *2155:A2 0.00138234
2 *2349:Z 0.00138234
3 *2155:A2 *2155:A1 9.72772e-06
4 *2155:A2 *319:14 0
5 *2155:A2 *332:26 0.00292145
6 *2155:A2 *332:39 0.00292145
7 *2155:A2 *332:54 0.000737442
8 *2155:A2 *369:575 0.00254147
9 *2134:B *2155:A2 5.96686e-05
10 *2142:A2 *2155:A2 0
11 *2156:A1 *2155:A2 2.90909e-05
12 *2279:CLK *2155:A2 0.000256281
13 *2312:CLK *2155:A2 0.00266524
14 *294:65 *2155:A2 0.00107639
*RES
1 *2349:Z *2155:A2 32.7273 
*END

*D_NET *317 0.0172017
*CONN
*I *2053:A2 I *D gf180mcu_fd_sc_mcu7t5v0__aoi21_1
*I *2054:A2 I *D gf180mcu_fd_sc_mcu7t5v0__and3_1
*I *2143:A2 I *D gf180mcu_fd_sc_mcu7t5v0__aoi22_1
*I *2350:Z O *D gf180mcu_fd_sc_mcu7t5v0__buf_1
*CAP
1 *2053:A2 4.43256e-05
2 *2054:A2 2.54965e-05
3 *2143:A2 0.000383854
4 *2350:Z 0.00603481
5 *317:16 0.000538725
6 *317:14 0.00620851
7 *2053:A2 *2053:A1 9.1555e-06
8 *2143:A2 *2052:A2 5.26254e-06
9 *2143:A2 *2054:A1 2.42537e-05
10 *2143:A2 *2143:A1 0.000218284
11 *2143:A2 *334:177 5.96686e-05
12 *2143:A2 *359:8 4.33385e-06
13 *2143:A2 *359:10 2.94083e-05
14 *317:14 *334:248 0.00107403
15 *2053:B *317:14 0.000512553
16 *2053:B *317:16 0.000666364
17 *2251:D *2143:A2 0
18 *2251:D *317:14 0
19 *2251:D *317:16 0
20 *249:12 *2143:A2 0.00115963
21 *249:12 *317:16 0.000102518
22 *293:16 *317:14 0
23 *305:24 *317:14 0.000100512
*RES
1 *2350:Z *317:14 46.7272 
2 *317:14 *317:16 1.36363 
3 *317:16 *2143:A2 11.4545 
4 *317:16 *2054:A2 9.18182 
5 *317:14 *2053:A2 9.16234 
*END

*D_NET *318 0.0111215
*CONN
*I *2150:A2 I *D gf180mcu_fd_sc_mcu7t5v0__nand2_1
*I *2351:Z O *D gf180mcu_fd_sc_mcu7t5v0__buf_1
*CAP
1 *2150:A2 0.00139369
2 *2351:Z 0.00139369
3 *2150:A2 *2150:A1 1.47255e-05
4 *2150:A2 *2156:A2 0
5 *2150:A2 *319:14 9.87866e-05
6 *2150:A2 *323:16 0.000988928
7 *2061:A2 *2150:A2 0
8 *2142:A2 *2150:A2 0.00010682
9 *2156:A1 *2150:A2 0
10 *311:12 *2150:A2 0.00712485
11 *311:30 *2150:A2 0
*RES
1 *2351:Z *2150:A2 32 
*END

*D_NET *319 0.014947
*CONN
*I *2134:A2 I *D gf180mcu_fd_sc_mcu7t5v0__aoi21_1
*I *2133:A2 I *D gf180mcu_fd_sc_mcu7t5v0__and3_1
*I *2352:Z O *D gf180mcu_fd_sc_mcu7t5v0__buf_1
*CAP
1 *2134:A2 0
2 *2133:A2 0.000227974
3 *2352:Z 0.0011191
4 *319:14 0.00134708
5 *2133:A2 *2136:A2 0.000808693
6 *2133:A2 *324:12 0.00140726
7 *319:14 *2136:A2 0.000887165
8 *319:14 *321:24 0.00199895
9 *319:14 *323:16 0.00456183
10 *319:14 *324:12 0.000837284
11 *2133:A3 *2133:A2 0.000291045
12 *2142:A2 *319:14 0.000768836
13 *2150:A2 *319:14 9.87866e-05
14 *2155:A2 *319:14 0
15 *2280:D *319:14 0
16 *2312:CLK *319:14 0
17 *2349:I *319:14 0.000144171
18 *2359:I *319:14 0.000448837
*RES
1 *2352:Z *319:14 24.5714 
2 *319:14 *2133:A2 7.24675 
3 *319:14 *2134:A2 4.5 
*END

*D_NET *320 0.0269552
*CONN
*I *2130:A2 I *D gf180mcu_fd_sc_mcu7t5v0__aoi22_1
*I *2050:A2 I *D gf180mcu_fd_sc_mcu7t5v0__and3_1
*I *2049:A2 I *D gf180mcu_fd_sc_mcu7t5v0__aoi21_1
*I *2353:Z O *D gf180mcu_fd_sc_mcu7t5v0__buf_1
*CAP
1 *2130:A2 2.89976e-05
2 *2050:A2 2.71283e-05
3 *2049:A2 0.00025101
4 *2353:Z 0.00280142
5 *320:28 0.00115068
6 *320:20 0.00370296
7 *2049:A2 *328:18 8.23149e-05
8 *2049:A2 *369:329 2.32776e-05
9 *2049:A2 *369:350 0.000238626
10 *2130:A2 *2130:A1 3.75597e-05
11 *320:20 *2115:A1 0.000109395
12 *320:20 *2115:A2 0
13 *320:20 *2137:A2 0.000249315
14 *320:20 *325:14 0.00160218
15 *320:20 *325:16 0.000144199
16 *320:28 *2130:A1 0.00210152
17 *320:28 *369:350 6.05724e-06
18 *2049:B *2049:A2 6.40885e-05
19 *2049:B *320:28 1.60221e-05
20 *2051:A3 *320:28 0
21 *2115:B1 *320:20 0.000155165
22 *2117:A2 *320:20 0.000349166
23 *2245:B *320:20 4.33103e-05
24 *2247:A2 *320:20 2.99592e-05
25 *2289:D *320:20 0.000847973
26 *2329:I *320:20 0.000367883
27 *2334:I *320:20 0.000262189
28 *2347:I *320:20 0.0015324
29 *2362:I *320:20 0.000198703
30 *246:12 *320:28 0.000199889
31 *280:10 *320:20 0
32 *280:16 *320:20 0
33 *280:16 *320:28 0
34 *294:43 *320:20 0.00178492
35 *294:52 *320:20 0.00345237
36 *304:18 *2049:A2 0.000394927
37 *304:18 *320:28 0.000598568
38 *308:26 *320:28 0
39 *309:18 *320:20 0.00410098
*RES
1 *2353:Z *320:20 34 
2 *320:20 *320:28 10.4091 
3 *320:28 *2049:A2 6.48052 
4 *320:28 *2050:A2 4.68182 
5 *320:20 *2130:A2 9.17695 
*END

*D_NET *321 0.032221
*CONN
*I *2127:A2 I *D gf180mcu_fd_sc_mcu7t5v0__aoi22_1
*I *2045:A2 I *D gf180mcu_fd_sc_mcu7t5v0__aoi21_1
*I *2046:A2 I *D gf180mcu_fd_sc_mcu7t5v0__and3_1
*I *2354:Z O *D gf180mcu_fd_sc_mcu7t5v0__buf_1
*CAP
1 *2127:A2 0.00108755
2 *2045:A2 2.47609e-05
3 *2046:A2 0.000353435
4 *2354:Z 0.00470147
5 *321:41 0.00134322
6 *321:24 0.00528581
7 *2045:A2 *2045:A1 9.1555e-06
8 *2127:A2 *2044:A2 0
9 *2127:A2 *2127:B2 6.74967e-05
10 *2127:A2 *2128:A2 6.07869e-05
11 *2127:A2 *362:14 0
12 *2127:A2 *369:273 0
13 *321:24 *2033:A1 0.00074821
14 *321:24 *322:16 0.000748211
15 *321:24 *323:16 0.00485617
16 *321:24 *331:27 0
17 *321:24 *332:16 0.00162102
18 *321:24 *365:20 0.000242537
19 *321:41 *331:53 0
20 *2046:A3 *2046:A2 0.000194313
21 *2046:A3 *2127:A2 0.000512553
22 *2046:A3 *321:41 0.000973839
23 *2047:A2 *2127:A2 0.000149171
24 *2047:A2 *321:24 0.000176243
25 *2047:A2 *321:41 0.000566851
26 *2047:A3 *321:24 9.79136e-05
27 *2127:B1 *2127:A2 1.07625e-05
28 *2136:A1 *321:24 4.85075e-05
29 *2175:A2 *2045:A2 1.47625e-05
30 *2252:D *321:41 6.67623e-05
31 *2280:D *321:24 0
32 *2281:CLK *321:24 0
33 *2285:D *2127:A2 0
34 *2312:CLK *321:24 0
35 *2327:I *321:24 0.000121269
36 *2340:I *321:24 0.000149643
37 *2355:I *321:24 0.000883039
38 *151:12 *321:24 0.000666327
39 *281:8 *2127:A2 2.94083e-05
40 *292:38 *321:41 0.000238674
41 *294:65 *321:24 0
42 *302:18 *321:24 0.000164686
43 *306:20 *321:24 8.86264e-05
44 *307:30 *2046:A2 1.30016e-05
45 *307:30 *321:24 0.00205771
46 *308:18 *321:24 0.00179384
47 *310:18 *2045:A2 5.42933e-05
48 *319:14 *321:24 0.00199895
*RES
1 *2354:Z *321:24 48.7727 
2 *321:24 *2046:A2 6.59091 
3 *321:24 *321:41 6.95454 
4 *321:41 *2045:A2 9.16234 
5 *321:41 *2127:A2 14.8896 
*END

*D_NET *322 0.0196899
*CONN
*I *2124:A2 I *D gf180mcu_fd_sc_mcu7t5v0__aoi22_1
*I *2042:A2 I *D gf180mcu_fd_sc_mcu7t5v0__and3_1
*I *2041:A2 I *D gf180mcu_fd_sc_mcu7t5v0__aoi21_1
*I *2355:Z O *D gf180mcu_fd_sc_mcu7t5v0__buf_1
*CAP
1 *2124:A2 0.000643699
2 *2042:A2 0.000169404
3 *2041:A2 0.00021049
4 *2355:Z 0.00449068
5 *322:22 0.00107253
6 *322:16 0.00582701
7 *2041:A2 *369:222 0.000764233
8 *2041:A2 *369:226 1.25888e-05
9 *2042:A2 *362:12 2.4229e-05
10 *2042:A2 *369:212 0.00015376
11 *2124:A2 *2040:A2 7.57616e-06
12 *2124:A2 *363:12 7.54e-05
13 *322:16 *2039:A1 0
14 *322:16 *2158:A2 0
15 *322:16 *330:12 3.63434e-05
16 *322:16 *358:10 0
17 *322:16 *363:12 0
18 *322:16 *369:16 0.00117883
19 *322:16 *369:160 0.000973815
20 *322:22 *363:12 0
21 *322:22 *369:212 0.00109738
22 *322:22 *369:222 9.97618e-05
23 *2043:A2 *2042:A2 2.43148e-05
24 *2043:A2 *322:22 0.00038806
25 *2043:A3 *322:22 0.00059848
26 *2126:A2 *2124:A2 0.000147374
27 *2165:A2 *322:16 0
28 *2254:D *322:16 0
29 *2277:D *322:16 0
30 *2277:CLK *322:16 8.9073e-05
31 *171:10 *2124:A2 0.000280402
32 *171:10 *322:22 9.34672e-05
33 *307:30 *322:16 0.000363806
34 *311:30 *2124:A2 0.000118947
35 *321:24 *322:16 0.000748211
*RES
1 *2355:Z *322:16 42.8182 
2 *322:16 *322:22 8.68181 
3 *322:22 *2041:A2 6.2987 
4 *322:22 *2042:A2 14.3182 
5 *322:16 *2124:A2 12.1623 
*END

*D_NET *323 0.0354192
*CONN
*I *2037:A2 I *D gf180mcu_fd_sc_mcu7t5v0__aoi21_1
*I *2038:A2 I *D gf180mcu_fd_sc_mcu7t5v0__and3_1
*I *2121:A2 I *D gf180mcu_fd_sc_mcu7t5v0__aoi22_1
*I *2356:Z O *D gf180mcu_fd_sc_mcu7t5v0__buf_1
*CAP
1 *2037:A2 0.000153932
2 *2038:A2 0.000144491
3 *2121:A2 0.000169927
4 *2356:Z 0.0030069
5 *323:29 0.000654978
6 *323:18 0.000786629
7 *323:16 0.00326705
8 *2037:A2 *2039:A1 0.000298343
9 *2037:A2 *369:518 0.000328177
10 *2121:A2 *2121:A1 0.000249315
11 *2121:A2 *2121:B2 6.54305e-06
12 *2121:A2 *330:31 0.000293852
13 *2121:A2 *369:170 3.20157e-05
14 *2121:A2 *369:174 3.20443e-05
15 *323:16 *2133:A1 0.000947734
16 *323:16 *2137:A2 0.00199899
17 *323:16 *2239:A1 0.000249314
18 *323:16 *2366:I 0.000147287
19 *323:16 *324:12 0.00113984
20 *323:16 *330:12 0.000121574
21 *323:16 *330:27 0.000897345
22 *323:16 *335:10 0.000504909
23 *323:16 *335:12 0.000298343
24 *323:16 *335:14 0.000924863
25 *323:16 *369:166 0.0018455
26 *323:18 *2121:A1 0.00015376
27 *323:18 *330:27 0.000537017
28 *323:18 *369:166 0
29 *323:29 *2039:A1 0.000477349
30 *323:29 *2121:A1 0.000307521
31 *323:29 *369:166 0
32 *323:29 *369:510 0
33 *323:29 *369:518 0.000149171
34 *2038:A3 *2038:A2 0.00049597
35 *2039:A3 *2037:A2 0.000288507
36 *2150:A2 *323:16 0.000988928
37 *2175:A2 *323:16 0.000190674
38 *2312:D *323:16 0.0006063
39 *2329:I *323:16 0.000126246
40 *2344:I *323:16 0.000378738
41 *2350:I *323:16 0.000112098
42 *237:6 *2037:A2 7.03174e-05
43 *237:6 *2038:A2 0.000349077
44 *295:106 *2038:A2 0.000149553
45 *295:119 *2038:A2 0.000847881
46 *297:16 *323:16 0
47 *299:10 *323:16 8.66771e-06
48 *308:18 *323:16 0.000358011
49 *311:12 *323:16 0.000905544
50 *319:14 *323:16 0.00456183
51 *321:24 *323:16 0.00485617
*RES
1 *2356:Z *323:16 49.7272 
2 *323:16 *323:18 1.90909 
3 *323:18 *2121:A2 9.89935 
4 *323:18 *323:29 2.09091 
5 *323:29 *2038:A2 10.9091 
6 *323:29 *2037:A2 10.526 
*END

*D_NET *324 0.0170314
*CONN
*I *2034:A2 I *D gf180mcu_fd_sc_mcu7t5v0__and3_1
*I *2033:A2 I *D gf180mcu_fd_sc_mcu7t5v0__aoi21_1
*I *2118:A2 I *D gf180mcu_fd_sc_mcu7t5v0__aoi22_1
*I *2357:Z O *D gf180mcu_fd_sc_mcu7t5v0__buf_1
*CAP
1 *2034:A2 4.73205e-05
2 *2033:A2 9.66612e-05
3 *2118:A2 0.000597389
4 *2357:Z 0.00192154
5 *324:14 0.000749212
6 *324:12 0.00202402
7 *2118:A2 *2033:A1 2.67049e-05
8 *2118:A2 *326:14 0.000895181
9 *2118:A2 *331:27 0.000145522
10 *2118:A2 *365:20 0.000256267
11 *2118:A2 *369:27 0.000179006
12 *2118:A2 *369:29 0.000805526
13 *324:12 *2033:A1 1.33525e-05
14 *324:12 *2133:A1 0.000997526
15 *324:12 *2136:A2 0.00019403
16 *324:12 *330:12 0
17 *324:12 *369:166 0.00138672
18 *324:14 *365:20 0.000162175
19 *324:14 *369:27 2.98343e-05
20 *2032:A1 *324:12 6.31231e-05
21 *2032:A1 *324:14 8.41641e-05
22 *2033:B *2034:A2 7.27612e-05
23 *2035:A2 *324:12 0.000871309
24 *2133:A2 *324:12 0.00140726
25 *2175:A2 *324:12 0
26 *234:14 *324:12 8.23222e-05
27 *284:12 *2118:A2 0.000595896
28 *306:20 *2033:A2 0.000587791
29 *306:20 *2034:A2 0.000173896
30 *307:30 *2033:A2 0.000587791
31 *319:14 *324:12 0.000837284
32 *323:16 *324:12 0.00113984
*RES
1 *2357:Z *324:12 21.8182 
2 *324:12 *324:14 0.454545 
3 *324:14 *2118:A2 13.6315 
4 *324:14 *2033:A2 10.0714 
5 *324:12 *2034:A2 9.45455 
*END

*D_NET *325 0.016069
*CONN
*I *2246:A2 I *D gf180mcu_fd_sc_mcu7t5v0__and3_1
*I *2245:A2 I *D gf180mcu_fd_sc_mcu7t5v0__aoi21_1
*I *2115:A2 I *D gf180mcu_fd_sc_mcu7t5v0__aoi22_1
*I *2358:Z O *D gf180mcu_fd_sc_mcu7t5v0__buf_1
*CAP
1 *2246:A2 0.000561896
2 *2245:A2 0
3 *2115:A2 0.000439227
4 *2358:Z 0.00228301
5 *325:16 0.000721495
6 *325:14 0.00312717
7 *2115:A2 *2115:A1 0.000174086
8 *2115:A2 *2116:A2 0.000203154
9 *2115:A2 *2245:A1 1.25888e-05
10 *2115:A2 *366:21 0.000383028
11 *325:14 *2241:A1 0
12 *325:14 *329:14 8.67815e-05
13 *325:14 *369:37 0
14 *2117:A2 *2115:A2 9.44174e-05
15 *2138:A1 *325:14 0.000134993
16 *2140:A1 *325:14 0.000115251
17 *2141:A2 *325:14 0.000252492
18 *2241:B *325:14 1.72186e-05
19 *2243:A2 *325:14 0
20 *2247:A2 *325:16 3.94831e-05
21 *2257:D *325:14 0
22 *2257:D *325:16 0
23 *2281:CLK *325:14 0.000320459
24 *2289:CLK *2115:A2 0.000509495
25 *2289:CLK *325:16 0.000238626
26 *2331:I *325:14 0.000218284
27 *2347:I *325:14 0.000363763
28 *2358:I *325:14 0.000218435
29 *255:8 *325:14 0.000164644
30 *255:23 *325:14 0.000173546
31 *294:37 *2246:A2 9.64239e-06
32 *294:43 *2246:A2 0
33 *294:87 *2246:A2 0
34 *295:16 *2115:A2 6.58577e-05
35 *302:20 *2246:A2 0.000984531
36 *309:18 *325:14 0.002409
37 *320:20 *2115:A2 0
38 *320:20 *325:14 0.00160218
39 *320:20 *325:16 0.000144199
*RES
1 *2358:Z *325:14 30.1363 
2 *325:14 *325:16 1.43506 
3 *325:16 *2115:A2 16.3279 
4 *325:16 *2245:A2 4.5 
5 *325:14 *2246:A2 16.6818 
*END

*D_NET *326 0.0160082
*CONN
*I *2241:A2 I *D gf180mcu_fd_sc_mcu7t5v0__aoi21_1
*I *2242:A2 I *D gf180mcu_fd_sc_mcu7t5v0__and3_1
*I *2112:A2 I *D gf180mcu_fd_sc_mcu7t5v0__aoi22_1
*I *2359:Z O *D gf180mcu_fd_sc_mcu7t5v0__buf_1
*CAP
1 *2241:A2 4.35247e-05
2 *2242:A2 7.93156e-05
3 *2112:A2 0.000805484
4 *2359:Z 0.00198614
5 *326:16 0.00100153
6 *326:14 0.0021464
7 *2112:A2 *2112:A1 2.9141e-05
8 *2112:A2 *2240:A2 0.000189369
9 *2112:A2 *2242:A1 0.000147287
10 *2112:A2 *367:8 2.06623e-06
11 *2112:A2 *367:16 1.39762e-05
12 *326:14 *2118:A1 0.000780255
13 *326:14 *2119:A2 8.02562e-05
14 *326:14 *331:6 0.000449801
15 *326:14 *331:23 2.4106e-06
16 *326:14 *331:27 0.000128177
17 *326:14 *369:29 1.21145e-05
18 *326:14 *369:31 9.69158e-05
19 *326:14 *369:37 0.000254404
20 *326:14 *369:48 0.000147287
21 *326:14 *369:97 0
22 *326:16 *2242:A1 6.31231e-05
23 *326:16 *369:48 0.000252492
24 *2114:A2 *2112:A2 0.000198421
25 *2118:A2 *326:14 0.000895181
26 *2119:A1 *326:14 0.000228887
27 *2120:A3 *326:14 3.03276e-05
28 *2241:B *326:14 0.000512756
29 *2241:B *326:16 0.000666311
30 *2243:A2 *2241:A2 9.18177e-05
31 *228:10 *2112:A2 0.000666582
32 *228:10 *326:16 0.000102551
33 *284:12 *326:14 2.5553e-05
34 *286:10 *2112:A2 0.000238621
35 *286:12 *2112:A2 0.000507129
36 *300:22 *326:14 0.00224454
37 *300:28 *2112:A2 0
38 *303:16 *2241:A2 0.000157219
39 *303:16 *2242:A2 3.29214e-05
40 *308:18 *2242:A2 0.000104805
41 *313:22 *2112:A2 0.000593135
*RES
1 *2359:Z *326:14 22.8182 
2 *326:14 *326:16 1.36363 
3 *326:16 *2112:A2 13.4448 
4 *326:16 *2242:A2 9.45455 
5 *326:14 *2241:A2 9.34416 
*END

*D_NET *327 0.00802091
*CONN
*I *2136:A2 I *D gf180mcu_fd_sc_mcu7t5v0__and2_1
*I *2360:Z O *D gf180mcu_fd_sc_mcu7t5v0__buf_1
*CAP
1 *2136:A2 0.00121226
2 *2360:Z 0.00121226
3 *2133:A2 *2136:A2 0.000808693
4 *2133:A3 *2136:A2 0.000249404
5 *2134:B *2136:A2 0.00059848
6 *2135:A3 *2136:A2 5.97681e-05
7 *2142:A2 *2136:A2 0.000184827
8 *2160:A2 *2136:A2 0.00261403
9 *2165:A2 *2136:A2 0
10 *319:14 *2136:A2 0.000887165
11 *324:12 *2136:A2 0.00019403
*RES
1 *2360:Z *2136:A2 27.1818 
*END

*D_NET *328 0.064475
*CONN
*I *2051:A1 I *D gf180mcu_fd_sc_mcu7t5v0__nor3_1
*I *2132:A1 I *D gf180mcu_fd_sc_mcu7t5v0__nor3_1
*I *2081:A1 I *D gf180mcu_fd_sc_mcu7t5v0__nor3_1
*I *2148:A1 I *D gf180mcu_fd_sc_mcu7t5v0__nor3_1
*I *2207:A1 I *D gf180mcu_fd_sc_mcu7t5v0__nor3_1
*I *2087:A1 I *D gf180mcu_fd_sc_mcu7t5v0__nor3_1
*I *2084:A1 I *D gf180mcu_fd_sc_mcu7t5v0__nor3_1
*I *2203:A1 I *D gf180mcu_fd_sc_mcu7t5v0__nor3_1
*I *2199:A1 I *D gf180mcu_fd_sc_mcu7t5v0__nor3_1
*I *2055:A1 I *D gf180mcu_fd_sc_mcu7t5v0__nor3_1
*I *2145:A1 I *D gf180mcu_fd_sc_mcu7t5v0__nor3_1
*I *2075:A1 I *D gf180mcu_fd_sc_mcu7t5v0__nor3_1
*I *2174:A1 I *D gf180mcu_fd_sc_mcu7t5v0__nor2_1
*I *2064:C I *D gf180mcu_fd_sc_mcu7t5v0__aoi211_1
*I *2191:A1 I *D gf180mcu_fd_sc_mcu7t5v0__nor3_1
*I *2078:A1 I *D gf180mcu_fd_sc_mcu7t5v0__nor3_1
*I *2195:A1 I *D gf180mcu_fd_sc_mcu7t5v0__nor3_1
*I *2376:Z O *D gf180mcu_fd_sc_mcu7t5v0__buf_4
*CAP
1 *2051:A1 2.19906e-05
2 *2132:A1 0.00114164
3 *2081:A1 0.000255761
4 *2148:A1 0.00154176
5 *2207:A1 0.000436764
6 *2087:A1 4.63994e-05
7 *2084:A1 0.000223141
8 *2203:A1 0
9 *2199:A1 5.09929e-05
10 *2055:A1 1.49185e-05
11 *2145:A1 0.000743954
12 *2075:A1 0.000156301
13 *2174:A1 0.000417284
14 *2064:C 0.000367304
15 *2191:A1 0.000304112
16 *2078:A1 0.000966077
17 *2195:A1 7.66765e-05
18 *2376:Z 0.000670949
19 *328:199 0.000866986
20 *328:173 0.00109722
21 *328:161 0.00167845
22 *328:152 0.00101984
23 *328:128 0.00112829
24 *328:122 0.00107141
25 *328:120 0.00218856
26 *328:118 0.000871841
27 *328:83 0.00159351
28 *328:79 0.00165481
29 *328:64 0.00178016
30 *328:45 0.00227828
31 *328:32 0.00176018
32 *328:20 0.00169869
33 *328:18 0.00212484
34 *328:8 0.00125818
35 *2078:A1 *2076:A1 2.43148e-05
36 *2078:A1 *2077:A2 1.92848e-05
37 *2145:A1 *334:173 0.000694354
38 *2148:A1 *334:248 0.000751866
39 *2148:A1 *334:269 0.000291045
40 *2148:A1 *348:6 0.00022431
41 *2174:A1 *355:10 0
42 *2195:A1 *334:10 0
43 *2207:A1 *2085:A1 0.000122714
44 *328:8 *2059:A1 0.000144171
45 *328:8 *2130:A1 0.000194518
46 *328:18 *369:329 0.000151162
47 *328:20 *2368:I 0.000179037
48 *328:20 *369:316 5.2155e-05
49 *328:20 *369:329 0
50 *328:32 *2079:B2 0.00028317
51 *328:32 *334:10 0
52 *328:32 *369:316 1.30016e-05
53 *328:45 *334:25 0
54 *328:83 *2171:A2 0.00041227
55 *328:118 *2079:B2 2.98343e-05
56 *328:152 *2198:A1 0.000398957
57 *328:161 *334:43 9.5337e-05
58 *328:161 *334:51 1.17086e-05
59 *328:173 *2200:A2 1.59424e-05
60 *328:173 *2201:A1 0.000164536
61 *328:173 *334:43 0.000153893
62 *2049:A2 *328:18 8.23149e-05
63 *2051:A2 *328:18 0.000683825
64 *2051:A3 *328:8 1.02999e-05
65 *2051:A3 *328:18 1.60221e-05
66 *2055:A2 *2055:A1 4.85075e-05
67 *2064:B *2064:C 0.00069833
68 *2075:A3 *328:79 0.00014818
69 *2076:A2 *2078:A1 0.000154023
70 *2077:A1 *2078:A1 1.92848e-05
71 *2078:A2 *2078:A1 0.000156788
72 *2078:A3 *2078:A1 0.000158505
73 *2079:B1 *328:32 0.000100157
74 *2080:A1 *2081:A1 0.000648361
75 *2081:A2 *2081:A1 0.000192266
76 *2081:A2 *328:118 1.64644e-05
77 *2081:A2 *328:120 8.23222e-05
78 *2084:A2 *2084:A1 0.000454983
79 *2084:A2 *328:173 9.7015e-05
80 *2084:A3 *2084:A1 6.67623e-05
81 *2085:A2 *2207:A1 0.000509071
82 *2087:A2 *2207:A1 0.00179401
83 *2132:A2 *2132:A1 4.98809e-05
84 *2132:A3 *2132:A1 0.000217043
85 *2145:A2 *2145:A1 0.000307107
86 *2170:A2 *328:118 0.000168328
87 *2171:A1 *2064:C 0.000285848
88 *2173:A1 *328:83 0.000133731
89 *2173:A3 *328:79 0
90 *2174:A2 *2174:A1 3.20443e-05
91 *2174:A2 *328:83 0
92 *2191:A2 *2191:A1 4.85075e-05
93 *2191:A3 *2191:A1 2.63221e-05
94 *2193:B *2078:A1 4.33103e-05
95 *2195:A2 *2195:A1 8.66771e-06
96 *2196:A1 *328:120 9.08586e-05
97 *2197:A2 *328:152 0.000169733
98 *2197:A2 *328:161 9.18177e-05
99 *2197:B *328:152 0
100 *2198:A2 *328:152 9.7015e-05
101 *2199:A2 *328:161 0.000104425
102 *2199:A3 *328:152 2.89272e-05
103 *2199:A3 *328:161 1.92848e-05
104 *2201:A2 *328:173 0.000442268
105 *2203:A2 *2084:A1 2.98343e-05
106 *2203:A2 *328:173 0.000725052
107 *2203:A3 *328:173 0.000177374
108 *2250:D *328:128 0.000121269
109 *2250:CLK *2145:A1 4.24007e-05
110 *2250:CLK *328:128 0.00020249
111 *2250:CLK *328:152 0
112 *2266:D *2207:A1 2.43148e-05
113 *2267:D *328:173 4.85075e-05
114 *2268:D *328:161 0.000121574
115 *2269:D *2195:A1 4.80664e-05
116 *2269:D *328:32 0.000352458
117 *2270:D *2191:A1 0.000460821
118 *2270:CLK *2078:A1 0
119 *2274:CLK *2174:A1 9.26359e-05
120 *2282:D *2148:A1 0
121 *2282:CLK *328:128 4.38029e-05
122 *2300:CLK *328:161 0
123 *2300:CLK *328:173 0
124 *2307:D *2064:C 6.06552e-05
125 *175:16 *2191:A1 0
126 *175:16 *328:64 0.000768847
127 *175:16 *328:79 0.0012302
128 *192:8 *2078:A1 0.000412314
129 *265:12 *2084:A1 8.67815e-05
130 *268:16 *2078:A1 1.92848e-05
131 *273:23 *2064:C 0.000145522
132 *289:34 *328:152 0
133 *289:38 *328:122 5.34098e-05
134 *289:38 *328:128 0.000120172
135 *289:42 *328:128 2.12049e-05
136 *289:42 *328:152 0.000266748
137 *289:56 *328:120 0.000133525
138 *289:56 *328:122 0.000360516
139 *289:71 *328:120 0.000413926
140 *292:12 *328:118 0.000563805
141 *292:12 *328:120 0.00312646
142 *292:12 *328:122 0.00158886
143 *292:12 *328:128 0.000461281
144 *292:76 *2174:A1 0.00015376
145 *292:78 *2064:C 0.000666308
146 *292:78 *2174:A1 0.00153773
147 *293:16 *2132:A1 0.000967849
148 *293:16 *2145:A1 0
149 *303:16 *2132:A1 0
150 *303:18 *2132:A1 0
151 *303:18 *2145:A1 0.000133259
152 *304:18 *328:8 0.000395338
153 *304:18 *328:18 2.89272e-05
154 *304:20 *2207:A1 0.00083536
155 *304:20 *328:45 0.000507129
156 *304:20 *328:199 0.000757477
157 *307:48 *328:32 0.000106066
158 *308:26 *2078:A1 0.000307825
159 *313:22 *2081:A1 0.000349075
160 *313:22 *328:8 0.000446994
161 *313:22 *328:18 3.39571e-05
162 *313:22 *328:20 0.000340407
163 *313:22 *328:32 0.000145985
*RES
1 *2376:Z *328:8 10.1364 
2 *328:8 *328:18 4.09091 
3 *328:18 *328:20 2.63636 
4 *328:20 *328:32 7.0909 
5 *328:32 *2195:A1 4.95455 
6 *328:32 *328:45 6.95454 
7 *328:45 *2078:A1 15.8182 
8 *328:45 *328:64 4 
9 *328:64 *2191:A1 11.2727 
10 *328:64 *328:79 8.95454 
11 *328:79 *328:83 8.77272 
12 *328:83 *2064:C 11.7987 
13 *328:83 *2174:A1 12.3506 
14 *328:79 *2075:A1 5.13636 
15 *328:20 *328:118 5.5 
16 *328:118 *328:120 5.54545 
17 *328:120 *328:122 2.81818 
18 *328:122 *328:128 7.22727 
19 *328:128 *2145:A1 18.6818 
20 *328:128 *2055:A1 4.68182 
21 *328:122 *328:152 7.68182 
22 *328:152 *2199:A1 4.86364 
23 *328:152 *328:161 2.63636 
24 *328:161 *328:173 14.7273 
25 *328:173 *2203:A1 4.5 
26 *328:173 *2084:A1 15.1364 
27 *328:161 *328:199 7.86363 
28 *328:199 *2087:A1 9.18182 
29 *328:199 *2207:A1 13.8182 
30 *328:120 *2148:A1 17.3636 
31 *328:118 *2081:A1 11.6364 
32 *328:18 *2132:A1 18.9545 
33 *328:8 *2051:A1 4.68182 
*END

*D_NET *329 0.0500497
*CONN
*I *2114:A1 I *D gf180mcu_fd_sc_mcu7t5v0__nor3_1
*I *2243:A1 I *D gf180mcu_fd_sc_mcu7t5v0__nor3_1
*I *2111:A1 I *D gf180mcu_fd_sc_mcu7t5v0__nor3_1
*I *2235:A1 I *D gf180mcu_fd_sc_mcu7t5v0__nor3_1
*I *2096:A1 I *D gf180mcu_fd_sc_mcu7t5v0__nor3_1
*I *2215:A1 I *D gf180mcu_fd_sc_mcu7t5v0__nor3_1
*I *2223:A1 I *D gf180mcu_fd_sc_mcu7t5v0__nor3_1
*I *2211:A1 I *D gf180mcu_fd_sc_mcu7t5v0__nor3_1
*I *2090:A1 I *D gf180mcu_fd_sc_mcu7t5v0__nor3_1
*I *2093:A1 I *D gf180mcu_fd_sc_mcu7t5v0__nor3_1
*I *2219:A1 I *D gf180mcu_fd_sc_mcu7t5v0__nor3_1
*I *2376:I I *D gf180mcu_fd_sc_mcu7t5v0__buf_4
*I *2059:A1 I *D gf180mcu_fd_sc_mcu7t5v0__nor3_1
*I *2363:Z O *D gf180mcu_fd_sc_mcu7t5v0__buf_4
*CAP
1 *2114:A1 0.000209818
2 *2243:A1 0.000866068
3 *2111:A1 0.000111931
4 *2235:A1 0.000368324
5 *2096:A1 2.02075e-05
6 *2215:A1 0.000412248
7 *2223:A1 0.000541771
8 *2211:A1 0.000496772
9 *2090:A1 0.000399742
10 *2093:A1 5.09929e-05
11 *2219:A1 2.54965e-05
12 *2376:I 0
13 *2059:A1 0.000273833
14 *2363:Z 0.00141913
15 *329:96 0.00220505
16 *329:83 0.00328663
17 *329:77 0.00256253
18 *329:75 0.000835769
19 *329:73 0.00104969
20 *329:60 0.00156079
21 *329:54 0.00155103
22 *329:52 0.00102838
23 *329:26 0.000916641
24 *329:24 0.00154876
25 *329:18 0.00135672
26 *329:14 0.00178307
27 *2223:A1 *342:12 0.000117014
28 *329:14 *2240:A2 0.000266748
29 *329:83 *2091:B2 0.00134678
30 *329:96 *2091:B2 0.000249404
31 *2090:A2 *2090:A1 0.000169733
32 *2092:A1 *329:83 0.000199524
33 *2093:A3 *329:83 0.000210601
34 *2093:A3 *329:96 3.51258e-05
35 *2211:A2 *2211:A1 1.60221e-05
36 *2211:A3 *2211:A1 0.000358862
37 *2213:B *2223:A1 0
38 *2215:A3 *329:83 0
39 *2219:A2 *329:73 1.21574e-05
40 *2223:A3 *2223:A1 9.64239e-06
41 *2235:A3 *2235:A1 2.36635e-05
42 *2240:A1 *329:14 4.85075e-05
43 *2241:B *2243:A1 0
44 *2243:A2 *2243:A1 4.85075e-05
45 *2249:D *2059:A1 3.64721e-05
46 *2259:D *2235:A1 0.000121269
47 *2262:D *2223:A1 4.80664e-05
48 *2263:D *329:73 0.00137238
49 *2263:D *329:75 0.000895028
50 *2263:D *329:77 0.000982324
51 *2263:D *329:83 0.00117891
52 *2264:D *2215:A1 6.07869e-05
53 *2291:CLK *2235:A1 0
54 *2296:D *2096:A1 2.42537e-05
55 *2296:CLK *2215:A1 0
56 *2331:I *329:14 0.000112155
57 *2337:I *329:14 0.000654764
58 *2342:I *329:14 0.000648359
59 *2344:I *329:14 0.000149643
60 *228:10 *2243:A1 0
61 *261:12 *329:73 0.000173582
62 *286:10 *2243:A1 6.05724e-05
63 *286:12 *2114:A1 0.000666214
64 *286:12 *2243:A1 2.42181e-05
65 *287:15 *329:96 0
66 *287:19 *329:96 0
67 *287:21 *329:96 0
68 *287:26 *329:96 0
69 *287:30 *329:96 0
70 *287:32 *329:96 0
71 *287:37 *329:96 0
72 *287:75 *329:83 0
73 *287:79 *329:83 0
74 *287:86 *329:83 0
75 *287:91 *329:83 0
76 *288:10 *2090:A1 0.000352542
77 *291:25 *2235:A1 0
78 *294:12 *2243:A1 0
79 *294:12 *329:24 0
80 *294:12 *329:52 0.00353656
81 *294:12 *329:54 0.00240891
82 *294:12 *329:60 0.000563788
83 *295:16 *329:73 0.00024229
84 *295:16 *329:75 0.000187774
85 *295:16 *329:77 0.000265811
86 *295:16 *329:83 6.67623e-05
87 *297:16 *329:14 1.92848e-05
88 *301:18 *2059:A1 0.000358787
89 *302:20 *329:52 0.000411892
90 *302:20 *329:54 0.000278633
91 *302:20 *329:60 6.66296e-05
92 *304:18 *2059:A1 0
93 *304:18 *329:14 0.00062045
94 *304:18 *329:18 0.000106066
95 *304:18 *329:24 0
96 *304:18 *329:26 0
97 *305:24 *2059:A1 3.02862e-05
98 *305:24 *329:14 0.000547082
99 *305:24 *329:18 0.000121574
100 *305:24 *329:24 0.000997615
101 *305:24 *329:26 0.00244407
102 *308:18 *329:14 0
103 *309:18 *329:14 0.000548687
104 *313:22 *2059:A1 0.000402009
105 *313:22 *329:26 3.85461e-05
106 *325:14 *329:14 8.67815e-05
107 *328:8 *2059:A1 0.000144171
*RES
1 *2363:Z *329:14 15.1364 
2 *329:14 *329:18 5.5 
3 *329:18 *329:24 7.04545 
4 *329:24 *329:26 4.68993 
5 *329:26 *2059:A1 15.5373 
6 *329:26 *2376:I 4.5 
7 *329:24 *329:52 10.7727 
8 *329:52 *329:54 4.27272 
9 *329:54 *329:60 8.68181 
10 *329:60 *2219:A1 4.68182 
11 *329:60 *329:73 9.5909 
12 *329:73 *329:75 2.81818 
13 *329:75 *329:77 1.90909 
14 *329:77 *329:83 15.5909 
15 *329:83 *2093:A1 4.86364 
16 *329:83 *329:96 11.2273 
17 *329:96 *2090:A1 11.8182 
18 *329:96 *2211:A1 11.0909 
19 *329:77 *2223:A1 11.8182 
20 *329:75 *2215:A1 10.7273 
21 *329:73 *2096:A1 9.18182 
22 *329:54 *2235:A1 11.0909 
23 *329:52 *2111:A1 9.45455 
24 *329:18 *2243:A1 12.5455 
25 *329:14 *2114:A1 14.8636 
*END

*D_NET *330 0.0392074
*CONN
*I *2039:A1 I *D gf180mcu_fd_sc_mcu7t5v0__nor3_1
*I *2123:A1 I *D gf180mcu_fd_sc_mcu7t5v0__nor3_1
*I *2063:C I *D gf180mcu_fd_sc_mcu7t5v0__aoi211_1
*I *2169:A1 I *D gf180mcu_fd_sc_mcu7t5v0__nor2_1
*I *2126:A1 I *D gf180mcu_fd_sc_mcu7t5v0__nor3_1
*I *2183:A1 I *D gf180mcu_fd_sc_mcu7t5v0__nor3_1
*I *2043:A1 I *D gf180mcu_fd_sc_mcu7t5v0__nor3_1
*I *2129:A1 I *D gf180mcu_fd_sc_mcu7t5v0__nor3_1
*I *2035:A1 I *D gf180mcu_fd_sc_mcu7t5v0__nor3_1
*I *2364:Z O *D gf180mcu_fd_sc_mcu7t5v0__buf_4
*CAP
1 *2039:A1 0.000619104
2 *2123:A1 2.54965e-05
3 *2063:C 0.000197466
4 *2169:A1 0.00103523
5 *2126:A1 4.63745e-05
6 *2183:A1 0.00131188
7 *2043:A1 0.000258884
8 *2129:A1 0.000170608
9 *2035:A1 2.54965e-05
10 *2364:Z 0.000774881
11 *330:97 0.00191666
12 *330:69 0.00135825
13 *330:67 0.00153587
14 *330:54 0.00168288
15 *330:37 0.00151333
16 *330:31 0.000961417
17 *330:27 0.00143396
18 *330:12 0.00144994
19 *2039:A1 *2121:A1 0.000256267
20 *2039:A1 *2160:A1 9.87866e-05
21 *2039:A1 *369:518 9.87866e-05
22 *2043:A1 *2040:A2 3.09934e-05
23 *2043:A1 *363:12 7.57616e-06
24 *2129:A1 *2127:A1 0
25 *330:12 *2032:A2 0.000358774
26 *330:12 *365:26 0.000461294
27 *330:12 *369:16 0.000307107
28 *330:12 *369:160 0.00010682
29 *330:27 *2121:A1 0.000256267
30 *330:27 *2121:B2 6.31231e-05
31 *330:31 *2121:B2 4.7982e-06
32 *330:31 *369:174 0.00041227
33 *330:37 *369:174 0.00121311
34 *330:54 *2127:A1 0.000389777
35 *330:54 *362:12 0.00306425
36 *330:54 *369:174 2.43148e-05
37 *330:54 *369:189 0.00031691
38 *330:54 *369:200 0.000214038
39 *330:67 *2124:A1 0.000240344
40 *330:67 *362:12 0.000307531
41 *2032:A1 *330:12 5.34098e-05
42 *2037:A2 *2039:A1 0.000298343
43 *2039:A2 *2039:A1 0.000112126
44 *2043:A2 *2043:A1 0.000272348
45 *2043:A3 *2043:A1 4.85075e-05
46 *2043:A3 *330:67 5.96686e-05
47 *2063:A1 *2169:A1 8.9073e-05
48 *2063:A2 *2063:C 0.00019201
49 *2063:A2 *2169:A1 0.000149643
50 *2063:A2 *330:97 0.00015376
51 *2121:A2 *330:31 0.000293852
52 *2121:B1 *2039:A1 0.00041768
53 *2121:B1 *330:27 0.000298343
54 *2123:A2 *330:31 0.000213086
55 *2123:A2 *330:37 2.42537e-05
56 *2123:A3 *330:37 2.63221e-05
57 *2124:B1 *330:67 1.21145e-05
58 *2129:A2 *2129:A1 1.73354e-05
59 *2129:A2 *330:54 0
60 *2129:A3 *330:54 0.000648361
61 *2168:A1 *2063:C 0.000303403
62 *2168:A3 *2063:C 1.33525e-05
63 *2169:A2 *2063:C 0.000101379
64 *2169:A2 *2169:A1 0.00202535
65 *2175:A2 *330:12 0.000291944
66 *2175:A2 *330:27 0.000164912
67 *2253:D *2043:A1 0.000548599
68 *2253:D *330:54 0.00169147
69 *2253:D *330:67 0.00015376
70 *2254:D *2039:A1 0.000121269
71 *2255:D *330:27 0.0006063
72 *2272:D *2183:A1 3.20443e-05
73 *2275:D *2169:A1 0.000137172
74 *2286:D *2183:A1 0.000400553
75 *2286:CLK *2183:A1 2.17096e-05
76 *2287:D *330:37 0
77 *2308:D *2063:C 0.000188835
78 *2308:CLK *2169:A1 0.000167598
79 *171:10 *2063:C 2.54669e-05
80 *171:10 *330:67 0
81 *171:10 *330:97 0.000296805
82 *234:14 *330:12 8.23222e-05
83 *240:10 *330:67 4.00574e-05
84 *281:19 *330:54 0.000461316
85 *282:12 *2183:A1 0.000249404
86 *293:107 *2183:A1 0.000768836
87 *295:35 *2039:A1 0
88 *311:30 *330:67 0.000312824
89 *322:16 *2039:A1 0
90 *322:16 *330:12 3.63434e-05
91 *323:16 *330:12 0.000121574
92 *323:16 *330:27 0.000897345
93 *323:18 *330:27 0.000537017
94 *323:29 *2039:A1 0.000477349
95 *324:12 *330:12 0
*RES
1 *2364:Z *330:12 18.4091 
2 *330:12 *2035:A1 4.68182 
3 *330:12 *330:27 11.1364 
4 *330:27 *330:31 6.04545 
5 *330:31 *330:37 5.72727 
6 *330:37 *2129:A1 5.77273 
7 *330:37 *330:54 12.8636 
8 *330:54 *2043:A1 10.7273 
9 *330:54 *330:67 4.27272 
10 *330:67 *330:69 4.5 
11 *330:69 *2183:A1 21.2273 
12 *330:69 *2126:A1 4.68182 
13 *330:67 *330:97 4.72727 
14 *330:97 *2169:A1 25.4416 
15 *330:97 *2063:C 10.526 
16 *330:31 *2123:A1 4.68182 
17 *330:27 *2039:A1 14 
*END

*D_NET *331 0.0389823
*CONN
*I *2364:I I *D gf180mcu_fd_sc_mcu7t5v0__buf_4
*I *2069:A1 I *D gf180mcu_fd_sc_mcu7t5v0__nor3_1
*I *2179:A1 I *D gf180mcu_fd_sc_mcu7t5v0__nor2_1
*I *2072:A1 I *D gf180mcu_fd_sc_mcu7t5v0__nor3_1
*I *2065:C I *D gf180mcu_fd_sc_mcu7t5v0__aoi211_1
*I *2187:A1 I *D gf180mcu_fd_sc_mcu7t5v0__nor3_1
*I *2047:A1 I *D gf180mcu_fd_sc_mcu7t5v0__nor3_1
*I *2117:A1 I *D gf180mcu_fd_sc_mcu7t5v0__nor3_1
*I *2247:A1 I *D gf180mcu_fd_sc_mcu7t5v0__nor3_1
*I *2120:A1 I *D gf180mcu_fd_sc_mcu7t5v0__nor3_1
*I *2365:Z O *D gf180mcu_fd_sc_mcu7t5v0__buf_4
*CAP
1 *2364:I 2.54965e-05
2 *2069:A1 0.00108747
3 *2179:A1 0.00121817
4 *2072:A1 9.66715e-05
5 *2065:C 0.000984391
6 *2187:A1 1.29516e-05
7 *2047:A1 1.49185e-05
8 *2117:A1 0.000286718
9 *2247:A1 1.27482e-05
10 *2120:A1 0.000196631
11 *2365:Z 0.000538173
12 *331:111 0.00265008
13 *331:98 0.000888399
14 *331:87 0.002203
15 *331:72 0.00215446
16 *331:53 0.0024134
17 *331:36 0.00149897
18 *331:27 0.00151757
19 *331:23 0.00147783
20 *331:6 0.000866261
21 *2069:A1 *2067:B2 0.000973832
22 *2069:A1 *2180:A2 0.000400525
23 *331:72 *361:10 0.000149553
24 *331:98 *351:8 0.000115251
25 *2047:A2 *331:53 4.00574e-05
26 *2047:A2 *331:72 0.00010682
27 *2047:A3 *2047:A1 4.85075e-05
28 *2047:A3 *331:72 0.000654764
29 *2065:A1 *2065:C 2.17096e-05
30 *2067:B1 *2069:A1 0.000178899
31 *2069:A2 *2069:A1 0.00212106
32 *2070:A2 *331:87 0.000263431
33 *2072:A2 *331:87 0
34 *2072:A3 *331:87 0
35 *2072:A3 *331:98 0
36 *2072:A3 *331:111 0
37 *2117:A2 *2117:A1 3.64721e-05
38 *2118:A2 *331:27 0.000145522
39 *2119:A1 *331:23 0.000641323
40 *2119:A1 *331:27 4.98809e-05
41 *2120:A3 *2120:A1 0.000871354
42 *2120:A3 *331:23 4.59089e-05
43 *2165:A2 *2120:A1 0.000312824
44 *2177:A1 *2065:C 2.78605e-06
45 *2178:A3 *2179:A1 0
46 *2184:A1 *331:87 8.66771e-06
47 *2187:A2 *331:72 0.000268509
48 *2187:A2 *331:87 0.000298343
49 *2187:A3 *331:72 3.46708e-05
50 *2246:A3 *331:27 0
51 *2247:A2 *2117:A1 0
52 *2247:A2 *331:27 0.000314416
53 *2247:A3 *331:27 3.46708e-05
54 *2252:D *331:53 0.000566851
55 *2256:D *2117:A1 2.89272e-05
56 *2256:D *331:27 9.64239e-06
57 *2256:D *331:36 6.07869e-05
58 *2271:D *2187:A1 4.85075e-05
59 *2273:D *2179:A1 9.44174e-05
60 *2273:CLK *2179:A1 1.97174e-05
61 *2280:CLK *331:6 8.9073e-05
62 *2306:D *2065:C 1.92848e-05
63 *2348:I *331:6 0.00154621
64 *179:12 *2187:A1 4.33385e-06
65 *186:14 *331:87 0.000768855
66 *186:14 *331:98 0
67 *231:10 *2117:A1 4.82119e-05
68 *231:10 *331:36 0
69 *271:14 *2069:A1 2.67049e-05
70 *271:21 *2069:A1 4.84642e-05
71 *284:12 *331:27 0.000648449
72 *285:10 *331:53 0.000448926
73 *292:38 *331:53 0
74 *292:38 *331:72 0.000547082
75 *292:42 *331:72 0.000170203
76 *300:22 *331:6 0.000156344
77 *302:18 *331:6 0.000221775
78 *302:18 *331:23 0.000206675
79 *302:18 *331:27 0.00172222
80 *307:30 *331:36 8.01107e-05
81 *307:30 *331:53 0.000688952
82 *310:18 *331:72 0.00160014
83 *310:18 *331:87 0.000115251
84 *310:29 *331:87 0.000131715
85 *321:24 *331:27 0
86 *321:41 *331:53 0
87 *326:14 *331:6 0.000449801
88 *326:14 *331:23 2.4106e-06
89 *326:14 *331:27 0.000128177
*RES
1 *2365:Z *331:6 9.5 
2 *331:6 *2120:A1 15.4091 
3 *331:6 *331:23 1.81818 
4 *331:23 *331:27 9.27272 
5 *331:27 *2247:A1 4.68182 
6 *331:27 *331:36 1.36363 
7 *331:36 *2117:A1 6.86363 
8 *331:36 *331:53 11.2273 
9 *331:53 *2047:A1 9.18182 
10 *331:53 *331:72 19.6364 
11 *331:72 *2187:A1 9.18182 
12 *331:72 *331:87 9.22727 
13 *331:87 *2065:C 9.20779 
14 *331:87 *331:98 6.59091 
15 *331:98 *2072:A1 9.45455 
16 *331:98 *331:111 1.36363 
17 *331:111 *2179:A1 14.987 
18 *331:111 *2069:A1 16.2727 
19 *331:23 *2364:I 4.68182 
*END

*D_NET *332 0.0405412
*CONN
*I *2149:C I *D gf180mcu_fd_sc_mcu7t5v0__aoi211_1
*I *2365:I I *D gf180mcu_fd_sc_mcu7t5v0__buf_4
*I *2061:C I *D gf180mcu_fd_sc_mcu7t5v0__aoi211_1
*I *2154:A1 I *D gf180mcu_fd_sc_mcu7t5v0__nor2_1
*I *2060:C I *D gf180mcu_fd_sc_mcu7t5v0__aoi211_1
*I *2164:A1 I *D gf180mcu_fd_sc_mcu7t5v0__nor2_1
*I *2062:C I *D gf180mcu_fd_sc_mcu7t5v0__aoi211_1
*I *2159:A1 I *D gf180mcu_fd_sc_mcu7t5v0__nor2_1
*I *2135:A1 I *D gf180mcu_fd_sc_mcu7t5v0__nor3_1
*I *2066:I I *D gf180mcu_fd_sc_mcu7t5v0__clkinv_1
*I *2366:Z O *D gf180mcu_fd_sc_mcu7t5v0__buf_4
*CAP
1 *2149:C 0
2 *2365:I 0
3 *2061:C 0.000115588
4 *2154:A1 0.000655244
5 *2060:C 0.00063883
6 *2164:A1 0.000610129
7 *2062:C 0.000168211
8 *2159:A1 1.62357e-05
9 *2135:A1 0.000146176
10 *2066:I 0.000174171
11 *2366:Z 0.000380146
12 *332:109 0.00198995
13 *332:77 0.00169359
14 *332:71 0.00266802
15 *332:60 0.00178179
16 *332:54 0.0011813
17 *332:39 0.000863151
18 *332:26 0.00139499
19 *332:16 0.00156139
20 *332:8 0.00108064
21 *2061:C *2156:A2 6.63774e-05
22 *2062:C *357:17 5.93324e-05
23 *2154:A1 *358:10 0
24 *332:39 *369:560 0.00148635
25 *332:60 *358:10 0
26 *332:71 *358:10 0
27 *332:77 *2162:A2 0.000149643
28 *332:77 *357:17 0.000464642
29 *332:109 *358:10 0
30 *2060:B *2060:C 0.000181708
31 *2061:B *2061:C 1.55917e-05
32 *2061:B *332:60 0.000242494
33 *2062:A2 *2062:C 3.64721e-05
34 *2062:B *332:77 3.03276e-05
35 *2136:A1 *2066:I 0.00041227
36 *2136:A1 *332:26 0.000441861
37 *2136:A1 *332:39 8.41641e-05
38 *2149:B *332:8 2.81232e-05
39 *2149:B *332:16 2.8611e-05
40 *2153:A3 *2060:C 0.000543221
41 *2154:A2 *2060:C 0
42 *2155:A2 *332:26 0.00292145
43 *2155:A2 *332:39 0.00292145
44 *2155:A2 *332:54 0.000737442
45 *2157:A1 *332:60 0.00138953
46 *2159:A2 *332:60 0.000240332
47 *2160:A2 *332:26 0.000263431
48 *2160:A2 *332:39 4.93933e-05
49 *2160:A2 *332:54 0.000889079
50 *2162:A1 *332:77 1.04206e-05
51 *2163:A1 *2062:C 0.00040591
52 *2163:A3 *2062:C 0.000678883
53 *2163:A3 *2164:A1 0.000205014
54 *2164:A2 *2164:A1 1.60221e-05
55 *2276:D *2164:A1 0.000121269
56 *2276:CLK *2164:A1 2.43148e-05
57 *2277:D *2159:A1 9.26359e-05
58 *2277:D *332:60 9.28683e-06
59 *2278:D *2060:C 0
60 *2278:D *2154:A1 0.000593224
61 *2279:CLK *332:54 0.00158886
62 *2281:CLK *332:16 0
63 *2309:D *2062:C 0.000104096
64 *2311:CLK *2060:C 0.000184966
65 *2336:I *332:8 0
66 *2347:I *332:8 0.000227715
67 *2347:I *332:16 2.8611e-05
68 *2359:I *332:26 0.000185685
69 *167:12 *2062:C 1.60221e-05
70 *275:10 *2164:A1 0.000759302
71 *275:12 *2062:C 0.000410038
72 *275:12 *2164:A1 0.000461305
73 *279:10 *332:39 0.00042082
74 *294:65 *332:16 0
75 *295:80 *2060:C 2.55744e-05
76 *295:80 *2164:A1 0.000158046
77 *296:12 *332:26 0
78 *300:22 *332:26 0.000977039
79 *310:18 *2066:I 0.00041227
80 *321:24 *332:16 0.00162102
*RES
1 *2366:Z *332:8 6.42857 
2 *332:8 *332:16 13.2532 
3 *332:16 *332:26 11.4627 
4 *332:26 *2066:I 10.7273 
5 *332:26 *332:39 5.18181 
6 *332:39 *2135:A1 9.45455 
7 *332:39 *332:54 9.5 
8 *332:54 *332:60 9.04545 
9 *332:60 *2159:A1 9.16883 
10 *332:60 *332:71 5 
11 *332:71 *332:77 14.3636 
12 *332:77 *2062:C 10.8896 
13 *332:77 *2164:A1 13.8182 
14 *332:71 *332:109 3.36363 
15 *332:109 *2060:C 12.9805 
16 *332:109 *2154:A1 12.5325 
17 *332:54 *2061:C 5.02597 
18 *332:16 *2365:I 4.5 
19 *332:8 *2149:C 4.5 
*END

*D_NET *333 0.0410089
*CONN
*I *2112:A1 I *D gf180mcu_fd_sc_mcu7t5v0__aoi22_1
*I *2237:A1 I *D gf180mcu_fd_sc_mcu7t5v0__aoi21_1
*I *2109:A1 I *D gf180mcu_fd_sc_mcu7t5v0__aoi22_1
*I *2238:A1 I *D gf180mcu_fd_sc_mcu7t5v0__and3_1
*I *2106:A1 I *D gf180mcu_fd_sc_mcu7t5v0__aoi22_1
*I *2233:A1 I *D gf180mcu_fd_sc_mcu7t5v0__aoi21_1
*I *2234:A1 I *D gf180mcu_fd_sc_mcu7t5v0__and3_1
*I *2230:A1 I *D gf180mcu_fd_sc_mcu7t5v0__and3_1
*I *2103:A1 I *D gf180mcu_fd_sc_mcu7t5v0__aoi22_1
*I *2221:A1 I *D gf180mcu_fd_sc_mcu7t5v0__aoi21_1
*I *2225:A1 I *D gf180mcu_fd_sc_mcu7t5v0__aoi21_1
*I *2222:A1 I *D gf180mcu_fd_sc_mcu7t5v0__and3_1
*I *2097:A1 I *D gf180mcu_fd_sc_mcu7t5v0__aoi22_1
*I *2226:A1 I *D gf180mcu_fd_sc_mcu7t5v0__and3_1
*I *2100:A1 I *D gf180mcu_fd_sc_mcu7t5v0__aoi22_1
*I *2229:A1 I *D gf180mcu_fd_sc_mcu7t5v0__aoi21_1
*I *2367:Z O *D gf180mcu_fd_sc_mcu7t5v0__buf_2
*CAP
1 *2112:A1 0.000330512
2 *2237:A1 0.000270746
3 *2109:A1 0.000826814
4 *2238:A1 0.000210514
5 *2106:A1 0.000380134
6 *2233:A1 0.000341063
7 *2234:A1 0.000651237
8 *2230:A1 5.67146e-05
9 *2103:A1 0.00061244
10 *2221:A1 0.000584106
11 *2225:A1 0
12 *2222:A1 0.000140078
13 *2097:A1 0.000654745
14 *2226:A1 3.46853e-06
15 *2100:A1 0.000157511
16 *2229:A1 0
17 *2367:Z 0.000251762
18 *333:179 0.00109756
19 *333:81 0.000942328
20 *333:61 0.000611768
21 *333:57 0.000700219
22 *333:49 0.000576212
23 *333:43 0.0017001
24 *333:39 0.00129851
25 *333:32 0.000130614
26 *333:26 0.000925377
27 *333:20 0.00188709
28 *333:18 0.00113421
29 *333:16 0.00131206
30 *333:14 0.000986343
31 *333:12 0.00101698
32 *333:10 0.00141565
33 *2097:A1 *2099:A1 0.000315299
34 *2103:A1 *2103:B2 9.64239e-06
35 *2103:A1 *335:43 0.000280402
36 *2109:A1 *2110:A2 3.64721e-05
37 *2109:A1 *338:6 0.000130968
38 *2112:A1 *367:8 0.000446267
39 *2112:A1 *367:16 1.07625e-05
40 *2234:A1 *339:10 0.000133731
41 *333:10 *367:8 1.73354e-05
42 *333:18 *339:25 0
43 *333:20 *339:10 0
44 *333:49 *335:54 0.000200287
45 *333:61 *2099:A1 0.000163921
46 *333:61 *2224:A2 1.30016e-05
47 *333:81 *2099:A1 3.90047e-05
48 *2097:A2 *2097:A1 0.000994943
49 *2097:A2 *2221:A1 9.1555e-06
50 *2097:B1 *2097:A1 2.43148e-05
51 *2099:A2 *2097:A1 0.000449154
52 *2100:A2 *2100:A1 4.85075e-05
53 *2100:A2 *2226:A1 2.42537e-05
54 *2102:A2 *2100:A1 8.9073e-05
55 *2102:A2 *333:61 5.78371e-05
56 *2103:B1 *2103:A1 0
57 *2109:A2 *2109:A1 0.00162928
58 *2109:A2 *2237:A1 0.00114708
59 *2109:B1 *2109:A1 7.27612e-05
60 *2111:A2 *2109:A1 9.79803e-05
61 *2112:A2 *2112:A1 2.9141e-05
62 *2114:A2 *2112:A1 1.21574e-05
63 *2221:B *2221:A1 1.38593e-05
64 *2222:A3 *2221:A1 8.66771e-06
65 *2223:A3 *2221:A1 0.000121574
66 *2225:A2 *2226:A1 0.000149643
67 *2225:A2 *333:49 3.69036e-05
68 *2225:A2 *333:57 8.87834e-05
69 *2225:A2 *333:61 0.00198866
70 *2225:B *333:49 9.18177e-05
71 *2225:B *333:57 2.42537e-05
72 *2227:A2 *2221:A1 0
73 *2227:A2 *2222:A1 4.82119e-05
74 *2227:A2 *333:57 0.000103232
75 *2227:A2 *333:81 1.78019e-05
76 *2229:A2 *333:26 0.000256267
77 *2229:A2 *333:32 0.000666337
78 *2229:A2 *333:43 0.000119337
79 *2229:B *2103:A1 1.60221e-05
80 *2229:B *2230:A1 3.54776e-05
81 *2229:B *333:32 3.54776e-05
82 *2229:B *333:39 6.06552e-05
83 *2230:A3 *2230:A1 3.43331e-06
84 *2231:A2 *2103:A1 0
85 *2231:A2 *333:26 0.000960888
86 *2231:A2 *333:32 0.000210212
87 *2231:A2 *333:39 3.91921e-05
88 *2231:A2 *333:43 0.00015376
89 *2232:A1 *2106:A1 0.000169776
90 *2233:B *2233:A1 4.33103e-05
91 *2234:A2 *2234:A1 9.55222e-06
92 *2234:A3 *2234:A1 0.000240332
93 *2236:A1 *2109:A1 7.79584e-05
94 *2237:A2 *2237:A1 0.000361754
95 *2237:B *2237:A1 0.000334831
96 *2237:B *2238:A1 1.25888e-05
97 *2238:A2 *2237:A1 7.27612e-05
98 *2239:A2 *2237:A1 3.72468e-05
99 *2258:CLK *2109:A1 0.000149643
100 *2258:CLK *2237:A1 3.91921e-05
101 *2258:CLK *2238:A1 2.8611e-05
102 *2258:CLK *333:12 0.000895028
103 *2258:CLK *333:14 8.95028e-05
104 *2260:CLK *333:26 8.01148e-05
105 *2260:CLK *333:32 0.000173582
106 *216:12 *333:61 4.21166e-05
107 *219:10 *2103:A1 2.43148e-05
108 *222:10 *2106:A1 0.000997615
109 *222:10 *2233:A1 0
110 *225:18 *2237:A1 0.000249315
111 *225:18 *2238:A1 8.01107e-05
112 *225:18 *333:12 0.000200287
113 *225:18 *333:14 4.00574e-05
114 *257:25 *2106:A1 2.42537e-05
115 *259:27 *2100:A1 5.14997e-05
116 *260:6 *2097:A1 0
117 *290:70 *2222:A1 9.97618e-05
118 *290:70 *333:43 0
119 *290:70 *333:49 0
120 *290:74 *2103:A1 0.000339552
121 *290:74 *333:39 4.85075e-05
122 *297:33 *2233:A1 0.00138597
123 *297:33 *2234:A1 0
124 *298:12 *333:10 0
125 *298:12 *333:12 0
126 *298:12 *333:14 0
127 *298:12 *333:16 0
128 *298:12 *333:18 0
129 *298:12 *333:20 0
130 *298:12 *333:26 0
131 *298:22 *2230:A1 8.49186e-05
132 *299:25 *2226:A1 4.98809e-05
133 *300:45 *2221:A1 2.8611e-05
134 *305:24 *2112:A1 3.64721e-05
135 *305:24 *333:10 0.000648449
136 *313:22 *2112:A1 0.000373823
137 *313:22 *333:10 0.000179006
138 *313:22 *333:12 0.000268509
*RES
1 *2367:Z *333:10 10.8182 
2 *333:10 *333:12 4.45454 
3 *333:12 *333:14 0.818181 
4 *333:14 *333:16 3.36363 
5 *333:16 *333:18 1.54545 
6 *333:18 *333:20 1.90909 
7 *333:20 *333:26 5 
8 *333:26 *333:32 6.06493 
9 *333:32 *2229:A1 4.5 
10 *333:32 *333:39 0.344155 
11 *333:39 *333:43 7.86363 
12 *333:43 *333:49 7.11688 
13 *333:49 *333:57 1.38312 
14 *333:57 *333:61 4.18181 
15 *333:61 *2100:A1 5.95454 
16 *333:61 *2226:A1 4.86364 
17 *333:57 *333:81 0.999999 
18 *333:81 *2097:A1 9.77272 
19 *333:81 *2222:A1 5.86364 
20 *333:49 *2225:A1 4.5 
21 *333:43 *2221:A1 11.8896 
22 *333:39 *2103:A1 16.9545 
23 *333:26 *2230:A1 9.38312 
24 *333:20 *2234:A1 12.7987 
25 *333:18 *2233:A1 11.526 
26 *333:16 *2106:A1 11.6364 
27 *333:14 *2238:A1 10.4351 
28 *333:12 *333:179 4.5 
29 *333:179 *2109:A1 10.4091 
30 *333:179 *2237:A1 7.75324 
31 *333:10 *2112:A1 11.8182 
*END

*D_NET *334 0.0791278
*CONN
*I *2194:A1 I *D gf180mcu_fd_sc_mcu7t5v0__and3_1
*I *2076:A1 I *D gf180mcu_fd_sc_mcu7t5v0__aoi22_1
*I *2082:A1 I *D gf180mcu_fd_sc_mcu7t5v0__aoi22_1
*I *2202:A1 I *D gf180mcu_fd_sc_mcu7t5v0__and3_1
*I *2201:A1 I *D gf180mcu_fd_sc_mcu7t5v0__aoi21_1
*I *2197:A1 I *D gf180mcu_fd_sc_mcu7t5v0__aoi21_1
*I *2198:A1 I *D gf180mcu_fd_sc_mcu7t5v0__and3_1
*I *2205:A1 I *D gf180mcu_fd_sc_mcu7t5v0__aoi21_1
*I *2054:A1 I *D gf180mcu_fd_sc_mcu7t5v0__and3_1
*I *2058:A1 I *D gf180mcu_fd_sc_mcu7t5v0__and3_1
*I *2057:A1 I *D gf180mcu_fd_sc_mcu7t5v0__aoi21_1
*I *2146:A1 I *D gf180mcu_fd_sc_mcu7t5v0__aoi22_1
*I *2053:A1 I *D gf180mcu_fd_sc_mcu7t5v0__aoi21_1
*I *2143:A1 I *D gf180mcu_fd_sc_mcu7t5v0__aoi22_1
*I *2217:A1 I *D gf180mcu_fd_sc_mcu7t5v0__aoi21_1
*I *2218:A1 I *D gf180mcu_fd_sc_mcu7t5v0__and3_1
*I *2094:A1 I *D gf180mcu_fd_sc_mcu7t5v0__aoi22_1
*I *2088:A1 I *D gf180mcu_fd_sc_mcu7t5v0__aoi22_1
*I *2209:A1 I *D gf180mcu_fd_sc_mcu7t5v0__aoi21_1
*I *2091:A1 I *D gf180mcu_fd_sc_mcu7t5v0__aoi22_1
*I *2214:A1 I *D gf180mcu_fd_sc_mcu7t5v0__and3_1
*I *2213:A1 I *D gf180mcu_fd_sc_mcu7t5v0__aoi21_1
*I *2210:A1 I *D gf180mcu_fd_sc_mcu7t5v0__and3_1
*I *2206:A1 I *D gf180mcu_fd_sc_mcu7t5v0__and3_1
*I *2085:A1 I *D gf180mcu_fd_sc_mcu7t5v0__aoi22_1
*I *2193:A1 I *D gf180mcu_fd_sc_mcu7t5v0__aoi21_1
*I *2368:Z O *D gf180mcu_fd_sc_mcu7t5v0__buf_4
*CAP
1 *2194:A1 3.36581e-05
2 *2076:A1 0.000687422
3 *2082:A1 7.71994e-05
4 *2202:A1 0.000103257
5 *2201:A1 9.34266e-05
6 *2197:A1 0
7 *2198:A1 0.000123154
8 *2205:A1 2.50091e-05
9 *2054:A1 6.81337e-05
10 *2058:A1 2.8891e-05
11 *2057:A1 0.000412483
12 *2146:A1 0.000195795
13 *2053:A1 7.07073e-05
14 *2143:A1 0.000144539
15 *2217:A1 2.00834e-05
16 *2218:A1 3.61166e-05
17 *2094:A1 0.000266311
18 *2088:A1 0.000218571
19 *2209:A1 9.9332e-05
20 *2091:A1 0.000109562
21 *2214:A1 0.000327742
22 *2213:A1 0.000964735
23 *2210:A1 0
24 *2206:A1 0
25 *2085:A1 0.000607008
26 *2193:A1 4.88657e-05
27 *2368:Z 0.00103627
28 *334:328 0.000180457
29 *334:269 0.00128556
30 *334:248 0.00147139
31 *334:233 0.000682519
32 *334:187 0.000479527
33 *334:183 0.00124953
34 *334:177 0.00133517
35 *334:175 0.000318689
36 *334:173 0.000714802
37 *334:125 0.000940055
38 *334:102 0.00245563
39 *334:95 0.00134229
40 *334:89 0.000633974
41 *334:87 0.000726523
42 *334:85 0.00191239
43 *334:63 0.000840168
44 *334:59 0.00128616
45 *334:57 0.00103721
46 *334:51 0.00128445
47 *334:43 0.00104277
48 *334:37 0.00115134
49 *334:33 0.00131813
50 *334:29 0.00195016
51 *334:25 0.000967695
52 *334:10 0.00179557
53 *2076:A1 *2077:A2 0
54 *2076:A1 *350:22 1.60221e-05
55 *2085:A1 *2085:B2 0
56 *2085:A1 *2204:A2 8.01107e-05
57 *2094:A1 *2094:B2 2.17096e-05
58 *2094:A1 *2095:A2 1.37748e-05
59 *2094:A1 *2216:A2 0
60 *2143:A1 *359:10 0.000109416
61 *2201:A1 *2200:A2 7.29225e-05
62 *2214:A1 *2091:B2 0.00108669
63 *334:10 *369:316 0.000266307
64 *334:43 *2200:A2 6.95629e-05
65 *334:43 *347:8 0.000238976
66 *334:183 *2144:A2 8.95028e-05
67 *334:183 *359:8 0.000498807
68 *334:183 *359:10 0.000249404
69 *334:248 *348:6 0.0015463
70 *334:269 *2056:A2 0.000252835
71 *334:269 *348:6 8.9073e-05
72 *2053:A2 *2053:A1 9.1555e-06
73 *2053:B *2053:A1 4.33103e-05
74 *2053:B *334:233 0.000922612
75 *2053:B *334:248 0.000256281
76 *2055:A3 *2053:A1 9.64239e-06
77 *2055:A3 *334:173 0
78 *2057:B *2057:A1 2.42537e-05
79 *2058:A2 *2057:A1 0.000448837
80 *2058:A2 *2058:A1 4.98809e-05
81 *2059:A3 *2057:A1 5.02609e-05
82 *2076:A2 *2076:A1 0.000713543
83 *2076:A2 *334:29 0
84 *2078:A1 *2076:A1 2.43148e-05
85 *2078:A2 *2076:A1 4.33385e-06
86 *2082:B1 *2082:A1 7.79584e-05
87 *2084:A2 *2082:A1 0.000238715
88 *2084:A2 *2202:A1 0.000388269
89 *2084:A2 *334:43 4.33385e-06
90 *2085:A2 *2085:A1 7.92523e-05
91 *2088:A2 *2088:A1 4.98809e-05
92 *2091:A2 *2091:A1 0.000388358
93 *2091:B1 *2091:A1 0.000200557
94 *2091:B1 *2214:A1 0.000101102
95 *2093:A2 *2091:A1 8.9073e-05
96 *2093:A2 *2214:A1 0.000268509
97 *2094:A2 *2094:A1 0.000550354
98 *2094:B1 *2094:A1 5.96686e-05
99 *2095:A1 *2218:A1 6.7564e-05
100 *2095:A1 *334:187 0.000315299
101 *2096:A2 *2094:A1 8.9073e-05
102 *2096:A3 *2094:A1 7.79584e-05
103 *2143:A2 *2054:A1 2.42537e-05
104 *2143:A2 *2143:A1 0.000218284
105 *2143:A2 *334:177 5.96686e-05
106 *2143:B1 *334:183 8.23222e-05
107 *2144:A1 *334:183 3.85696e-05
108 *2145:A1 *334:173 0.000694354
109 *2145:A2 *334:173 0
110 *2146:A2 *334:269 6.93417e-05
111 *2146:B1 *2146:A1 1.92848e-05
112 *2148:A1 *334:248 0.000751866
113 *2148:A1 *334:269 0.000291045
114 *2148:A2 *2146:A1 5.45152e-05
115 *2148:A3 *334:269 1.58411e-05
116 *2192:A1 *2076:A1 0.000698148
117 *2193:A2 *2193:A1 4.33103e-05
118 *2194:A2 *2076:A1 0
119 *2194:A2 *2193:A1 2.43148e-05
120 *2194:A3 *2076:A1 1.64644e-05
121 *2194:A3 *334:25 0.000399779
122 *2195:A1 *334:10 0
123 *2195:A2 *2193:A1 7.65136e-05
124 *2195:A2 *334:10 0.000149643
125 *2195:A3 *2076:A1 0.000289998
126 *2195:A3 *2194:A1 0.000149643
127 *2195:A3 *334:25 0.000272594
128 *2195:A3 *334:29 7.27612e-05
129 *2197:A2 *334:51 0.000124744
130 *2197:B *334:51 0.000139443
131 *2199:A2 *334:43 4.85075e-05
132 *2199:A2 *334:51 0.000133525
133 *2199:A2 *334:57 4.00574e-05
134 *2199:A3 *2198:A1 6.07652e-05
135 *2199:A3 *334:43 8.66771e-06
136 *2199:A3 *334:51 0.000187673
137 *2199:A3 *334:57 0.000268509
138 *2201:A2 *334:33 0.000205014
139 *2201:A2 *334:37 0.00087133
140 *2201:B *2201:A1 4.33103e-05
141 *2201:B *2202:A1 1.25888e-05
142 *2201:B *334:33 4.2082e-05
143 *2202:A2 *2202:A1 0.000121225
144 *2203:A3 *334:33 5.34098e-05
145 *2205:A2 *2085:A1 2.9451e-05
146 *2205:A2 *2205:A1 9.1555e-06
147 *2205:A2 *334:63 0.000353412
148 *2206:A2 *334:59 0
149 *2206:A3 *2085:A1 3.20443e-05
150 *2207:A1 *2085:A1 0.000122714
151 *2207:A2 *2085:A1 9.59639e-06
152 *2207:A2 *334:63 3.40517e-06
153 *2207:A3 *334:59 0
154 *2209:A2 *2209:A1 6.06266e-05
155 *2209:B *2209:A1 4.33103e-05
156 *2209:B *334:89 0.000149171
157 *2209:B *334:95 5.96686e-05
158 *2210:A2 *334:95 0.000436841
159 *2211:A2 *2209:A1 9.97618e-05
160 *2211:A2 *334:95 0.00117883
161 *2212:A1 *2213:A1 0.000199524
162 *2213:A2 *2213:A1 3.64721e-05
163 *2213:B *2213:A1 0.00246013
164 *2214:A2 *2214:A1 0.000414085
165 *2214:A2 *334:125 4.93933e-05
166 *2215:A2 *2213:A1 0.00167278
167 *2217:A2 *2217:A1 9.1555e-06
168 *2217:A2 *334:187 0.000188835
169 *2217:B *2217:A1 5.03314e-05
170 *2218:A2 *334:187 0
171 *2219:A2 *2217:A1 0.000124167
172 *2219:A2 *334:183 0.000122921
173 *2250:CLK *334:173 8.23355e-05
174 *2251:D *2146:A1 0.000120172
175 *2251:D *334:183 0
176 *2263:D *2213:A1 0
177 *2265:D *334:95 6.06552e-05
178 *2265:D *334:102 0.000436031
179 *2266:D *2085:A1 0
180 *2266:D *334:63 0
181 *2269:D *334:10 0
182 *2282:D *334:269 0
183 *2282:CLK *2053:A1 2.43148e-05
184 *2283:D *334:87 0
185 *2283:CLK *334:87 0.000563788
186 *2297:D *2214:A1 2.67049e-05
187 *2297:D *334:102 3.64721e-05
188 *2297:D *334:125 0.000320459
189 *2297:CLK *2091:A1 0
190 *2297:CLK *2213:A1 0
191 *2302:D *2076:A1 0
192 *2302:CLK *334:25 0
193 *2302:CLK *334:29 0
194 *2322:I *334:85 0.00015304
195 *2322:I *334:87 0.00112758
196 *207:6 *2213:A1 2.42537e-05
197 *210:6 *2218:A1 1.25888e-05
198 *249:12 *2054:A1 9.97618e-05
199 *249:12 *334:173 0.00124702
200 *249:12 *334:177 0.00015376
201 *249:12 *334:233 0.000461316
202 *261:18 *334:187 0
203 *262:12 *334:125 0
204 *268:16 *2076:A1 4.98809e-05
205 *287:13 *2214:A1 0.000149171
206 *289:10 *334:57 0.00122321
207 *289:34 *2198:A1 0
208 *289:38 *334:57 0
209 *290:37 *2213:A1 2.87916e-05
210 *293:16 *334:87 0
211 *293:16 *334:89 0
212 *293:16 *334:177 0.00010682
213 *293:16 *334:183 8.01147e-05
214 *293:16 *334:233 0.000347164
215 *293:16 *334:248 0.000534098
216 *301:18 *2057:A1 0.000768832
217 *301:18 *334:269 0.000240344
218 *301:27 *2218:A1 0.000149643
219 *301:27 *334:187 0.000399045
220 *302:34 *2213:A1 0.000466526
221 *302:34 *334:125 0.000362188
222 *303:18 *334:87 0.000946846
223 *303:18 *334:173 0.000757477
224 *303:20 *334:87 4.2082e-05
225 *303:20 *334:89 0.000336656
226 *303:20 *334:95 0.000147287
227 *304:18 *334:10 0.00304255
228 *304:20 *334:25 0
229 *304:35 *2085:A1 0.000121225
230 *305:24 *2057:A1 0.000328057
231 *305:24 *2058:A1 4.33385e-06
232 *305:34 *2082:A1 2.42537e-05
233 *305:34 *334:33 0.000543326
234 *305:36 *2082:A1 0.00019403
235 *305:36 *2202:A1 4.85075e-05
236 *307:36 *334:10 4.72082e-05
237 *307:48 *334:10 0.000437867
238 *307:48 *334:51 0.000358774
239 *308:26 *2193:A1 0.000288507
240 *308:26 *334:10 0.000410881
241 *317:14 *334:248 0.00107403
242 *328:32 *334:10 0
243 *328:45 *334:25 0
244 *328:152 *2198:A1 0.000398957
245 *328:161 *334:43 9.5337e-05
246 *328:161 *334:51 1.17086e-05
247 *328:173 *2201:A1 0.000164536
248 *328:173 *334:43 0.000153893
*RES
1 *2368:Z *334:10 12.2273 
2 *334:10 *2193:A1 5.02597 
3 *334:10 *334:25 12.0909 
4 *334:25 *334:29 5.5 
5 *334:29 *334:33 5.81818 
6 *334:33 *334:37 6.04545 
7 *334:37 *334:43 4.90909 
8 *334:43 *334:51 6.68182 
9 *334:51 *334:57 10.1364 
10 *334:57 *334:59 0.818181 
11 *334:59 *334:63 1.88961 
12 *334:63 *2085:A1 7.97402 
13 *334:63 *2206:A1 4.5 
14 *334:59 *334:85 8.95454 
15 *334:85 *334:87 4.27272 
16 *334:87 *334:89 1.54545 
17 *334:89 *334:95 7.2987 
18 *334:95 *2210:A1 4.5 
19 *334:95 *334:102 5.83766 
20 *334:102 *2213:A1 12.6818 
21 *334:102 *334:125 7.5 
22 *334:125 *2214:A1 11.9805 
23 *334:125 *2091:A1 10 
24 *334:89 *2209:A1 9.52597 
25 *334:87 *2088:A1 9.81818 
26 *334:85 *334:173 10.6818 
27 *334:173 *334:175 4.5 
28 *334:175 *334:177 0.818181 
29 *334:177 *334:183 10.6818 
30 *334:183 *334:187 2 
31 *334:187 *2094:A1 15.1364 
32 *334:187 *2218:A1 4.84416 
33 *334:183 *2217:A1 5.20779 
34 *334:177 *2143:A1 10 
35 *334:175 *334:233 2.45454 
36 *334:233 *2053:A1 9.34416 
37 *334:233 *334:248 11.0454 
38 *334:248 *2146:A1 14.5 
39 *334:248 *334:269 14.6364 
40 *334:269 *2057:A1 16.2467 
41 *334:269 *2058:A1 4.68182 
42 *334:173 *2054:A1 4.86364 
43 *334:57 *2205:A1 4.84416 
44 *334:51 *2198:A1 9.72727 
45 *334:43 *2197:A1 4.5 
46 *334:37 *2201:A1 5.20779 
47 *334:33 *334:328 4.5 
48 *334:328 *2202:A1 5.20779 
49 *334:328 *2082:A1 5.5 
50 *334:29 *2076:A1 14 
51 *334:25 *2194:A1 4.95455 
*END

*D_NET *335 0.0333359
*CONN
*I *2366:I I *D gf180mcu_fd_sc_mcu7t5v0__buf_4
*I *2363:I I *D gf180mcu_fd_sc_mcu7t5v0__buf_4
*I *2141:A1 I *D gf180mcu_fd_sc_mcu7t5v0__nor2_1
*I *2239:A1 I *D gf180mcu_fd_sc_mcu7t5v0__nor3_1
*I *2108:A1 I *D gf180mcu_fd_sc_mcu7t5v0__nor3_1
*I *2231:A1 I *D gf180mcu_fd_sc_mcu7t5v0__nor3_1
*I *2099:A1 I *D gf180mcu_fd_sc_mcu7t5v0__nor3_1
*I *2102:A1 I *D gf180mcu_fd_sc_mcu7t5v0__nor3_1
*I *2227:A1 I *D gf180mcu_fd_sc_mcu7t5v0__nor3_1
*I *2105:A1 I *D gf180mcu_fd_sc_mcu7t5v0__nor3_1
*I *2361:Z O *D gf180mcu_fd_sc_mcu7t5v0__clkbuf_2
*CAP
1 *2366:I 0.000150408
2 *2363:I 0.000108909
3 *2141:A1 0.000438373
4 *2239:A1 0.000804562
5 *2108:A1 0.000201115
6 *2231:A1 0.000806087
7 *2099:A1 0.000542292
8 *2102:A1 0.000630079
9 *2227:A1 1.49185e-05
10 *2105:A1 2.54965e-05
11 *2361:Z 0
12 *335:54 0.00193498
13 *335:43 0.00150521
14 *335:35 0.00206345
15 *335:22 0.00223066
16 *335:16 0.0030439
17 *335:14 0.00237291
18 *335:12 0.000943914
19 *335:10 0.000557231
20 *335:6 0.000494221
21 *2102:A1 *2101:A2 2.43148e-05
22 *2102:A1 *341:22 0
23 *2366:I *2137:A2 8.95028e-05
24 *335:43 *340:12 0.000973871
25 *335:43 *341:16 0.00101437
26 *2097:A1 *2099:A1 0.000315299
27 *2102:A2 *2102:A1 1.60221e-05
28 *2102:A3 *2102:A1 0.000165484
29 *2103:A1 *335:43 0.000280402
30 *2104:A1 *335:43 3.63434e-05
31 *2105:A2 *335:35 0.000496686
32 *2227:A3 *335:43 3.85696e-05
33 *2231:A3 *2231:A1 1.21574e-05
34 *2237:B *2239:A1 2.07406e-05
35 *2239:A2 *2239:A1 0.000266791
36 *2261:D *2227:A1 4.85075e-05
37 *2261:D *335:43 0.000291045
38 *2261:CLK *335:43 0.00210156
39 *2261:CLK *335:54 8.48014e-05
40 *2292:D *2108:A1 0
41 *2292:CLK *2239:A1 5.54114e-05
42 *2294:D *2102:A1 0.000292418
43 *2294:CLK *2102:A1 0
44 *2295:D *2099:A1 0
45 *2331:I *2363:I 0.000487941
46 *2336:I *2366:I 9.18177e-05
47 *2350:I *2239:A1 0.000194518
48 *2354:I *2366:I 9.18177e-05
49 *2356:I *335:14 0
50 *2356:I *335:16 0
51 *1:14 *2102:A1 0
52 *216:12 *2102:A1 0
53 *216:12 *335:54 0
54 *219:10 *2231:A1 0
55 *258:8 *2231:A1 0.000127202
56 *258:8 *335:43 4.84579e-05
57 *259:18 *2102:A1 0
58 *259:18 *335:54 8.95028e-05
59 *291:90 *2239:A1 7.02703e-05
60 *297:16 *2363:I 0.000487941
61 *298:12 *2231:A1 0.000115088
62 *298:22 *2231:A1 0
63 *299:10 *2239:A1 0.000202473
64 *299:10 *335:16 0
65 *299:10 *335:22 0
66 *305:24 *2141:A1 0.000433864
67 *311:12 *2366:I 0.000563798
68 *311:12 *335:10 0.00128138
69 *311:12 *335:12 0.000298343
70 *311:12 *335:14 0.00062652
71 *313:22 *2141:A1 0.000103997
72 *323:16 *2239:A1 0.000249314
73 *323:16 *2366:I 0.000147287
74 *323:16 *335:10 0.000504909
75 *323:16 *335:12 0.000298343
76 *323:16 *335:14 0.000924863
77 *333:49 *335:54 0.000200287
78 *333:61 *2099:A1 0.000163921
79 *333:81 *2099:A1 3.90047e-05
*RES
1 *2361:Z *335:6 9 
2 *335:6 *335:10 2.54545 
3 *335:10 *335:12 0.999999 
4 *335:12 *335:14 3 
5 *335:14 *335:16 5.72727 
6 *335:16 *335:22 12.5 
7 *335:22 *2105:A1 4.68182 
8 *335:22 *335:35 7.77272 
9 *335:35 *335:43 12.2273 
10 *335:43 *2227:A1 4.68182 
11 *335:43 *335:54 7.68182 
12 *335:54 *2102:A1 13 
13 *335:54 *2099:A1 12.7273 
14 *335:35 *2231:A1 13.3636 
15 *335:16 *2108:A1 9.81818 
16 *335:14 *2239:A1 14 
17 *335:12 *2141:A1 11.1818 
18 *335:10 *2363:I 9.88961 
19 *335:6 *2366:I 10.3442 
*END

*D_NET *336 0.00475509
*CONN
*I *2137:A2 I *D gf180mcu_fd_sc_mcu7t5v0__nand2_1
*I *2362:Z O *D gf180mcu_fd_sc_mcu7t5v0__buf_1
*CAP
1 *2137:A2 0.000471136
2 *2362:Z 0.000471136
3 *2137:A2 *2137:A1 5.45996e-05
4 *2329:I *2137:A2 2.98343e-05
5 *2336:I *2137:A2 0.000134443
6 *2354:I *2137:A2 0.000197619
7 *2362:I *2137:A2 0.000249315
8 *2366:I *2137:A2 8.95028e-05
9 *308:18 *2137:A2 7.27612e-05
10 *311:12 *2137:A2 0.000736436
11 *320:20 *2137:A2 0.000249315
12 *323:16 *2137:A2 0.00199899
*RES
1 *2362:Z *2137:A2 23 
*END

*D_NET *2 0.00767591
*CONN
*P p O
*I *2248:Q O *D gf180mcu_fd_sc_mcu7t5v0__dffq_1
*CAP
1 p 0.00102549
2 *2248:Q 0.00102549
3 p *2281:CLK 8.9073e-05
4 p *2337:I 0.000625627
5 p *2358:I 0.00240655
6 p *2361:I 0.00231142
7 p *308:18 0.000192266
*RES
1 *2248:Q p 15.9545 
*END

*D_NET *3 0.00756856
*CONN
*P rst I
*I *2361:I I *D gf180mcu_fd_sc_mcu7t5v0__clkbuf_2
*CAP
1 rst 0.00056722
2 *2361:I 0.00056722
3 *2361:I *2337:I 0.0040742
4 *2361:I *2358:I 4.85075e-05
5 p *2361:I 0.00231142
*RES
1 rst *2361:I 21.7435 
*END

*D_NET *337 0.00992616
*CONN
*I *2139:A2 I *D gf180mcu_fd_sc_mcu7t5v0__nor2_1
*I *2140:A2 I *D gf180mcu_fd_sc_mcu7t5v0__xor3_1
*I *2138:A2 I *D gf180mcu_fd_sc_mcu7t5v0__nand2_1
*I *2249:Q O *D gf180mcu_fd_sc_mcu7t5v0__dffq_1
*CAP
1 *2139:A2 2.54965e-05
2 *2140:A2 0.000218031
3 *2138:A2 8.08817e-05
4 *2249:Q 0.00145273
5 *337:31 0.000642774
6 *337:14 0.00193286
7 *337:14 *2242:A1 0.000498807
8 *337:14 *2367:I 0
9 *2138:A1 *2140:A2 4.86295e-05
10 *2138:A1 *337:31 0.000492505
11 *2140:A1 *2140:A2 0.000199524
12 *2149:A2 *2140:A2 0.00028837
13 *2149:B *2140:A2 0.000144171
14 *228:10 *337:14 8.35888e-05
15 *255:23 *2140:A2 2.43148e-05
16 *286:10 *337:14 0.000548597
17 *303:16 *337:31 0.000315299
18 *304:18 *337:14 0.00148291
19 *308:18 *337:14 0.000848838
20 *308:26 *337:14 0.000597828
*RES
1 *2249:Q *337:14 20.6364 
2 *337:14 *2138:A2 9.45455 
3 *337:14 *337:31 6.68182 
4 *337:31 *2140:A2 6.22727 
5 *337:31 *2139:A2 4.68182 
*END

*D_NET *338 0.00172455
*CONN
*I *2236:A2 I *D gf180mcu_fd_sc_mcu7t5v0__xor2_1
*I *2109:B2 I *D gf180mcu_fd_sc_mcu7t5v0__aoi22_1
*I *2110:A2 I *D gf180mcu_fd_sc_mcu7t5v0__nor2_1
*I *2259:Q O *D gf180mcu_fd_sc_mcu7t5v0__dffq_1
*CAP
1 *2236:A2 0.000176558
2 *2109:B2 0
3 *2110:A2 0.00019944
4 *2259:Q 0.000360957
5 *338:6 0.000383839
6 *2109:A1 *2110:A2 3.64721e-05
7 *2109:A1 *338:6 0.000130968
8 *2109:B1 *2110:A2 0.000130911
9 *2111:A2 *2110:A2 0.000176242
10 *2111:A2 *2236:A2 3.02862e-05
11 *2111:A2 *338:6 4.10243e-05
12 *256:15 *2110:A2 5.78543e-05
*RES
1 *2259:Q *338:6 5.57143 
2 *338:6 *2110:A2 6.15584 
3 *338:6 *2109:B2 4.5 
4 *2259:Q *2236:A2 18.6364 
*END

*D_NET *339 0.00454978
*CONN
*I *2106:B2 I *D gf180mcu_fd_sc_mcu7t5v0__aoi22_1
*I *2232:A2 I *D gf180mcu_fd_sc_mcu7t5v0__xor2_1
*I *2107:A2 I *D gf180mcu_fd_sc_mcu7t5v0__nor2_1
*I *2260:Q O *D gf180mcu_fd_sc_mcu7t5v0__dffq_1
*CAP
1 *2106:B2 0.000219129
2 *2232:A2 0
3 *2107:A2 0.000207337
4 *2260:Q 0.000456844
5 *339:25 0.00035301
6 *339:10 0.000798063
7 *2107:A1 *2106:B2 2.42537e-05
8 *2108:A3 *2106:B2 4.85075e-05
9 *2232:A1 *2106:B2 0.000192266
10 *2234:A1 *339:10 0.000133731
11 *222:10 *2106:B2 1.21574e-05
12 *257:25 *2106:B2 3.20443e-05
13 *297:33 *2106:B2 0.000170203
14 *297:33 *2107:A2 0.000748211
15 *297:33 *339:10 0.000231417
16 *298:12 *339:10 0.000461302
17 *298:12 *339:25 0.000461302
18 *333:18 *339:25 0
19 *333:20 *339:10 0
*RES
1 *2260:Q *339:10 12.0909 
2 *339:10 *2107:A2 10.5455 
3 *339:10 *339:25 5.31818 
4 *339:25 *2232:A2 4.5 
5 *339:25 *2106:B2 6.31818 
*END

*D_NET *340 0.00408648
*CONN
*I *2104:A2 I *D gf180mcu_fd_sc_mcu7t5v0__nor2_1
*I *2103:B2 I *D gf180mcu_fd_sc_mcu7t5v0__aoi22_1
*I *2228:A2 I *D gf180mcu_fd_sc_mcu7t5v0__xor2_1
*I *2261:Q O *D gf180mcu_fd_sc_mcu7t5v0__dffq_1
*CAP
1 *2104:A2 0.000574487
2 *2103:B2 0.000292843
3 *2228:A2 0
4 *2261:Q 0
5 *340:12 0.000536271
6 *340:4 0.000817915
7 *2104:A2 *341:16 4.98809e-05
8 *340:12 *341:16 0.000303403
9 *2103:A1 *2103:B2 9.64239e-06
10 *2103:B1 *2103:B2 0.000291045
11 *2104:A1 *2104:A2 0
12 *2104:A1 *340:12 4.00574e-05
13 *2229:B *2103:B2 0
14 *2293:D *2103:B2 0
15 *2293:CLK *2104:A2 0.00017281
16 *258:23 *2103:B2 2.42537e-05
17 *290:74 *2103:B2 0
18 *299:10 *340:12 0
19 *335:43 *340:12 0.000973871
*RES
1 *2261:Q *340:4 4.5 
2 *340:4 *340:12 11 
3 *340:12 *2228:A2 4.5 
4 *340:12 *2103:B2 6.13636 
5 *340:4 *2104:A2 7.68182 
*END

*D_NET *341 0.0128109
*CONN
*I *2224:A2 I *D gf180mcu_fd_sc_mcu7t5v0__xor2_1
*I *2100:B2 I *D gf180mcu_fd_sc_mcu7t5v0__aoi22_1
*I *2101:A2 I *D gf180mcu_fd_sc_mcu7t5v0__nor2_1
*I *2262:Q O *D gf180mcu_fd_sc_mcu7t5v0__dffq_1
*CAP
1 *2224:A2 8.91438e-05
2 *2100:B2 4.47982e-05
3 *2101:A2 0.000162594
4 *2262:Q 0.00244547
5 *341:22 0.000388986
6 *341:16 0.00271621
7 *341:16 *342:12 0.0010474
8 *2100:A2 *341:16 0
9 *2101:A1 *2100:B2 1.25888e-05
10 *2101:A1 *2101:A2 0.00020884
11 *2102:A1 *2101:A2 2.43148e-05
12 *2102:A1 *341:22 0
13 *2102:A2 *2101:A2 0.000273533
14 *2102:A2 *341:16 0.000153763
15 *2102:A2 *341:22 0.000256267
16 *2102:A3 *2100:B2 8.60928e-06
17 *2102:A3 *341:22 8.67643e-05
18 *2104:A2 *341:16 4.98809e-05
19 *2224:A1 *2224:A2 4.98809e-05
20 *2229:A2 *341:16 8.9073e-05
21 *2261:CLK *341:16 0.000273533
22 *2293:CLK *341:16 0.000145522
23 *259:18 *341:16 0.00123023
24 *259:18 *341:22 0.00015376
25 *259:27 *2100:B2 0.000188835
26 *259:27 *2224:A2 0.000149643
27 *259:27 *341:22 0.000448837
28 *290:74 *341:16 0.000781622
29 *299:10 *341:16 0
30 *333:61 *2224:A2 1.30016e-05
31 *335:43 *341:16 0.00101437
32 *340:12 *341:16 0.000303403
*RES
1 *2262:Q *341:16 24.9091 
2 *341:16 *341:22 5.77273 
3 *341:22 *2101:A2 14.8636 
4 *341:22 *2100:B2 4.84416 
5 *341:16 *2224:A2 9.54545 
*END

*D_NET *342 0.01196
*CONN
*I *2220:A2 I *D gf180mcu_fd_sc_mcu7t5v0__xor2_1
*I *2097:B2 I *D gf180mcu_fd_sc_mcu7t5v0__aoi22_1
*I *2098:A2 I *D gf180mcu_fd_sc_mcu7t5v0__nor2_1
*I *2263:Q O *D gf180mcu_fd_sc_mcu7t5v0__dffq_1
*CAP
1 *2220:A2 4.65441e-05
2 *2097:B2 1.51836e-05
3 *2098:A2 0.000390933
4 *2263:Q 0.00179309
5 *342:18 0.0014952
6 *342:12 0.00292872
7 *2097:A2 *342:12 0.000328177
8 *2097:A2 *342:18 0
9 *2097:B1 *2097:B2 8.9073e-05
10 *2098:A1 *2097:B2 8.9073e-05
11 *2221:B *342:12 0.000973815
12 *2222:A2 *2220:A2 4.98809e-05
13 *2222:A3 *2220:A2 7.27612e-05
14 *2223:A1 *342:12 0.000117014
15 *2223:A3 *2220:A2 1.86485e-05
16 *2223:A3 *342:18 0.000303869
17 *213:6 *2220:A2 7.30399e-05
18 *290:37 *342:18 0.000110451
19 *290:44 *2220:A2 0.000199524
20 *290:44 *342:18 0.00118627
21 *290:70 *2220:A2 0.000149643
22 *291:8 *342:12 0.000102962
23 *300:28 *342:12 0.000378738
24 *341:16 *342:12 0.0010474
*RES
1 *2263:Q *342:12 24.0454 
2 *342:12 *342:18 9.95454 
3 *342:18 *2098:A2 10.3636 
4 *342:18 *2097:B2 9.16234 
5 *342:12 *2220:A2 5.13636 
*END

*D_NET *343 0.00257584
*CONN
*I *2216:A2 I *D gf180mcu_fd_sc_mcu7t5v0__xor2_1
*I *2094:B2 I *D gf180mcu_fd_sc_mcu7t5v0__aoi22_1
*I *2095:A2 I *D gf180mcu_fd_sc_mcu7t5v0__nor2_1
*I *2264:Q O *D gf180mcu_fd_sc_mcu7t5v0__dffq_1
*CAP
1 *2216:A2 0.000456492
2 *2094:B2 1.67731e-05
3 *2095:A2 0.000234935
4 *2264:Q 0.000233607
5 *343:19 0.000490421
6 *343:8 0.000485698
7 *2094:A1 *2094:B2 2.17096e-05
8 *2094:A1 *2095:A2 1.37748e-05
9 *2094:A1 *2216:A2 0
10 *2094:B1 *2095:A2 8.66771e-06
11 *2094:B1 *2216:A2 0
12 *2096:A2 *2095:A2 4.60026e-05
13 *2096:A2 *2216:A2 0
14 *2096:A2 *343:8 0.000448839
15 *2096:A3 *2094:B2 8.66771e-06
16 *2096:A3 *2095:A2 0
17 *2096:A3 *2216:A2 1.29938e-05
18 *2296:D *2216:A2 6.07869e-05
19 *2296:D *343:8 3.64721e-05
20 *261:18 *2216:A2 0
*RES
1 *2264:Q *343:8 6.68182 
2 *343:8 *2095:A2 6.59091 
3 *343:8 *343:19 0.272727 
4 *343:19 *2094:B2 4.84416 
5 *343:19 *2216:A2 6.68182 
*END

*D_NET *344 0.0130673
*CONN
*I *2212:A2 I *D gf180mcu_fd_sc_mcu7t5v0__xor2_1
*I *2091:B2 I *D gf180mcu_fd_sc_mcu7t5v0__aoi22_1
*I *2092:A2 I *D gf180mcu_fd_sc_mcu7t5v0__nor2_1
*I *2265:Q O *D gf180mcu_fd_sc_mcu7t5v0__dffq_1
*CAP
1 *2212:A2 0
2 *2091:B2 0.000291791
3 *2092:A2 0.000235218
4 *2265:Q 0.00100394
5 *344:12 0.000991936
6 *344:10 0.00146887
7 *2091:B1 *2091:B2 9.7259e-05
8 *2092:A1 *2092:A2 0.000149171
9 *2092:A1 *344:12 0.00020884
10 *2093:A3 *2092:A2 3.20443e-05
11 *2214:A1 *2091:B2 0.00108669
12 *2214:A3 *344:12 0.00199896
13 *2215:A2 *344:10 2.4229e-05
14 *2215:A3 *344:10 0.000805526
15 *2215:A3 *344:12 0.000984478
16 *2264:D *344:10 4.98809e-05
17 *262:10 *344:10 0.00198262
18 *262:10 *344:12 5.96686e-05
19 *287:13 *2092:A2 0
20 *329:83 *2091:B2 0.00134678
21 *329:96 *2091:B2 0.000249404
*RES
1 *2265:Q *344:10 16.8182 
2 *344:10 *344:12 4.45454 
3 *344:12 *2092:A2 10.1818 
4 *344:12 *2091:B2 12.1818 
5 *344:10 *2212:A2 9 
*END

*D_NET *345 0.0070944
*CONN
*I *2088:B2 I *D gf180mcu_fd_sc_mcu7t5v0__aoi22_1
*I *2208:A2 I *D gf180mcu_fd_sc_mcu7t5v0__xor2_1
*I *2089:A2 I *D gf180mcu_fd_sc_mcu7t5v0__nor2_1
*I *2266:Q O *D gf180mcu_fd_sc_mcu7t5v0__dffq_1
*CAP
1 *2088:B2 0.000616885
2 *2208:A2 4.61086e-05
3 *2089:A2 0.000382348
4 *2266:Q 0.000699934
5 *345:14 0.000504238
6 *345:12 0.0013926
7 *2088:B1 *2088:B2 0.000192237
8 *2089:A1 *2089:A2 0.000768855
9 *2090:A3 *2089:A2 0
10 *204:10 *2088:B2 0
11 *204:10 *2208:A2 0.000149643
12 *263:10 *2088:B2 0.000703358
13 *263:10 *2089:A2 0.000256267
14 *263:10 *345:12 0.000277783
15 *263:10 *345:14 0.000717615
16 *288:29 *2089:A2 2.43148e-05
17 *289:10 *345:12 0.00014818
18 *289:10 *345:14 0.000214038
*RES
1 *2266:Q *345:12 12.9091 
2 *345:12 *345:14 1.36363 
3 *345:14 *2089:A2 11.4545 
4 *345:14 *2208:A2 9.27273 
5 *345:12 *2088:B2 13.0909 
*END

*D_NET *346 0.00824927
*CONN
*I *2204:A2 I *D gf180mcu_fd_sc_mcu7t5v0__xor2_1
*I *2085:B2 I *D gf180mcu_fd_sc_mcu7t5v0__aoi22_1
*I *2086:A2 I *D gf180mcu_fd_sc_mcu7t5v0__nor2_1
*I *2267:Q O *D gf180mcu_fd_sc_mcu7t5v0__dffq_1
*CAP
1 *2204:A2 0.000120883
2 *2085:B2 0.000451586
3 *2086:A2 0.000174271
4 *2267:Q 0.00115575
5 *346:33 0.00112968
6 *346:14 0.00188724
7 *2085:A1 *2085:B2 0
8 *2085:A1 *2204:A2 8.01107e-05
9 *2086:A1 *346:33 0.00028837
10 *2087:A3 *2086:A2 0.000231451
11 *2087:A3 *346:14 0
12 *2087:A3 *346:33 8.23277e-05
13 *2204:A1 *2204:A2 2.42537e-05
14 *2266:D *2085:B2 4.2082e-05
15 *2267:D *346:14 0.000151431
16 *2267:CLK *2085:B2 5.45152e-05
17 *2299:D *2085:B2 0.00143089
18 *2299:D *346:33 0.000563788
19 *2300:CLK *346:14 0
20 *264:10 *346:33 0.000147287
21 *264:19 *2204:A2 0.000121225
22 *264:19 *346:33 0.000112126
*RES
1 *2267:Q *346:14 19.4091 
2 *346:14 *2086:A2 14.8636 
3 *346:14 *346:33 7.77272 
4 *346:33 *2085:B2 12.2727 
5 *346:33 *2204:A2 9.63636 
*END

*D_NET *347 0.00373477
*CONN
*I *2083:A2 I *D gf180mcu_fd_sc_mcu7t5v0__nor2_1
*I *2082:B2 I *D gf180mcu_fd_sc_mcu7t5v0__aoi22_1
*I *2200:A2 I *D gf180mcu_fd_sc_mcu7t5v0__xor2_1
*I *2268:Q O *D gf180mcu_fd_sc_mcu7t5v0__dffq_1
*CAP
1 *2083:A2 0.000177292
2 *2082:B2 0
3 *2200:A2 0.000557198
4 *2268:Q 0.000482946
5 *347:8 0.000862852
6 *2082:B1 *2200:A2 0.000684215
7 *2082:B1 *347:8 4.33103e-05
8 *2084:A2 *2200:A2 0.000133731
9 *2201:A1 *2200:A2 7.29225e-05
10 *2201:B *2200:A2 4.33103e-05
11 *2203:A2 *2200:A2 5.16556e-06
12 *265:12 *2083:A2 0.000298835
13 *265:12 *2200:A2 4.85075e-05
14 *328:173 *2200:A2 1.59424e-05
15 *334:43 *2200:A2 6.95629e-05
16 *334:43 *347:8 0.000238976
*RES
1 *2268:Q *347:8 7.66233 
2 *347:8 *2200:A2 7.51948 
3 *347:8 *2082:B2 4.5 
4 *2200:A2 *2083:A2 10.4545 
*END

*D_NET *348 0.0052683
*CONN
*I *2147:A2 I *D gf180mcu_fd_sc_mcu7t5v0__nor2_1
*I *2056:A2 I *D gf180mcu_fd_sc_mcu7t5v0__xor2_1
*I *2146:B2 I *D gf180mcu_fd_sc_mcu7t5v0__aoi22_1
*I *2250:Q O *D gf180mcu_fd_sc_mcu7t5v0__dffq_1
*CAP
1 *2147:A2 0.00011483
2 *2056:A2 0.000315541
3 *2146:B2 0
4 *2250:Q 0.000589891
5 *348:6 0.000790602
6 *2056:A1 *2056:A2 1.85737e-06
7 *2056:A1 *2147:A2 0.000266791
8 *2056:A1 *348:6 1.39302e-05
9 *2146:A2 *2056:A2 5.90759e-05
10 *2146:A2 *348:6 5.50994e-06
11 *2146:B1 *2056:A2 3.20443e-05
12 *2146:B1 *348:6 0.000210798
13 *2148:A1 *348:6 0.00022431
14 *2148:A2 *2056:A2 0.000488118
15 *2148:A3 *2147:A2 0.000266791
16 *266:6 *2147:A2 0
17 *334:248 *348:6 0.0015463
18 *334:269 *2056:A2 0.000252835
19 *334:269 *348:6 8.9073e-05
*RES
1 *2250:Q *348:6 8.66233 
2 *348:6 *2146:B2 4.5 
3 *348:6 *2056:A2 6.33766 
4 *2056:A2 *2147:A2 10.1818 
*END

*D_NET *349 0.0110453
*CONN
*I *2079:B2 I *D gf180mcu_fd_sc_mcu7t5v0__aoi22_1
*I *2080:A2 I *D gf180mcu_fd_sc_mcu7t5v0__nor2_1
*I *2196:A2 I *D gf180mcu_fd_sc_mcu7t5v0__xor2_1
*I *2269:Q O *D gf180mcu_fd_sc_mcu7t5v0__dffq_1
*CAP
1 *2079:B2 0.000582872
2 *2080:A2 0.000401393
3 *2196:A2 0.000109031
4 *2269:Q 9.0361e-05
5 *349:10 0.00116194
6 *349:6 0.00132475
7 *2079:B2 *369:316 4.44608e-05
8 *349:10 *369:303 6.66296e-05
9 *2079:B1 *2079:B2 7.27612e-05
10 *2079:B1 *349:10 3.63434e-05
11 *2081:A2 *2079:B2 3.1472e-05
12 *2081:A2 *2080:A2 2.00277e-05
13 *2081:A2 *349:10 0
14 *2081:A3 *2080:A2 0.000823099
15 *2170:A2 *2079:B2 0.00097385
16 *2196:A1 *349:10 3.63434e-05
17 *2301:D *2196:A2 0.000358011
18 *2301:D *349:10 0.000149171
19 *195:10 *2196:A2 0.000153774
20 *267:8 *349:10 2.4229e-05
21 *289:71 *2080:A2 0.000182361
22 *292:12 *2079:B2 0.000378663
23 *304:18 *2079:B2 0.000997526
24 *304:18 *349:6 0.000548687
25 *305:24 *2080:A2 5.19985e-05
26 *307:48 *2196:A2 0.000447514
27 *307:48 *349:10 0.00127598
28 *308:26 *2079:B2 0.000255283
29 *308:26 *349:6 0.000133731
30 *328:32 *2079:B2 0.00028317
31 *328:118 *2079:B2 2.98343e-05
*RES
1 *2269:Q *349:6 5.5 
2 *349:6 *349:10 8.22727 
3 *349:10 *2196:A2 10.3636 
4 *349:10 *2080:A2 11.6364 
5 *349:6 *2079:B2 18.026 
*END

*D_NET *350 0.00532617
*CONN
*I *2077:A2 I *D gf180mcu_fd_sc_mcu7t5v0__nor2_1
*I *2076:B2 I *D gf180mcu_fd_sc_mcu7t5v0__aoi22_1
*I *2192:A2 I *D gf180mcu_fd_sc_mcu7t5v0__xor2_1
*I *2270:Q O *D gf180mcu_fd_sc_mcu7t5v0__dffq_1
*CAP
1 *2077:A2 0.000400682
2 *2076:B2 0
3 *2192:A2 0.00170504
4 *2270:Q 0.00144966
5 *350:22 0.000656054
6 *2076:A1 *2077:A2 0
7 *2076:A1 *350:22 1.60221e-05
8 *2078:A1 *2077:A2 1.92848e-05
9 *2173:A3 *2192:A2 0
10 *2192:A1 *350:22 0.000315212
11 *2194:A3 *2192:A2 5.45152e-05
12 *2270:CLK *2192:A2 0
13 *268:10 *2192:A2 0
14 *268:16 *2077:A2 0.000666393
15 *268:16 *2192:A2 0
16 *268:16 *350:22 4.33103e-05
17 *292:78 *2192:A2 0
*RES
1 *2270:Q *2192:A2 25.1818 
2 *2192:A2 *350:22 5.93506 
3 *350:22 *2076:B2 4.5 
4 *350:22 *2077:A2 15.2273 
*END

*D_NET *351 0.0076589
*CONN
*I *2188:A2 I *D gf180mcu_fd_sc_mcu7t5v0__xor2_1
*I *2074:A2 I *D gf180mcu_fd_sc_mcu7t5v0__nor2_1
*I *2073:B2 I *D gf180mcu_fd_sc_mcu7t5v0__aoi22_1
*I *2271:Q O *D gf180mcu_fd_sc_mcu7t5v0__dffq_1
*CAP
1 *2188:A2 0
2 *2074:A2 0.000335853
3 *2073:B2 0
4 *2271:Q 0.00133322
5 *351:14 0.00086599
6 *351:8 0.00186335
7 *2074:A2 *2073:A1 0
8 *2074:A2 *369:291 0.00013161
9 *351:14 *369:291 4.46331e-05
10 *2073:B1 *2074:A2 0
11 *2073:B1 *351:14 0.000698242
12 *2075:A2 *2074:A2 4.86295e-05
13 *2075:A3 *2074:A2 0
14 *2075:A3 *351:8 0
15 *2188:A1 *351:14 0.000548689
16 *2189:B *351:14 3.37344e-05
17 *2191:A2 *351:14 0
18 *2303:CLK *351:8 0.000736436
19 *2303:CLK *351:14 0.000272031
20 *292:55 *351:8 0.000294574
21 *292:70 *351:8 0.000336656
22 *331:98 *351:8 0.000115251
*RES
1 *2271:Q *351:8 18.1818 
2 *351:8 *351:14 7.66233 
3 *351:14 *2073:B2 4.5 
4 *351:14 *2074:A2 6.7013 
5 *351:8 *2188:A2 9 
*END

*D_NET *352 0.0102465
*CONN
*I *2071:A2 I *D gf180mcu_fd_sc_mcu7t5v0__nor2_1
*I *2184:A2 I *D gf180mcu_fd_sc_mcu7t5v0__xor2_1
*I *2070:B2 I *D gf180mcu_fd_sc_mcu7t5v0__aoi22_1
*I *2272:Q O *D gf180mcu_fd_sc_mcu7t5v0__dffq_1
*CAP
1 *2071:A2 0.000151378
2 *2184:A2 7.24116e-05
3 *2070:B2 0.000313202
4 *2272:Q 0.00221492
5 *352:12 0.000619951
6 *352:10 0.00260064
7 *352:10 *2181:A1 0
8 *352:10 *369:230 0
9 *352:10 *369:435 0
10 *2070:A2 *2070:B2 7.17414e-05
11 *2070:B1 *2070:B2 0.00069833
12 *2071:A1 *2071:A2 0.000112126
13 *2072:A2 *2071:A2 3.03292e-05
14 *2072:A3 *2071:A2 2.43148e-05
15 *2072:A3 *352:12 0
16 *2184:A1 *2070:B2 0.000149553
17 *2184:A1 *2184:A2 0.00021824
18 *2275:CLK *352:10 7.27179e-05
19 *2304:D *2184:A2 0.000448837
20 *2304:CLK *2070:B2 0.00017715
21 *186:14 *2070:B2 6.67623e-05
22 *270:8 *352:10 0.000717548
23 *270:12 *2070:B2 0.000256267
24 *270:12 *352:10 0.000358774
25 *270:12 *352:12 0.000871309
*RES
1 *2272:Q *352:10 18.6364 
2 *352:10 *352:12 1.54545 
3 *352:12 *2070:B2 11.4351 
4 *352:12 *2184:A2 9.81818 
5 *352:10 *2071:A2 9.81818 
*END

*D_NET *353 0.00604932
*CONN
*I *2067:B2 I *D gf180mcu_fd_sc_mcu7t5v0__aoi22_1
*I *2068:A2 I *D gf180mcu_fd_sc_mcu7t5v0__nor2_1
*I *2180:A2 I *D gf180mcu_fd_sc_mcu7t5v0__xor2_1
*I *2273:Q O *D gf180mcu_fd_sc_mcu7t5v0__dffq_1
*CAP
1 *2067:B2 0.000144643
2 *2068:A2 0.000218092
3 *2180:A2 0.00123326
4 *2273:Q 0.00111878
5 *353:20 0.000477217
6 *2067:B1 *2067:B2 0.000812174
7 *2069:A1 *2067:B2 0.000973832
8 *2069:A1 *2180:A2 0.000400525
9 *2069:A2 *2067:B2 2.17096e-05
10 *2069:A2 *2068:A2 4.81947e-05
11 *2069:A2 *353:20 7.57616e-06
12 *2069:A3 *2068:A2 0.000104457
13 *2180:A1 *2180:A2 1.21574e-05
14 *2182:A3 *353:20 1.30016e-05
15 *2305:D *2180:A2 5.19908e-05
16 *271:14 *2180:A2 0
17 *271:21 *2068:A2 0.000145887
18 *271:21 *2180:A2 2.89272e-05
19 *271:21 *353:20 4.80664e-05
20 *293:53 *2067:B2 0.000188835
21 *293:53 *2068:A2 0
*RES
1 *2273:Q *2180:A2 15.0909 
2 *2180:A2 *353:20 5.22727 
3 *353:20 *2068:A2 5.68182 
4 *353:20 *2067:B2 15.5714 
*END

*D_NET *354 0.0030605
*CONN
*I *2177:A2 I *D gf180mcu_fd_sc_mcu7t5v0__nor2_1
*I *2178:A2 I *D gf180mcu_fd_sc_mcu7t5v0__xor3_1
*I *2176:A2 I *D gf180mcu_fd_sc_mcu7t5v0__nand2_1
*I *2274:Q O *D gf180mcu_fd_sc_mcu7t5v0__dffq_1
*CAP
1 *2177:A2 0.00053407
2 *2178:A2 0
3 *2176:A2 0.00050081
4 *2274:Q 0.000134456
5 *354:21 0.000628658
6 *354:6 0.000729854
7 *2065:A2 *2176:A2 0.000130797
8 *2065:A2 *2177:A2 0
9 *2065:A2 *354:21 4.33385e-06
10 *2065:B *2177:A2 6.06649e-05
11 *2176:A1 *2176:A2 3.02848e-05
12 *2177:A1 *2177:A2 8.67643e-05
13 *2178:A1 *2177:A2 9.97618e-05
14 *2178:A3 *2177:A2 0
15 *272:16 *2177:A2 0.000115709
16 *292:76 *2176:A2 4.33385e-06
*RES
1 *2274:Q *354:6 5.13636 
2 *354:6 *2176:A2 6.86363 
3 *354:6 *354:21 0.90909 
4 *354:21 *2178:A2 4.5 
5 *354:21 *2177:A2 7.5 
*END

*D_NET *355 0.0169686
*CONN
*I *2171:A2 I *D gf180mcu_fd_sc_mcu7t5v0__nand2_1
*I *2173:A2 I *D gf180mcu_fd_sc_mcu7t5v0__xor3_1
*I *2172:A2 I *D gf180mcu_fd_sc_mcu7t5v0__nor2_1
*I *2275:Q O *D gf180mcu_fd_sc_mcu7t5v0__dffq_1
*CAP
1 *2171:A2 0.000483526
2 *2173:A2 0.000106232
3 *2172:A2 0.000120021
4 *2275:Q 0.0055652
5 *355:14 0.000385406
6 *355:10 0.00620787
7 *2064:A1 *2172:A2 0
8 *2064:A1 *2173:A2 0
9 *2064:B *2172:A2 4.80664e-05
10 *2065:B *355:10 0.000273533
11 *2171:A1 *2171:A2 0.000377628
12 *2173:A1 *2171:A2 0.000142014
13 *2173:A1 *2172:A2 0.000242189
14 *2173:A1 *2173:A2 0.000448837
15 *2173:A3 *355:10 0.000146877
16 *2173:A3 *355:14 9.34672e-05
17 *2174:A1 *355:10 0
18 *2176:A1 *355:10 0
19 *2178:A3 *355:10 0.000173582
20 *2273:D *355:10 0.000686188
21 *179:12 *355:10 0.000280402
22 *272:10 *355:10 0.000328177
23 *272:16 *355:10 0
24 *273:23 *2171:A2 0.000440032
25 *273:23 *2172:A2 7.12584e-06
26 *292:76 *355:10 0
27 *328:83 *2171:A2 0.00041227
*RES
1 *2275:Q *355:10 41.3636 
2 *355:10 *355:14 5.13636 
3 *355:14 *2172:A2 5.31818 
4 *355:14 *2173:A2 5.31818 
5 *355:10 *2171:A2 12.3636 
*END

*D_NET *356 0.00408219
*CONN
*I *2167:A2 I *D gf180mcu_fd_sc_mcu7t5v0__nor2_1
*I *2168:A2 I *D gf180mcu_fd_sc_mcu7t5v0__xor3_1
*I *2166:A2 I *D gf180mcu_fd_sc_mcu7t5v0__nand2_1
*I *2276:Q O *D gf180mcu_fd_sc_mcu7t5v0__dffq_1
*CAP
1 *2167:A2 0.000303575
2 *2168:A2 0.000187855
3 *2166:A2 0.00020881
4 *2276:Q 0.000519892
5 *356:19 0.000654134
6 *356:6 0.000891407
7 *2166:A1 *2166:A2 4.98809e-05
8 *2167:A1 *2167:A2 2.42537e-05
9 *2168:A1 *2167:A2 0
10 *2168:A3 *2168:A2 0.000871372
11 *2169:A2 *2168:A2 5.96686e-05
12 *2169:A2 *356:19 0.000298343
13 *2308:D *2167:A2 1.30016e-05
14 *274:12 *356:19 0
*RES
1 *2276:Q *356:6 7.31818 
2 *356:6 *2166:A2 5.86364 
3 *356:6 *356:19 5.68182 
4 *356:19 *2168:A2 10.7273 
5 *356:19 *2167:A2 10.5455 
*END

*D_NET *357 0.00525808
*CONN
*I *2162:A2 I *D gf180mcu_fd_sc_mcu7t5v0__nor2_1
*I *2163:A2 I *D gf180mcu_fd_sc_mcu7t5v0__xor3_1
*I *2161:A2 I *D gf180mcu_fd_sc_mcu7t5v0__nand2_1
*I *2277:Q O *D gf180mcu_fd_sc_mcu7t5v0__dffq_1
*CAP
1 *2162:A2 0.000352137
2 *2163:A2 0.000440504
3 *2161:A2 0.00013005
4 *2277:Q 0
5 *357:17 0.00114014
6 *357:4 0.000477548
7 *2062:A2 *2161:A2 1.92848e-05
8 *2062:C *357:17 5.93324e-05
9 *2161:A1 *2161:A2 4.98809e-05
10 *2161:A1 *357:17 0.000884445
11 *2162:A1 *2162:A2 1.60221e-05
12 *2163:A1 *2163:A2 0.000328249
13 *2163:A3 *2162:A2 0.000149553
14 *2163:A3 *2163:A2 0.000327841
15 *2276:CLK *2163:A2 0
16 *2309:D *2163:A2 0.000169776
17 *2309:D *357:17 9.69717e-05
18 *167:12 *357:17 2.06623e-06
19 *332:77 *2162:A2 0.000149643
20 *332:77 *357:17 0.000464642
*RES
1 *2277:Q *357:4 4.5 
2 *357:4 *2161:A2 5.5 
3 *357:4 *357:17 3.63636 
4 *357:17 *2163:A2 8.5 
5 *357:17 *2162:A2 6.13636 
*END

*D_NET *358 0.011675
*CONN
*I *2156:A2 I *D gf180mcu_fd_sc_mcu7t5v0__nand2_1
*I *2157:A2 I *D gf180mcu_fd_sc_mcu7t5v0__nor2_1
*I *2158:A2 I *D gf180mcu_fd_sc_mcu7t5v0__xor3_1
*I *2278:Q O *D gf180mcu_fd_sc_mcu7t5v0__dffq_1
*CAP
1 *2156:A2 0.000694125
2 *2157:A2 0.000176765
3 *2158:A2 0.000250471
4 *2278:Q 0.00307321
5 *358:10 0.00419457
6 *2156:A2 *2150:A1 0
7 *2061:A2 *2156:A2 4.85075e-05
8 *2061:B *2156:A2 0.00097971
9 *2061:B *2157:A2 0.000448926
10 *2061:C *2156:A2 6.63774e-05
11 *2150:A2 *2156:A2 0
12 *2154:A1 *358:10 0
13 *2156:A1 *2156:A2 0.000412198
14 *2158:A3 *2156:A2 0.00118636
15 *2158:A3 *2157:A2 8.66771e-06
16 *2160:A2 *2158:A2 0
17 *2279:D *2156:A2 3.29289e-05
18 *2310:D *2156:A2 0.000102212
19 *2311:CLK *358:10 0
20 *276:8 *358:10 0
21 *276:12 *2158:A2 0
22 *276:12 *358:10 0
23 *278:10 *358:10 0
24 *322:16 *2158:A2 0
25 *322:16 *358:10 0
26 *332:60 *358:10 0
27 *332:71 *358:10 0
28 *332:109 *358:10 0
*RES
1 *2278:Q *358:10 23.5454 
2 *358:10 *2158:A2 10.5455 
3 *358:10 *2157:A2 10.2727 
4 *358:10 *2156:A2 22.4545 
*END

*D_NET *359 0.0041526
*CONN
*I *2144:A2 I *D gf180mcu_fd_sc_mcu7t5v0__nor2_1
*I *2143:B2 I *D gf180mcu_fd_sc_mcu7t5v0__aoi22_1
*I *2052:A2 I *D gf180mcu_fd_sc_mcu7t5v0__xor2_1
*I *2251:Q O *D gf180mcu_fd_sc_mcu7t5v0__dffq_1
*CAP
1 *2144:A2 0.000372803
2 *2143:B2 0
3 *2052:A2 0.000301359
4 *2251:Q 0.000199328
5 *359:10 0.000541617
6 *359:8 0.000812389
7 *2052:A1 *2052:A2 0.000709019
8 *2052:A1 *359:10 0.000138954
9 *2143:A1 *359:10 0.000109416
10 *2143:A2 *2052:A2 5.26254e-06
11 *2143:A2 *359:8 4.33385e-06
12 *2143:A2 *359:10 2.94083e-05
13 *2143:B1 *2052:A2 0
14 *2144:A1 *359:10 3.0337e-05
15 *2145:A2 *2052:A2 2.8611e-05
16 *2145:A3 *2144:A2 3.20443e-05
17 *2251:D *2144:A2 0
18 *249:12 *2052:A2 0
19 *293:16 *2144:A2 0
20 *334:183 *2144:A2 8.95028e-05
21 *334:183 *359:8 0.000498807
22 *334:183 *359:10 0.000249404
*RES
1 *2251:Q *359:8 5.95454 
2 *359:8 *359:10 1.43506 
3 *359:10 *2052:A2 6.42857 
4 *359:10 *2143:B2 4.5 
5 *359:8 *2144:A2 15.4091 
*END

*D_NET *360 0.00317779
*CONN
*I *2151:A2 I *D gf180mcu_fd_sc_mcu7t5v0__nand2_1
*I *2153:A2 I *D gf180mcu_fd_sc_mcu7t5v0__xor3_1
*I *2152:A2 I *D gf180mcu_fd_sc_mcu7t5v0__nor2_1
*I *2279:Q O *D gf180mcu_fd_sc_mcu7t5v0__dffq_1
*CAP
1 *2151:A2 0.0004566
2 *2153:A2 0.000705859
3 *2152:A2 2.54965e-05
4 *2279:Q 0.000108994
5 *360:6 0.00038375
6 *2060:A2 *2151:A2 2.30729e-05
7 *2060:B *2153:A2 9.44174e-05
8 *2060:B *360:6 0.000249403
9 *2151:A1 *2151:A2 0.000378532
10 *2151:A1 *2153:A2 1.71666e-06
11 *2151:A1 *360:6 6.40885e-05
12 *2153:A1 *2151:A2 0.000315299
13 *2153:A1 *2153:A2 0.000208288
14 *2311:D *2151:A2 0
15 *2311:CLK *2151:A2 9.77407e-05
16 *278:12 *2151:A2 4.85075e-05
17 *278:12 *2153:A2 1.60221e-05
*RES
1 *2279:Q *360:6 5.31818 
2 *360:6 *2152:A2 4.68182 
3 *360:6 *2153:A2 6.31818 
4 *2153:A2 *2151:A2 12 
*END

*D_NET *361 0.0122118
*CONN
*I *2131:A2 I *D gf180mcu_fd_sc_mcu7t5v0__nor2_1
*I *2130:B2 I *D gf180mcu_fd_sc_mcu7t5v0__aoi22_1
*I *2048:A2 I *D gf180mcu_fd_sc_mcu7t5v0__xor2_1
*I *2252:Q O *D gf180mcu_fd_sc_mcu7t5v0__dffq_1
*CAP
1 *2131:A2 0.000303017
2 *2130:B2 0.00034112
3 *2048:A2 0.000153728
4 *2252:Q 0.00110063
5 *361:12 0.000767553
6 *361:10 0.00167635
7 *2130:B2 *2130:A1 1.07625e-05
8 *361:10 *369:277 0.000280402
9 *2046:A3 *361:10 0.000298343
10 *2130:B1 *2130:B2 0.00069833
11 *2131:A1 *2131:A2 0.000557793
12 *2132:A2 *2130:B2 6.40599e-05
13 *2132:A2 *2131:A2 9.96709e-05
14 *280:16 *2130:B2 9.97618e-05
15 *292:23 *2048:A2 0.000358774
16 *292:23 *361:10 0.00189638
17 *292:23 *361:12 0.000973815
18 *292:38 *361:10 0.00205014
19 *303:16 *2048:A2 0.000249404
20 *303:16 *2130:B2 9.55222e-06
21 *310:18 *361:10 7.27179e-05
22 *331:72 *361:10 0.000149553
*RES
1 *2252:Q *361:10 17.1818 
2 *361:10 *361:12 1.72727 
3 *361:12 *2048:A2 10.0909 
4 *361:12 *2130:B2 11.3442 
5 *361:10 *2131:A2 11.2727 
*END

*D_NET *362 0.00878073
*CONN
*I *2128:A2 I *D gf180mcu_fd_sc_mcu7t5v0__nor2_1
*I *2127:B2 I *D gf180mcu_fd_sc_mcu7t5v0__aoi22_1
*I *2044:A2 I *D gf180mcu_fd_sc_mcu7t5v0__xor2_1
*I *2253:Q O *D gf180mcu_fd_sc_mcu7t5v0__dffq_1
*CAP
1 *2128:A2 8.75501e-05
2 *2127:B2 0.000105124
3 *2044:A2 0.000304084
4 *2253:Q 0.000902923
5 *362:14 0.000699967
6 *362:12 0.00128123
7 *362:12 *369:212 6.67623e-05
8 *2042:A2 *362:12 2.4229e-05
9 *2042:A3 *362:12 8.23222e-05
10 *2044:A1 *2044:A2 0.000279895
11 *2044:A1 *362:14 4.93933e-05
12 *2127:A2 *2044:A2 0
13 *2127:A2 *2127:B2 6.74967e-05
14 *2127:A2 *2128:A2 6.07869e-05
15 *2127:A2 *362:14 0
16 *2127:B1 *2127:B2 2.56441e-05
17 *2129:A3 *2128:A2 3.20443e-05
18 *2175:A2 *2044:A2 0.000349165
19 *2285:D *2127:B2 0.000124744
20 *240:10 *362:12 4.93933e-05
21 *243:10 *2044:A2 0.000349165
22 *281:8 *2128:A2 0.000121269
23 *281:19 *362:12 8.23222e-05
24 *281:19 *362:14 0.000263431
25 *330:54 *362:12 0.00306425
26 *330:67 *362:12 0.000307531
*RES
1 *2253:Q *362:12 16.1818 
2 *362:12 *362:14 1.72727 
3 *362:14 *2044:A2 11.1818 
4 *362:14 *2127:B2 9.70779 
5 *362:12 *2128:A2 9.63636 
*END

*D_NET *363 0.00575178
*CONN
*I *2125:A2 I *D gf180mcu_fd_sc_mcu7t5v0__nor2_1
*I *2124:B2 I *D gf180mcu_fd_sc_mcu7t5v0__aoi22_1
*I *2040:A2 I *D gf180mcu_fd_sc_mcu7t5v0__xor2_1
*I *2254:Q O *D gf180mcu_fd_sc_mcu7t5v0__dffq_1
*CAP
1 *2125:A2 0.000194941
2 *2124:B2 0
3 *2040:A2 0.000638645
4 *2254:Q 0.00125969
5 *363:12 0.0017034
6 *2040:A2 *2124:A1 1.29938e-05
7 *2043:A1 *2040:A2 3.09934e-05
8 *2043:A1 *363:12 7.57616e-06
9 *2043:A3 *2040:A2 8.01107e-05
10 *2124:A2 *2040:A2 7.57616e-06
11 *2124:A2 *363:12 7.54e-05
12 *2124:B1 *2040:A2 8.66771e-06
13 *2125:A1 *2125:A2 4.85075e-05
14 *2126:A2 *2040:A2 2.60515e-06
15 *2126:A2 *363:12 2.38806e-05
16 *2126:A3 *2125:A2 0.000145237
17 *2253:D *2040:A2 9.72373e-05
18 *2286:D *2125:A2 1.98013e-05
19 *240:10 *2125:A2 4.85075e-05
20 *282:16 *2125:A2 0.000161103
21 *295:46 *363:12 0.000686188
22 *311:30 *2125:A2 0.000498718
23 *311:30 *363:12 0
24 *322:16 *363:12 0
25 *322:22 *363:12 0
*RES
1 *2254:Q *363:12 20.4805 
2 *363:12 *2040:A2 6.61039 
3 *363:12 *2124:B2 4.5 
4 *2040:A2 *2125:A2 10.8182 
*END

*D_NET *364 0.0039903
*CONN
*I *2036:A2 I *D gf180mcu_fd_sc_mcu7t5v0__xor2_1
*I *2121:B2 I *D gf180mcu_fd_sc_mcu7t5v0__aoi22_1
*I *2122:A2 I *D gf180mcu_fd_sc_mcu7t5v0__nor2_1
*I *2255:Q O *D gf180mcu_fd_sc_mcu7t5v0__dffq_1
*CAP
1 *2036:A2 0
2 *2121:B2 0.000302472
3 *2122:A2 0.000144117
4 *2255:Q 0.000269736
5 *364:10 0.000716324
6 *2122:A2 *369:174 0.000548687
7 *364:10 *369:170 0.000113941
8 *364:10 *369:174 0.000398957
9 *2121:A2 *2121:B2 6.54305e-06
10 *2121:B1 *2121:B2 0.000820074
11 *2123:A3 *2121:B2 7.87441e-05
12 *2165:A2 *2122:A2 0.000145325
13 *2165:A2 *364:10 0.000377463
14 *330:27 *2121:B2 6.31231e-05
15 *330:31 *2121:B2 4.7982e-06
*RES
1 *2255:Q *364:10 6.22727 
2 *364:10 *2122:A2 5.86364 
3 *364:10 *2121:B2 15.3896 
4 *364:10 *2036:A2 4.5 
*END

*D_NET *365 0.0129202
*CONN
*I *2032:A2 I *D gf180mcu_fd_sc_mcu7t5v0__xor2_1
*I *2119:A2 I *D gf180mcu_fd_sc_mcu7t5v0__nor2_1
*I *2118:B2 I *D gf180mcu_fd_sc_mcu7t5v0__aoi22_1
*I *2256:Q O *D gf180mcu_fd_sc_mcu7t5v0__dffq_1
*CAP
1 *2032:A2 0.000100714
2 *2119:A2 0.000263888
3 *2118:B2 0
4 *2256:Q 0.000765767
5 *365:26 0.000843784
6 *365:20 0.00144638
7 *2032:A2 *369:16 0.000149643
8 *2119:A2 *2118:A1 2.69199e-05
9 *365:20 *2033:A1 0.000600148
10 *365:26 *2118:A1 2.43148e-05
11 *365:26 *369:29 8.01147e-05
12 *365:26 *369:31 0.000120172
13 *2032:A1 *2032:A2 9.87866e-05
14 *2032:A1 *365:26 0.000279895
15 *2033:B *365:20 5.97681e-05
16 *2035:A2 *365:20 0.000176364
17 *2118:A2 *365:20 0.000256267
18 *2118:B1 *2119:A2 3.02862e-05
19 *2118:B1 *365:26 0.000387846
20 *2120:A2 *2119:A2 0.000203992
21 *2120:A2 *365:26 8.92662e-05
22 *2120:A3 *2119:A2 0.000512542
23 *284:12 *365:26 0.000181109
24 *300:22 *2119:A2 0.000188031
25 *300:22 *365:26 4.2082e-05
26 *306:20 *2032:A2 0.000149643
27 *306:20 *365:20 0.00304263
28 *307:30 *365:20 0.000847884
29 *310:18 *365:20 0.000646924
30 *321:24 *365:20 0.000242537
31 *324:14 *365:20 0.000162175
32 *326:14 *2119:A2 8.02562e-05
33 *330:12 *2032:A2 0.000358774
34 *330:12 *365:26 0.000461294
*RES
1 *2256:Q *365:20 26.2727 
2 *365:20 *365:26 8.57142 
3 *365:26 *2118:B2 4.5 
4 *365:26 *2119:A2 15.7013 
5 *365:20 *2032:A2 9.90909 
*END

*D_NET *366 0.00530732
*CONN
*I *2116:A2 I *D gf180mcu_fd_sc_mcu7t5v0__nor2_1
*I *2115:B2 I *D gf180mcu_fd_sc_mcu7t5v0__aoi22_1
*I *2244:A2 I *D gf180mcu_fd_sc_mcu7t5v0__xor2_1
*I *2257:Q O *D gf180mcu_fd_sc_mcu7t5v0__dffq_1
*CAP
1 *2116:A2 0.00032874
2 *2115:B2 7.11564e-05
3 *2244:A2 6.58694e-05
4 *2257:Q 0.000454403
5 *366:21 0.000677934
6 *366:6 0.00079831
7 *2115:B2 *2115:A1 1.25888e-05
8 *366:6 *369:97 4.80664e-05
9 *366:6 *369:107 0.000224281
10 *366:21 *2115:A1 0.000249315
11 *2115:A2 *2116:A2 0.000203154
12 *2115:A2 *366:21 0.000383028
13 *2115:B1 *2115:B2 4.85075e-05
14 *2115:B1 *2116:A2 0.000119059
15 *2117:A2 *366:21 0.000181109
16 *2256:CLK *366:6 7.57616e-06
17 *2289:CLK *2115:B2 8.9073e-05
18 *2289:CLK *2116:A2 0.000169776
19 *2289:CLK *366:21 4.80664e-05
20 *231:10 *2244:A2 0
21 *231:10 *366:6 0
22 *295:16 *366:21 0.000399779
23 *301:18 *2244:A2 9.69716e-05
24 *301:18 *366:6 0.000630554
*RES
1 *2257:Q *366:6 6.95454 
2 *366:6 *2244:A2 4.86364 
3 *366:6 *366:21 11.1818 
4 *366:21 *2115:B2 5.11688 
5 *366:21 *2116:A2 15.5909 
*END

*D_NET *367 0.00622542
*CONN
*I *2112:B2 I *D gf180mcu_fd_sc_mcu7t5v0__aoi22_1
*I *2240:A2 I *D gf180mcu_fd_sc_mcu7t5v0__xor2_1
*I *2113:A2 I *D gf180mcu_fd_sc_mcu7t5v0__nor2_1
*I *2258:Q O *D gf180mcu_fd_sc_mcu7t5v0__dffq_1
*CAP
1 *2112:B2 0
2 *2240:A2 0.000514501
3 *2113:A2 0.00038337
4 *2258:Q 0.000484572
5 *367:16 0.000986247
6 *367:8 0.000572949
7 *2112:A1 *367:8 0.000446267
8 *2112:A1 *367:16 1.07625e-05
9 *2112:A2 *2240:A2 0.000189369
10 *2112:A2 *367:8 2.06623e-06
11 *2112:A2 *367:16 1.39762e-05
12 *2112:B1 *367:16 0.000199434
13 *2113:A1 *2113:A2 9.34195e-05
14 *2113:A1 *2240:A2 2.67049e-05
15 *2114:A3 *2113:A2 1.21145e-05
16 *225:18 *2113:A2 0
17 *286:12 *2240:A2 0.000133501
18 *291:69 *2113:A2 0.000448837
19 *291:69 *367:8 9.62735e-05
20 *291:69 *367:16 5.15999e-05
21 *300:28 *2113:A2 0.000214038
22 *300:28 *2240:A2 0.000345753
23 *305:24 *2240:A2 0.000266748
24 *313:22 *367:8 0.000448839
25 *329:14 *2240:A2 0.000266748
26 *333:10 *367:8 1.73354e-05
*RES
1 *2258:Q *367:8 8.06493 
2 *367:8 *367:16 5.38961 
3 *367:16 *2113:A2 11.1818 
4 *367:16 *2240:A2 11.9091 
5 *367:8 *2112:B2 4.5 
*END

*D_NET *4 0.007228
*CONN
*P x[0] I
*I *2362:I I *D gf180mcu_fd_sc_mcu7t5v0__buf_1
*CAP
1 x[0] 0.000638003
2 *2362:I 0.000638003
3 *2362:I *2137:A2 0.000249315
4 *2362:I *2329:I 0.00426413
5 *2362:I *2347:I 0.00119134
6 *2362:I *2349:I 4.85075e-05
7 *2362:I *320:20 0.000198703
*RES
1 x[0] *2362:I 13.8636 
*END

*D_NET *5 0.0105132
*CONN
*P x[10] I
*I *2329:I I *D gf180mcu_fd_sc_mcu7t5v0__buf_1
*CAP
1 x[10] 0.000572374
2 *2329:I 0.000572374
3 *2329:I *2137:A2 2.98343e-05
4 *2329:I *2334:I 0.000477765
5 *2329:I *2353:I 0.00374384
6 *2329:I *311:12 0.000358787
7 *2329:I *320:20 0.000367883
8 *2329:I *323:16 0.000126246
9 *2362:I *2329:I 0.00426413
*RES
1 x[10] *2329:I 23.5909 
*END

*D_NET *6 0.00746997
*CONN
*P x[11] I
*I *2330:I I *D gf180mcu_fd_sc_mcu7t5v0__buf_1
*CAP
1 x[11] 0.00185302
2 *2330:I 0.00185302
3 *2330:I *2331:I 0.00109142
4 *2330:I *2334:I 0.00112942
5 *2330:I *2342:I 7.71391e-05
6 *2330:I *2347:I 0.000873135
7 *2330:I *2356:I 0.000592819
8 *1:12 *2330:I 0
*RES
1 x[11] *2330:I 25.8636 
*END

*D_NET *7 0.00974512
*CONN
*P x[12] I
*I *2331:I I *D gf180mcu_fd_sc_mcu7t5v0__buf_1
*CAP
1 x[12] 0.00152982
2 *2331:I 0.00152982
3 *2331:I *2332:I 0.00150733
4 *2331:I *2344:I 4.85075e-05
5 *2331:I *2346:I 0
6 *2331:I *2350:I 0.000544752
7 *2331:I *2356:I 0.000454374
8 *2331:I *2358:I 0.000149643
9 *2331:I *2363:I 0.000487941
10 *2331:I *297:16 0.000369003
11 *2331:I *305:24 0.00170208
12 *2331:I *325:14 0.000218284
13 *2331:I *329:14 0.000112155
14 *2330:I *2331:I 0.00109142
*RES
1 x[12] *2331:I 18.5909 
*END

*D_NET *8 0.00582147
*CONN
*P x[13] I
*I *2332:I I *D gf180mcu_fd_sc_mcu7t5v0__buf_1
*CAP
1 x[13] 0.00167675
2 *2332:I 0.00167675
3 *2332:I *2344:I 4.85075e-05
4 *2332:I *2350:I 0.000873135
5 *2332:I *2356:I 3.90047e-05
6 *2331:I *2332:I 0.00150733
7 *1:12 *2332:I 0
*RES
1 x[13] *2332:I 25.8636 
*END

*D_NET *9 0.00582595
*CONN
*P x[14] I
*I *2333:I I *D gf180mcu_fd_sc_mcu7t5v0__buf_1
*CAP
1 x[14] 0.000823694
2 *2333:I 0.000823694
3 *2333:I *2335:I 0.000873135
4 *2333:I *2340:I 0.000194518
5 *2333:I *2348:I 0
6 *2333:I *2349:I 0.00174583
7 *2333:I *2351:I 0.000249404
8 *2333:I *2352:I 2.42537e-05
9 *2333:I *2359:I 0.00109142
10 *1:12 *2333:I 0
*RES
1 x[14] *2333:I 22.0454 
*END

*D_NET *10 0.0121149
*CONN
*P x[15] I
*I *2334:I I *D gf180mcu_fd_sc_mcu7t5v0__buf_1
*CAP
1 x[15] 0.00142381
2 *2334:I 0.00142381
3 *2334:I *2338:I 0.000921642
4 *2334:I *2347:I 2.43148e-05
5 *2334:I *2349:I 0.00268535
6 *2334:I *2352:I 0.00214488
7 *2334:I *294:52 0.000115709
8 *2334:I *296:12 0.00135642
9 *2334:I *309:18 0.000149643
10 *2334:I *320:20 0.000262189
11 *2329:I *2334:I 0.000477765
12 *2330:I *2334:I 0.00112942
13 *1:12 *2334:I 0
*RES
1 x[15] *2334:I 28.0454 
*END

*D_NET *11 0.00572076
*CONN
*P x[16] I
*I *2335:I I *D gf180mcu_fd_sc_mcu7t5v0__buf_1
*CAP
1 x[16] 0.000698411
2 *2335:I 0.000698411
3 *2335:I *2349:I 0.000704974
4 *2335:I *2359:I 0.0019403
5 *2335:I *311:12 0.000805526
6 *2333:I *2335:I 0.000873135
*RES
1 x[16] *2335:I 23.2273 
*END

*D_NET *12 0.0103043
*CONN
*P x[17] I
*I *2336:I I *D gf180mcu_fd_sc_mcu7t5v0__buf_1
*CAP
1 x[17] 0.00131469
2 *2336:I 0.00131469
3 *2336:I *2137:A1 0.000851606
4 *2336:I *2137:A2 0.000134443
5 *2336:I *2140:A3 9.55222e-06
6 *2336:I *2149:A2 0.00192078
7 *2336:I *2281:D 7.27612e-05
8 *2336:I *2338:I 9.64239e-05
9 *2336:I *2342:I 3.20443e-05
10 *2336:I *2346:I 0.00336627
11 *2336:I *2354:I 0.00106017
12 *2336:I *2366:I 9.18177e-05
13 *2336:I *151:12 1.47625e-05
14 *2336:I *332:8 0
15 *2336:I *369:67 2.42537e-05
*RES
1 x[17] *2336:I 18.0454 
*END

*D_NET *13 0.0130498
*CONN
*P x[18] I
*I *2337:I I *D gf180mcu_fd_sc_mcu7t5v0__buf_1
*CAP
1 x[18] 0.0010499
2 *2337:I 0.0010499
3 *2337:I *2281:CLK 4.33103e-05
4 *2337:I *2341:I 2.42537e-05
5 *2337:I *2344:I 0.00483835
6 *2337:I *304:18 8.01107e-05
7 *2337:I *308:18 6.06585e-05
8 *2337:I *309:18 0.000548687
9 *2337:I *329:14 0.000654764
10 p *2337:I 0.000625627
11 *2361:I *2337:I 0.0040742
*RES
1 x[18] *2337:I 17.3182 
*END

*D_NET *14 0.00758978
*CONN
*P x[19] I
*I *2338:I I *D gf180mcu_fd_sc_mcu7t5v0__buf_1
*CAP
1 x[19] 0.00108004
2 *2338:I 0.00108004
3 *2338:I *2342:I 0.00213839
4 *2338:I *2346:I 1.81717e-05
5 *2338:I *2347:I 0.000182022
6 *2338:I *2356:I 0.000312824
7 *2338:I *311:12 0.00176022
8 *2334:I *2338:I 0.000921642
9 *2336:I *2338:I 9.64239e-05
*RES
1 x[19] *2338:I 26.1364 
*END

*D_NET *15 0.00838501
*CONN
*P x[1] I
*I *2339:I I *D gf180mcu_fd_sc_mcu7t5v0__buf_1
*CAP
1 x[1] 0.00117589
2 *2339:I 0.00117589
3 *2339:I *2340:I 0.00117707
4 *2339:I *2343:I 0.00242676
5 *2339:I *2351:I 0.0021281
6 *2339:I *2360:I 2.89272e-05
7 *1:8 *2339:I 0.000272376
*RES
1 x[1] *2339:I 24.4091 
*END

*D_NET *16 0.00772963
*CONN
*P x[20] I
*I *2340:I I *D gf180mcu_fd_sc_mcu7t5v0__buf_1
*CAP
1 x[20] 0.00116882
2 *2340:I 0.00116882
3 *2340:I *2343:I 7.80016e-05
4 *2340:I *2345:I 0.000246967
5 *2340:I *2348:I 0.00118886
6 *2340:I *2351:I 6.40885e-05
7 *2340:I *2355:I 0.000240303
8 *2340:I *2360:I 0.00124702
9 *2340:I *321:24 0.000149643
10 *2333:I *2340:I 0.000194518
11 *2339:I *2340:I 0.00117707
12 *1:12 *2340:I 0.000805526
*RES
1 x[20] *2340:I 25.2273 
*END

*D_NET *17 0.0107622
*CONN
*P x[21] I
*I *2341:I I *D gf180mcu_fd_sc_mcu7t5v0__buf_1
*CAP
1 x[21] 0.00119741
2 *2341:I 0.00119741
3 *2341:I *2344:I 0.00324226
4 *2341:I *2346:I 0.0024424
5 *2341:I *2350:I 0.000233232
6 *2341:I *2356:I 0.00160075
7 *2341:I *311:12 0.000176186
8 *2341:I *313:22 0.000648272
9 *2337:I *2341:I 2.42537e-05
10 *1:12 *2341:I 0
*RES
1 x[21] *2341:I 25.8636 
*END

*D_NET *18 0.0100305
*CONN
*P x[22] I
*I *2342:I I *D gf180mcu_fd_sc_mcu7t5v0__buf_1
*CAP
1 x[22] 0.00122087
2 *2342:I 0.00122087
3 *2342:I *2344:I 0.00121993
4 *2342:I *2346:I 0.00313564
5 *2342:I *2356:I 7.27612e-05
6 *2342:I *297:16 0.000264508
7 *2342:I *329:14 0.000648359
8 *2330:I *2342:I 7.71391e-05
9 *2336:I *2342:I 3.20443e-05
10 *2338:I *2342:I 0.00213839
11 *1:12 *2342:I 0
*RES
1 x[22] *2342:I 27.0454 
*END

*D_NET *19 0.00853156
*CONN
*P x[23] I
*I *2343:I I *D gf180mcu_fd_sc_mcu7t5v0__buf_1
*CAP
1 x[23] 0.00130888
2 *2343:I 0.00130888
3 *2343:I *2345:I 0.000921642
4 *2343:I *2348:I 0.000921642
5 *2343:I *2351:I 0.000768815
6 *2343:I *2357:I 0.000477348
7 *2343:I *306:20 0.000319589
8 *2339:I *2343:I 0.00242676
9 *2340:I *2343:I 7.80016e-05
*RES
1 x[23] *2343:I 25.5909 
*END

*D_NET *20 0.0158799
*CONN
*P x[24] I
*I *2344:I I *D gf180mcu_fd_sc_mcu7t5v0__buf_1
*CAP
1 x[24] 0.00134265
2 *2344:I 0.00134265
3 *2344:I *2354:I 0.00138381
4 *2344:I *2356:I 4.80664e-05
5 *2344:I *297:16 0.000145374
6 *2344:I *308:18 0.00169137
7 *2344:I *323:16 0.000378738
8 *2344:I *329:14 0.000149643
9 *2331:I *2344:I 4.85075e-05
10 *2332:I *2344:I 4.85075e-05
11 *2337:I *2344:I 0.00483835
12 *2341:I *2344:I 0.00324226
13 *2342:I *2344:I 0.00121993
*RES
1 x[24] *2344:I 37.5 
*END

*D_NET *21 0.00612966
*CONN
*P x[25] I
*I *2345:I I *D gf180mcu_fd_sc_mcu7t5v0__buf_1
*CAP
1 x[25] 0.00150175
2 *2345:I 0.00150175
3 *2345:I *2348:I 0.000594308
4 *2345:I *2355:I 0.000267462
5 *2345:I *2357:I 0.00108366
6 *2345:I *2360:I 0
7 *2345:I *311:12 0
8 *2340:I *2345:I 0.000246967
9 *2343:I *2345:I 0.000921642
10 *1:12 *2345:I 1.21145e-05
*RES
1 x[25] *2345:I 25.2273 
*END

*D_NET *22 0.0122994
*CONN
*P x[26] I
*I *2346:I I *D gf180mcu_fd_sc_mcu7t5v0__buf_1
*CAP
1 x[26] 0.00104537
2 *2346:I 0.00104537
3 *2346:I *2350:I 0.000768855
4 *2346:I *2356:I 0.000477349
5 *2331:I *2346:I 0
6 *2336:I *2346:I 0.00336627
7 *2338:I *2346:I 1.81717e-05
8 *2341:I *2346:I 0.0024424
9 *2342:I *2346:I 0.00313564
10 *1:12 *2346:I 0
*RES
1 x[26] *2346:I 26.5909 
*END

*D_NET *23 0.00749537
*CONN
*P x[27] I
*I *2347:I I *D gf180mcu_fd_sc_mcu7t5v0__buf_1
*CAP
1 x[27] 0.00150311
2 *2347:I 0.00150311
3 *2347:I *2149:B 1.73354e-05
4 *2347:I *2349:I 4.85075e-05
5 *2347:I *255:23 0
6 *2347:I *320:20 0.0015324
7 *2347:I *325:14 0.000363763
8 *2347:I *332:8 0.000227715
9 *2347:I *332:16 2.8611e-05
10 *2330:I *2347:I 0.000873135
11 *2334:I *2347:I 2.43148e-05
12 *2338:I *2347:I 0.000182022
13 *2362:I *2347:I 0.00119134
*RES
1 x[27] *2347:I 17.4091 
*END

*D_NET *24 0.00775358
*CONN
*P x[28] I
*I *2348:I I *D gf180mcu_fd_sc_mcu7t5v0__buf_1
*CAP
1 x[28] 0.00119904
2 *2348:I 0.00119904
3 *2348:I *2355:I 9.10109e-05
4 *2348:I *300:22 4.33308e-05
5 *2348:I *302:18 0.000970124
6 *2348:I *331:6 0.00154621
7 *2333:I *2348:I 0
8 *2340:I *2348:I 0.00118886
9 *2343:I *2348:I 0.000921642
10 *2345:I *2348:I 0.000594308
*RES
1 x[28] *2348:I 16.5 
*END

*D_NET *25 0.00935449
*CONN
*P x[29] I
*I *2349:I I *D gf180mcu_fd_sc_mcu7t5v0__buf_1
*CAP
1 x[29] 0.00131477
2 *2349:I 0.00131477
3 *2349:I *2352:I 0.000898762
4 *2349:I *2359:I 0.000218415
5 *2349:I *296:12 0.000230441
6 *2349:I *301:18 0
7 *2349:I *319:14 0.000144171
8 *2333:I *2349:I 0.00174583
9 *2334:I *2349:I 0.00268535
10 *2335:I *2349:I 0.000704974
11 *2347:I *2349:I 4.85075e-05
12 *2362:I *2349:I 4.85075e-05
*RES
1 x[29] *2349:I 25.7727 
*END

*D_NET *26 0.00734049
*CONN
*P x[2] I
*I *2350:I I *D gf180mcu_fd_sc_mcu7t5v0__buf_1
*CAP
1 x[2] 0.00144046
2 *2350:I 0.00144046
3 *2350:I *2239:A1 0.000194518
4 *2350:I *2356:I 0.00142295
5 *2350:I *311:12 0.000266705
6 *2350:I *313:22 4.33385e-05
7 *2350:I *323:16 0.000112098
8 *2331:I *2350:I 0.000544752
9 *2332:I *2350:I 0.000873135
10 *2341:I *2350:I 0.000233232
11 *2346:I *2350:I 0.000768855
12 *1:12 *2350:I 0
*RES
1 x[2] *2350:I 25.8636 
*END

*D_NET *27 0.00982176
*CONN
*P x[30] I
*I *2351:I I *D gf180mcu_fd_sc_mcu7t5v0__buf_1
*CAP
1 x[30] 0.000725929
2 *2351:I 0.000725929
3 *2351:I *2355:I 0.00204511
4 *2351:I *2357:I 0.000358774
5 *2351:I *2359:I 0.000577238
6 *2351:I *2360:I 0.00204511
7 *2333:I *2351:I 0.000249404
8 *2339:I *2351:I 0.0021281
9 *2340:I *2351:I 6.40885e-05
10 *2343:I *2351:I 0.000768815
11 *1:12 *2351:I 0.000133259
*RES
1 x[30] *2351:I 23.8636 
*END

*D_NET *28 0.00571406
*CONN
*P x[31] I
*I *2352:I I *D gf180mcu_fd_sc_mcu7t5v0__buf_1
*CAP
1 x[31] 0.000515576
2 *2352:I 0.000515576
3 *2352:I *2353:I 0.00140618
4 *2352:I *311:12 0.00020884
5 *2333:I *2352:I 2.42537e-05
6 *2334:I *2352:I 0.00214488
7 *2349:I *2352:I 0.000898762
*RES
1 x[31] *2352:I 21.7727 
*END

*D_NET *29 0.00591537
*CONN
*P x[3] I
*I *2353:I I *D gf180mcu_fd_sc_mcu7t5v0__buf_1
*CAP
1 x[3] 0.000382675
2 *2353:I 0.000382675
3 *2329:I *2353:I 0.00374384
4 *2352:I *2353:I 0.00140618
*RES
1 x[3] *2353:I 12.5 
*END

*D_NET *30 0.0113603
*CONN
*P x[4] I
*I *2354:I I *D gf180mcu_fd_sc_mcu7t5v0__buf_1
*CAP
1 x[4] 0.00126501
2 *2354:I 0.00126501
3 *2354:I *2137:A1 0
4 *2354:I *2137:A2 0.000197619
5 *2354:I *2281:CLK 1.21145e-05
6 *2354:I *2358:I 0.00527707
7 *2354:I *2366:I 9.18177e-05
8 *2354:I *297:16 0.000200287
9 *2354:I *308:18 0.000607416
10 *2336:I *2354:I 0.00106017
11 *2344:I *2354:I 0.00138381
*RES
1 x[4] *2354:I 27.0454 
*END

*D_NET *31 0.00867348
*CONN
*P x[5] I
*I *2355:I I *D gf180mcu_fd_sc_mcu7t5v0__buf_1
*CAP
1 x[5] 0.00120238
2 *2355:I 0.00120238
3 *2355:I *2357:I 0.00101866
4 *2355:I *2360:I 0.000945896
5 *2355:I *302:18 0.000777235
6 *2355:I *321:24 0.000883039
7 *2340:I *2355:I 0.000240303
8 *2345:I *2355:I 0.000267462
9 *2348:I *2355:I 9.10109e-05
10 *2351:I *2355:I 0.00204511
*RES
1 x[5] *2355:I 17.3182 
*END

*D_NET *32 0.00758632
*CONN
*P x[6] I
*I *2356:I I *D gf180mcu_fd_sc_mcu7t5v0__buf_1
*CAP
1 x[6] 0.00122214
2 *2356:I 0.00122214
3 *2356:I *311:12 0.000121145
4 *2356:I *335:14 0
5 *2356:I *335:16 0
6 *2330:I *2356:I 0.000592819
7 *2331:I *2356:I 0.000454374
8 *2332:I *2356:I 3.90047e-05
9 *2338:I *2356:I 0.000312824
10 *2341:I *2356:I 0.00160075
11 *2342:I *2356:I 7.27612e-05
12 *2344:I *2356:I 4.80664e-05
13 *2346:I *2356:I 0.000477349
14 *2350:I *2356:I 0.00142295
15 *1:12 *2356:I 0
*RES
1 x[6] *2356:I 25.8636 
*END

*D_NET *33 0.00633344
*CONN
*P x[7] I
*I *2357:I I *D gf180mcu_fd_sc_mcu7t5v0__buf_1
*CAP
1 x[7] 0.00161071
2 *2357:I 0.00161071
3 *2343:I *2357:I 0.000477348
4 *2345:I *2357:I 0.00108366
5 *2351:I *2357:I 0.000358774
6 *2355:I *2357:I 0.00101866
7 *1:12 *2357:I 0.000173582
*RES
1 x[7] *2357:I 25.8636 
*END

*D_NET *34 0.0118653
*CONN
*P x[8] I
*I *2358:I I *D gf180mcu_fd_sc_mcu7t5v0__buf_1
*CAP
1 x[8] 0.00137894
2 *2358:I 0.00137894
3 *2358:I *2141:A2 0
4 *2358:I *2281:CLK 0.00025627
5 *2358:I *297:16 0.000358785
6 *2358:I *305:24 0.000149643
7 *2358:I *308:18 0.000242537
8 *2358:I *325:14 0.000218435
9 p *2358:I 0.00240655
10 *2331:I *2358:I 0.000149643
11 *2354:I *2358:I 0.00527707
12 *2361:I *2358:I 4.85075e-05
*RES
1 x[8] *2358:I 27.3182 
*END

*D_NET *35 0.00618095
*CONN
*P x[9] I
*I *2359:I I *D gf180mcu_fd_sc_mcu7t5v0__buf_1
*CAP
1 x[9] 0.000790175
2 *2359:I 0.000790175
3 *2359:I *300:22 0.000138703
4 *2359:I *319:14 0.000448837
5 *2359:I *332:26 0.000185685
6 *2333:I *2359:I 0.00109142
7 *2335:I *2359:I 0.0019403
8 *2349:I *2359:I 0.000218415
9 *2351:I *2359:I 0.000577238
*RES
1 x[9] *2359:I 14.7727 
*END

*D_NET *36 0.00933514
*CONN
*P y I
*I *2360:I I *D gf180mcu_fd_sc_mcu7t5v0__buf_1
*CAP
1 y 0.00102338
2 *2360:I 0.00102338
3 *2360:I *311:12 0.00176022
4 *2339:I *2360:I 2.89272e-05
5 *2340:I *2360:I 0.00124702
6 *2345:I *2360:I 0
7 *2351:I *2360:I 0.00204511
8 *2355:I *2360:I 0.000945896
9 *1:8 *2360:I 0.00126119
*RES
1 y *2360:I 26.1364 
*END

*D_NET *369 0.130186
*CONN
*I *2150:A1 I *D gf180mcu_fd_sc_mcu7t5v0__nand2_1
*I *2155:A1 I *D gf180mcu_fd_sc_mcu7t5v0__nand2_1
*I *2134:A1 I *D gf180mcu_fd_sc_mcu7t5v0__aoi21_1
*I *2133:A1 I *D gf180mcu_fd_sc_mcu7t5v0__and3_1
*I *2038:A1 I *D gf180mcu_fd_sc_mcu7t5v0__and3_1
*I *2160:A1 I *D gf180mcu_fd_sc_mcu7t5v0__nand2_1
*I *2037:A1 I *D gf180mcu_fd_sc_mcu7t5v0__aoi21_1
*I *2121:A1 I *D gf180mcu_fd_sc_mcu7t5v0__aoi22_1
*I *2124:A1 I *D gf180mcu_fd_sc_mcu7t5v0__aoi22_1
*I *2042:A1 I *D gf180mcu_fd_sc_mcu7t5v0__and3_1
*I *2041:A1 I *D gf180mcu_fd_sc_mcu7t5v0__aoi21_1
*I *2181:A1 I *D gf180mcu_fd_sc_mcu7t5v0__aoi21_1
*I *2182:A1 I *D gf180mcu_fd_sc_mcu7t5v0__and3_1
*I *2067:A1 I *D gf180mcu_fd_sc_mcu7t5v0__aoi22_1
*I *2070:A1 I *D gf180mcu_fd_sc_mcu7t5v0__aoi22_1
*I *2045:A1 I *D gf180mcu_fd_sc_mcu7t5v0__aoi21_1
*I *2046:A1 I *D gf180mcu_fd_sc_mcu7t5v0__and3_1
*I *2073:A1 I *D gf180mcu_fd_sc_mcu7t5v0__aoi22_1
*I *2189:A1 I *D gf180mcu_fd_sc_mcu7t5v0__aoi21_1
*I *2190:A1 I *D gf180mcu_fd_sc_mcu7t5v0__and3_1
*I *2170:A1 I *D gf180mcu_fd_sc_mcu7t5v0__nand2_1
*I *2130:A1 I *D gf180mcu_fd_sc_mcu7t5v0__aoi22_1
*I *2050:A1 I *D gf180mcu_fd_sc_mcu7t5v0__and3_1
*I *2049:A1 I *D gf180mcu_fd_sc_mcu7t5v0__aoi21_1
*I *2368:I I *D gf180mcu_fd_sc_mcu7t5v0__buf_4
*I *2079:A1 I *D gf180mcu_fd_sc_mcu7t5v0__aoi22_1
*I *2186:A1 I *D gf180mcu_fd_sc_mcu7t5v0__and3_1
*I *2185:A1 I *D gf180mcu_fd_sc_mcu7t5v0__aoi21_1
*I *2175:A1 I *D gf180mcu_fd_sc_mcu7t5v0__nand2_1
*I *2165:A1 I *D gf180mcu_fd_sc_mcu7t5v0__nand2_1
*I *2127:A1 I *D gf180mcu_fd_sc_mcu7t5v0__aoi22_1
*I *2033:A1 I *D gf180mcu_fd_sc_mcu7t5v0__aoi21_1
*I *2118:A1 I *D gf180mcu_fd_sc_mcu7t5v0__aoi22_1
*I *2246:A1 I *D gf180mcu_fd_sc_mcu7t5v0__and3_1
*I *2245:A1 I *D gf180mcu_fd_sc_mcu7t5v0__aoi21_1
*I *2115:A1 I *D gf180mcu_fd_sc_mcu7t5v0__aoi22_1
*I *2137:A1 I *D gf180mcu_fd_sc_mcu7t5v0__nand2_1
*I *2367:I I *D gf180mcu_fd_sc_mcu7t5v0__buf_2
*I *2242:A1 I *D gf180mcu_fd_sc_mcu7t5v0__and3_1
*I *2241:A1 I *D gf180mcu_fd_sc_mcu7t5v0__aoi21_1
*I *2034:A1 I *D gf180mcu_fd_sc_mcu7t5v0__and3_1
*I *2280:Q O *D gf180mcu_fd_sc_mcu7t5v0__dffq_2
*CAP
1 *2150:A1 0.000462041
2 *2155:A1 0.000320506
3 *2134:A1 0
4 *2133:A1 0.00010903
5 *2038:A1 0
6 *2160:A1 0.000998846
7 *2037:A1 3.09656e-05
8 *2121:A1 0.000205945
9 *2124:A1 0.00058275
10 *2042:A1 0
11 *2041:A1 0
12 *2181:A1 0.00024881
13 *2182:A1 0
14 *2067:A1 0.000193024
15 *2070:A1 2.73655e-05
16 *2045:A1 0.000135065
17 *2046:A1 0
18 *2073:A1 2.35295e-05
19 *2189:A1 8.03041e-05
20 *2190:A1 6.34431e-05
21 *2170:A1 4.58679e-05
22 *2130:A1 0.000740841
23 *2050:A1 0
24 *2049:A1 0
25 *2368:I 0.000141063
26 *2079:A1 5.0376e-05
27 *2186:A1 0
28 *2185:A1 0.000238011
29 *2175:A1 2.32531e-05
30 *2165:A1 0.000115418
31 *2127:A1 0.000299122
32 *2033:A1 0.000476056
33 *2118:A1 0.000189211
34 *2246:A1 0
35 *2245:A1 1.23935e-05
36 *2115:A1 0.000216649
37 *2137:A1 0.000413807
38 *2367:I 0.000597588
39 *2242:A1 0.000219689
40 *2241:A1 0.000203467
41 *2034:A1 1.70056e-05
42 *2280:Q 6.54892e-05
43 *369:575 0.00104938
44 *369:560 0.000633541
45 *369:518 0.00139831
46 *369:510 0.000715562
47 *369:439 0.000546435
48 *369:435 0.000717661
49 *369:350 0.00126979
50 *369:329 0.00106324
51 *369:316 0.00100431
52 *369:303 0.000931472
53 *369:299 0.000740047
54 *369:297 0.000443368
55 *369:295 0.000514582
56 *369:291 0.0016055
57 *369:277 0.00197424
58 *369:273 0.00136395
59 *369:251 0.00038774
60 *369:236 0.000333327
61 *369:234 0.00155995
62 *369:230 0.00156085
63 *369:226 0.00140173
64 *369:222 0.000663923
65 *369:212 0.000594444
66 *369:200 0.00122051
67 *369:189 0.000510135
68 *369:174 0.00136721
69 *369:170 0.0014141
70 *369:166 0.00149415
71 *369:160 0.00114404
72 *369:107 0.000619219
73 *369:97 0.001128
74 *369:67 0.00151221
75 *369:48 0.000913865
76 *369:37 0.000939251
77 *369:31 0.00146357
78 *369:29 0.000615367
79 *369:27 0.000788546
80 *369:16 0.000488375
81 *369:10 0.00112094
82 *369:6 0.000923765
83 *2032:A1 *369:27 0.000358774
84 *2032:A1 *369:29 0.000717599
85 *2032:A2 *369:16 0.000149643
86 *2033:B *2033:A1 6.89374e-05
87 *2035:A2 *2033:A1 1.64644e-05
88 *2037:A2 *369:518 0.000328177
89 *2037:B *2037:A1 1.38593e-05
90 *2037:B *2160:A1 0.000256281
91 *2037:B *369:518 0.000768823
92 *2039:A1 *2121:A1 0.000256267
93 *2039:A1 *2160:A1 9.87866e-05
94 *2039:A1 *369:518 9.87866e-05
95 *2039:A3 *2037:A1 4.33103e-05
96 *2040:A2 *2124:A1 1.29938e-05
97 *2041:A2 *369:222 0.000764233
98 *2041:A2 *369:226 1.25888e-05
99 *2041:B *369:222 6.96371e-05
100 *2041:B *369:226 2.42537e-05
101 *2042:A2 *369:212 0.00015376
102 *2043:A2 *369:212 9.97618e-05
103 *2043:A2 *369:222 0.00070554
104 *2043:A3 *2124:A1 0.000273533
105 *2045:A2 *2045:A1 9.1555e-06
106 *2046:A3 *369:273 0
107 *2046:A3 *369:277 0
108 *2049:A2 *369:329 2.32776e-05
109 *2049:A2 *369:350 0.000238626
110 *2051:A2 *369:329 7.65136e-05
111 *2051:A2 *369:350 1.33525e-05
112 *2051:A3 *369:350 0.000256353
113 *2061:A2 *2155:A1 0.000448837
114 *2067:A2 *2067:A1 0.000648449
115 *2067:A2 *369:439 9.97618e-05
116 *2070:A2 *369:234 0
117 *2072:A2 *2070:A1 3.20443e-05
118 *2073:A2 *369:291 4.59089e-05
119 *2073:A2 *369:295 0.00117887
120 *2073:A2 *369:297 0.000307529
121 *2073:B1 *369:291 2.42537e-05
122 *2074:A2 *2073:A1 0
123 *2074:A2 *369:291 0.00013161
124 *2075:A2 *369:291 0.000142289
125 *2075:A3 *369:291 4.86295e-05
126 *2079:B1 *369:316 1.36977e-05
127 *2079:B2 *369:316 4.44608e-05
128 *2081:A2 *369:316 9.79803e-05
129 *2112:A2 *2242:A1 0.000147287
130 *2115:A2 *2115:A1 0.000174086
131 *2115:A2 *2245:A1 1.25888e-05
132 *2115:B1 *2115:A1 4.85075e-05
133 *2115:B2 *2115:A1 1.25888e-05
134 *2117:A2 *2115:A1 0.000110245
135 *2118:A2 *2033:A1 2.67049e-05
136 *2118:A2 *369:27 0.000179006
137 *2118:A2 *369:29 0.000805526
138 *2119:A2 *2118:A1 2.69199e-05
139 *2120:A2 *2118:A1 0.000288595
140 *2121:A2 *2121:A1 0.000249315
141 *2121:A2 *369:170 3.20157e-05
142 *2121:A2 *369:174 3.20443e-05
143 *2122:A2 *369:174 0.000548687
144 *2123:A2 *2121:A1 0
145 *2123:A3 *369:174 2.30122e-05
146 *2124:B1 *2124:A1 0.000610914
147 *2127:A2 *369:273 0
148 *2129:A1 *2127:A1 0
149 *2129:A2 *2127:A1 5.67341e-05
150 *2129:A3 *2127:A1 0.000115251
151 *2129:A3 *369:174 0.000144199
152 *2130:A2 *2130:A1 3.75597e-05
153 *2130:B2 *2130:A1 1.07625e-05
154 *2132:A2 *2130:A1 2.43148e-05
155 *2134:B *369:560 0.000388269
156 *2134:B *369:575 0.00025627
157 *2135:A3 *369:575 0.000179006
158 *2137:A2 *2137:A1 5.45996e-05
159 *2138:A1 *369:67 5.87055e-05
160 *2142:A2 *369:560 0.000138954
161 *2149:A2 *369:67 0.000297512
162 *2150:A2 *2150:A1 1.47255e-05
163 *2155:A2 *2155:A1 9.72772e-06
164 *2155:A2 *369:575 0.00254147
165 *2156:A1 *2155:A1 0.000479123
166 *2156:A2 *2150:A1 0
167 *2160:A2 *2160:A1 3.02848e-05
168 *2160:A2 *369:560 0.000547067
169 *2165:A2 *2165:A1 3.02848e-05
170 *2165:A2 *369:170 0.000218811
171 *2165:A2 *369:174 0.000386729
172 *2165:A2 *369:510 2.42537e-05
173 *2165:A2 *369:518 0.000339509
174 *2170:A2 *369:303 4.2082e-05
175 *2175:A2 *2045:A1 0.000787403
176 *2175:A2 *2175:A1 1.60221e-05
177 *2175:A2 *369:6 0.000121225
178 *2175:A2 *369:10 0.00099436
179 *2175:A2 *369:236 0.000160221
180 *2175:A2 *369:273 0.00044862
181 *2183:A2 *2181:A1 8.9073e-05
182 *2185:A2 *2185:A1 0.000230829
183 *2186:A2 *2185:A1 0.000121225
184 *2186:A3 *2185:A1 0.000141606
185 *2187:A3 *369:234 0
186 *2187:A3 *369:251 0.000231451
187 *2189:B *2189:A1 9.18177e-05
188 *2190:A2 *369:297 0.000768849
189 *2190:A3 *2190:A1 3.64721e-05
190 *2190:A3 *369:295 0.000119337
191 *2190:A3 *369:297 0.000566851
192 *2241:B *2241:A1 4.33103e-05
193 *2243:A2 *2241:A1 0.000238716
194 *2245:B *2115:A1 2.42537e-05
195 *2245:B *2245:A1 4.33103e-05
196 *2245:B *369:107 0.000973839
197 *2247:A2 *369:107 0.00117884
198 *2253:D *2124:A1 4.93933e-05
199 *2253:D *369:200 0.000441861
200 *2256:CLK *369:107 9.7015e-05
201 *2272:CLK *2181:A1 4.33103e-05
202 *2279:D *2150:A1 0.00138389
203 *2279:D *369:575 0.00199904
204 *2279:CLK *2150:A1 0.000537017
205 *2279:CLK *369:575 0.000149171
206 *2281:D *2137:A1 4.85075e-05
207 *2287:D *2121:A1 0
208 *2289:CLK *2115:A1 1.47625e-05
209 *2303:D *2073:A1 4.33385e-06
210 *2312:CLK *369:6 0.000199434
211 *2312:CLK *369:10 0.000388357
212 *2336:I *2137:A1 0.000851606
213 *2336:I *369:67 2.42537e-05
214 *2354:I *2137:A1 0
215 *149:8 *369:560 0.000249315
216 *163:10 *2150:A1 0.000410046
217 *163:10 *369:575 0.000256273
218 *167:12 *2160:A1 5.12534e-05
219 *171:10 *2124:A1 0.000775691
220 *171:10 *369:189 2.1041e-05
221 *171:10 *369:200 0.000715395
222 *175:16 *2170:A1 0.000130047
223 *175:16 *2190:A1 9.7015e-05
224 *179:12 *2185:A1 4.86295e-05
225 *186:14 *2185:A1 1.38593e-05
226 *189:10 *369:295 0.000507183
227 *270:8 *369:230 0
228 *270:12 *369:230 0
229 *279:10 *369:560 8.95028e-05
230 *281:19 *2127:A1 8.41641e-05
231 *284:12 *369:29 0.000563801
232 *292:38 *369:291 0.00040498
233 *292:42 *369:291 7.71391e-05
234 *293:16 *369:234 0.000199889
235 *293:16 *369:273 0
236 *293:16 *369:277 0
237 *293:27 *369:230 4.24007e-05
238 *293:27 *369:234 9.69158e-05
239 *293:49 *369:230 0.000205946
240 *293:53 *2067:A1 0
241 *293:53 *369:226 0.000133731
242 *293:53 *369:439 0
243 *293:79 *2181:A1 6.67623e-05
244 *293:79 *369:230 4.24007e-05
245 *293:79 *369:435 9.34672e-05
246 *294:37 *369:97 0.00109738
247 *294:37 *369:107 0.000498718
248 *295:16 *369:107 0.000119337
249 *295:119 *369:510 9.97618e-05
250 *295:119 *369:518 0.000698239
251 *296:12 *2367:I 0.00134254
252 *298:12 *2367:I 0.00148641
253 *300:22 *2118:A1 0
254 *300:22 *369:31 0
255 *300:28 *2242:A1 0.00014818
256 *300:28 *369:31 5.12588e-05
257 *300:28 *369:37 0.00220401
258 *300:28 *369:48 0.00029636
259 *301:18 *369:97 0.000501387
260 *303:16 *2241:A1 6.07652e-05
261 *303:16 *369:37 7.29443e-05
262 *303:16 *369:67 0.000289254
263 *304:18 *2130:A1 0.00079791
264 *304:18 *369:316 4.80664e-05
265 *304:18 *369:329 0.00200583
266 *304:18 *369:350 0.00035163
267 *305:24 *2367:I 3.64721e-05
268 *306:20 *2034:A1 9.97618e-05
269 *306:20 *369:16 0.000512538
270 *307:30 *2033:A1 0.00019403
271 *307:30 *2034:A1 9.97618e-05
272 *307:30 *369:16 0.00109737
273 *307:30 *369:291 0.000143017
274 *307:36 *369:291 0.000273533
275 *307:36 *369:297 0.000179006
276 *307:36 *369:299 0.00020884
277 *307:36 *369:303 0.00122321
278 *307:36 *369:316 4.72084e-05
279 *307:48 *369:316 0.000202195
280 *308:18 *2137:A1 0.0016084
281 *308:18 *2242:A1 0.000498718
282 *308:18 *369:67 0.00118624
283 *309:18 *2189:A1 1.60221e-05
284 *309:22 *2189:A1 3.54776e-05
285 *310:18 *2045:A1 0.000184966
286 *310:18 *2175:A1 0
287 *310:18 *369:10 0.000143938
288 *311:30 *2150:A1 0
289 *311:30 *2160:A1 6.3233e-05
290 *311:30 *369:226 0.0004889
291 *311:30 *369:439 3.91921e-05
292 *311:32 *369:439 0.00135738
293 *313:22 *2367:I 3.64721e-05
294 *320:20 *2115:A1 0.000109395
295 *320:28 *2130:A1 0.00210152
296 *320:28 *369:350 6.05724e-06
297 *321:24 *2033:A1 0.00074821
298 *322:16 *369:16 0.00117883
299 *322:16 *369:160 0.000973815
300 *322:22 *369:212 0.00109738
301 *322:22 *369:222 9.97618e-05
302 *323:16 *2133:A1 0.000947734
303 *323:16 *369:166 0.0018455
304 *323:18 *2121:A1 0.00015376
305 *323:18 *369:166 0
306 *323:29 *2121:A1 0.000307521
307 *323:29 *369:166 0
308 *323:29 *369:510 0
309 *323:29 *369:518 0.000149171
310 *324:12 *2033:A1 1.33525e-05
311 *324:12 *2133:A1 0.000997526
312 *324:12 *369:166 0.00138672
313 *324:14 *369:27 2.98343e-05
314 *325:14 *2241:A1 0
315 *325:14 *369:37 0
316 *326:14 *2118:A1 0.000780255
317 *326:14 *369:29 1.21145e-05
318 *326:14 *369:31 9.69158e-05
319 *326:14 *369:37 0.000254404
320 *326:14 *369:48 0.000147287
321 *326:14 *369:97 0
322 *326:16 *2242:A1 6.31231e-05
323 *326:16 *369:48 0.000252492
324 *328:8 *2130:A1 0.000194518
325 *328:18 *369:329 0.000151162
326 *328:20 *2368:I 0.000179037
327 *328:20 *369:316 5.2155e-05
328 *328:20 *369:329 0
329 *328:32 *369:316 1.30016e-05
330 *330:12 *369:16 0.000307107
331 *330:12 *369:160 0.00010682
332 *330:27 *2121:A1 0.000256267
333 *330:31 *369:174 0.00041227
334 *330:37 *369:174 0.00121311
335 *330:54 *2127:A1 0.000389777
336 *330:54 *369:174 2.43148e-05
337 *330:54 *369:189 0.00031691
338 *330:54 *369:200 0.000214038
339 *330:67 *2124:A1 0.000240344
340 *332:39 *369:560 0.00148635
341 *334:10 *369:316 0.000266307
342 *337:14 *2242:A1 0.000498807
343 *337:14 *2367:I 0
344 *349:10 *369:303 6.66296e-05
345 *351:14 *369:291 4.46331e-05
346 *352:10 *2181:A1 0
347 *352:10 *369:230 0
348 *352:10 *369:435 0
349 *361:10 *369:277 0.000280402
350 *362:12 *369:212 6.67623e-05
351 *364:10 *369:170 0.000113941
352 *364:10 *369:174 0.000398957
353 *365:20 *2033:A1 0.000600148
354 *365:26 *2118:A1 2.43148e-05
355 *365:26 *369:29 8.01147e-05
356 *365:26 *369:31 0.000120172
357 *366:6 *369:97 4.80664e-05
358 *366:6 *369:107 0.000224281
359 *366:21 *2115:A1 0.000249315
*RES
1 *2280:Q *369:6 4.95455 
2 *369:6 *369:10 8.22727 
3 *369:10 *369:16 8.68181 
4 *369:16 *2034:A1 4.68182 
5 *369:16 *369:27 5.13636 
6 *369:27 *369:29 2.81818 
7 *369:29 *369:31 1.54545 
8 *369:31 *369:37 9.04545 
9 *369:37 *2241:A1 5.38961 
10 *369:37 *369:48 6.22727 
11 *369:48 *2242:A1 10.7273 
12 *369:48 *369:67 9.5 
13 *369:67 *2367:I 17.8636 
14 *369:67 *2137:A1 8.55519 
15 *369:31 *369:97 9.86363 
16 *369:97 *369:107 12.6364 
17 *369:107 *2115:A1 6.04545 
18 *369:107 *2245:A1 4.66234 
19 *369:97 *2246:A1 4.5 
20 *369:29 *2118:A1 10.5455 
21 *369:27 *2033:A1 20.7078 
22 *369:10 *369:160 6.22727 
23 *369:160 *369:166 10.1364 
24 *369:166 *369:170 6.59091 
25 *369:170 *369:174 12.2273 
26 *369:174 *2127:A1 11 
27 *369:174 *369:189 1.54545 
28 *369:189 *2165:A1 9.60065 
29 *369:189 *369:200 3.18181 
30 *369:200 *369:212 16.0455 
31 *369:212 *369:222 2.43506 
32 *369:222 *369:226 8.33766 
33 *369:226 *369:230 4.72727 
34 *369:230 *369:234 8.95454 
35 *369:234 *369:236 0.999999 
36 *369:236 *2175:A1 4.73701 
37 *369:236 *369:251 10.3636 
38 *369:251 *2185:A1 6.20779 
39 *369:251 *2186:A1 4.5 
40 *369:234 *369:273 7.95454 
41 *369:273 *369:277 7.5 
42 *369:277 *369:291 16.8182 
43 *369:291 *369:295 6.59091 
44 *369:295 *369:297 2.45454 
45 *369:297 *369:299 0.636363 
46 *369:299 *369:303 8.40909 
47 *369:303 *2079:A1 4.86364 
48 *369:303 *369:316 2.27273 
49 *369:316 *2368:I 5.64448 
50 *369:316 *369:329 4.11039 
51 *369:329 *2049:A1 4.5 
52 *369:329 *369:350 20.2532 
53 *369:350 *2050:A1 4.5 
54 *369:350 *2130:A1 19.5909 
55 *369:299 *2170:A1 9.23701 
56 *369:297 *2190:A1 9.36364 
57 *369:295 *2189:A1 9.38312 
58 *369:291 *2073:A1 4.68182 
59 *369:277 *2046:A1 4.5 
60 *369:273 *2045:A1 10.4351 
61 *369:230 *2070:A1 9.18182 
62 *369:226 *369:435 0.636363 
63 *369:435 *369:439 7.22727 
64 *369:439 *2067:A1 6.13636 
65 *369:439 *2182:A1 4.5 
66 *369:435 *2181:A1 9.98052 
67 *369:222 *2041:A1 4.5 
68 *369:212 *2042:A1 4.5 
69 *369:200 *2124:A1 13.2727 
70 *369:170 *2121:A1 14.9545 
71 *369:166 *369:510 5.86364 
72 *369:510 *369:518 7.95454 
73 *369:518 *2037:A1 9.16234 
74 *369:518 *2160:A1 14.1461 
75 *369:510 *2038:A1 4.5 
76 *369:160 *2133:A1 6.31818 
77 *369:6 *369:560 12.3442 
78 *369:560 *2134:A1 4.5 
79 *369:560 *369:575 10.2273 
80 *369:575 *2155:A1 11.0552 
81 *369:575 *2150:A1 12.6006 
*END
